
     Program PWSCF v.7.4.1 starts on  1Aug2026 at 19:45:19 

     This program is part of the open-source Quantum ESPRESSO suite
     for quantum simulation of materials; please cite
         "P. Giannozzi et al., J. Phys.:Condens. Matter 21 395502 (2009);
         "P. Giannozzi et al., J. Phys.:Condens. Matter 29 465901 (2017);
         "P. Giannozzi et al., J. Chem. Phys. 152 154105 (2020);
          URL http://www.quantum-espresso.org", 
     in publications or presentations arising from this work. More details at
     http://www.quantum-espresso.org/quote

     Parallel version (MPI & OpenMP), running on      64 processor cores
     Number of MPI processes:                64
     Threads/MPI process:                     1

     MPI processes distributed on     1 nodes
     48884 MiB available memory on the printing compute node when the environment starts

     Reading input from disp_022_atom57_-1y.in

     Current dimensions of program PWSCF are:
     Max number of different atomic species (ntypx) = 10
     Max number of k-points (npk) =  40000
     Max angular momentum in pseudopotentials (lmaxx) =  4
     file S.pbe-n-kjpaw_psl.1.0.0.UPF: wavefunction(s)  3S 3P renormalized
     file W.pbe-spn-kjpaw_psl.1.0.0.UPF: wavefunction(s)  6S 5P 5D renormalized
     file Ag.pbe-n-kjpaw_psl.1.0.0.UPF: wavefunction(s)  5S 5P renormalized
     file N.pbe-n-kjpaw_psl.1.0.0.UPF: wavefunction(s)  2S renormalized
     file O.pbe-n-kjpaw_psl.1.0.0.UPF: wavefunction(s)  2S 2P renormalized
     file H.pbe-kjpaw_psl.1.0.0.UPF: wavefunction(s)  1S renormalized
     Message from routine setup:
     the system is metallic, specify occupations

     R & G space division:  proc/nbgrp/npool/nimage =      64
     Subspace diagonalization in iterative solution of the eigenvalue problem:
     one sub-group per band group will be used
     ELPA distributed-memory algorithm (size of sub-group:  2*  2 procs)


     Parallelization info
     --------------------
     sticks:   dense  smooth     PW     G-vecs:    dense   smooth      PW
     Min         247     123     32                39673    14017    1874
     Max         248     124     33                39680    14030    1885
     Sum       15841    7909   2065              2539249   897387  120111

     Using Slab Decomposition



     bravais-lattice index     =            0
     lattice parameter (alat)  =      23.9624  a.u.
     unit-cell volume          =   18794.0729 (a.u.)^3
     number of atoms/cell      =           58
     number of atomic types    =            6
     number of electrons       =       485.00 (up: 243.00, down: 242.00)
     number of Kohn-Sham states=          243
     kinetic-energy cutoff     =      50.0000  Ry
     charge density cutoff     =     400.0000  Ry
     scf convergence threshold =      1.0E-10
     mixing beta               =       0.4000
     number of iterations used =            8  plain     mixing
     Exchange-correlation= SLA  PW   PBX  PBC
                           (   1   4   3   4   0   0   0)

     celldm(1)=  23.962422  celldm(2)=   0.000000  celldm(3)=   0.000000
     celldm(4)=   0.000000  celldm(5)=   0.000000  celldm(6)=   0.000000

     crystal axes: (cart. coord. in units of alat)
               a(1) = (   1.000000   0.000000   0.000000 )  
               a(2) = (  -0.500000   0.866025   0.000000 )  
               a(3) = (   0.000000   0.000000   1.577241 )  

     reciprocal axes: (cart. coord. in units 2 pi/alat)
               b(1) = (  1.000000  0.577350 -0.000000 )  
               b(2) = (  0.000000  1.154701  0.000000 )  
               b(3) = (  0.000000 -0.000000  0.634018 )  


     PseudoPot. # 1 for S  read from file:
     /share/work_r640/fmigm008/pseudo/S.pbe-n-kjpaw_psl.1.0.0.UPF
     MD5 check sum: fb45dfebcf3e72a4e1bd4a866ec2e262
     Pseudo is Projector augmented-wave + core cor, Zval =  6.0
     Generated using &quot;atomic&quot; code by A. Dal Corso  v.6.3
     Shape of augmentation charge: PSQ
     Using radial grid of 1151 points,  6 beta functions with: 
                l(1) =   0
                l(2) =   0
                l(3) =   1
                l(4) =   1
                l(5) =   2
                l(6) =   2
     Q(r) pseudized with 0 coefficients 


     PseudoPot. # 2 for W  read from file:
     /share/work_r640/fmigm008/pseudo/W.pbe-spn-kjpaw_psl.1.0.0.UPF
     MD5 check sum: 03c3df5b60893f488392c7401945500a
     Pseudo is Projector augmented-wave + core cor, Zval = 14.0
     Generated using &quot;atomic&quot; code by A. Dal Corso  v.6.2.2
     Shape of augmentation charge: PSQ
     Using radial grid of 1273 points,  6 beta functions with: 
                l(1) =   0
                l(2) =   0
                l(3) =   1
                l(4) =   1
                l(5) =   2
                l(6) =   2
     Q(r) pseudized with 0 coefficients 


     PseudoPot. # 3 for Ag read from file:
     /share/work_r640/fmigm008/pseudo/Ag.pbe-n-kjpaw_psl.1.0.0.UPF
     MD5 check sum: 51099775af2a3182a6a1caffb86952a3
     Pseudo is Projector augmented-wave + core cor, Zval = 11.0
     Generated using &quot;atomic&quot; code by A. Dal Corso  v.6.2.2
     Shape of augmentation charge: PSQ
     Using radial grid of 1237 points,  6 beta functions with: 
                l(1) =   0
                l(2) =   0
                l(3) =   1
                l(4) =   1
                l(5) =   2
                l(6) =   2
     Q(r) pseudized with 0 coefficients 


     PseudoPot. # 4 for N  read from file:
     /share/work_r640/fmigm008/pseudo/N.pbe-n-kjpaw_psl.1.0.0.UPF
     MD5 check sum: 14c48229446f9f2d411169a3abcbc3fa
     Pseudo is Projector augmented-wave + core cor, Zval =  5.0
     Generated using &quot;atomic&quot; code by A. Dal Corso  v.6.3
     Shape of augmentation charge: PSQ
     Using radial grid of 1085 points,  4 beta functions with: 
                l(1) =   0
                l(2) =   0
                l(3) =   1
                l(4) =   1
     Q(r) pseudized with 0 coefficients 


     PseudoPot. # 5 for O  read from file:
     /share/work_r640/fmigm008/pseudo/O.pbe-n-kjpaw_psl.1.0.0.UPF
     MD5 check sum: e99d9cef9b487d1ca56f5b95ecd0fd7a
     Pseudo is Projector augmented-wave + core cor, Zval =  6.0
     Generated using &quot;atomic&quot; code by A. Dal Corso  v.6.3
     Shape of augmentation charge: PSQ
     Using radial grid of 1095 points,  4 beta functions with: 
                l(1) =   0
                l(2) =   0
                l(3) =   1
                l(4) =   1
     Q(r) pseudized with 0 coefficients 


     PseudoPot. # 6 for H  read from file:
     /share/work_r640/fmigm008/pseudo/H.pbe-kjpaw_psl.1.0.0.UPF
     MD5 check sum: d81a744832360e4a8af0b0b5b123bc2a
     Pseudo is Projector augmented-wave, Zval =  1.0
     Generated using &quot;atomic&quot; code by A. Dal Corso  v.6.3MaX
     Shape of augmentation charge: PSQ
     Using radial grid of  929 points,  2 beta functions with: 
                l(1) =   0
                l(2) =   0
     Q(r) pseudized with 0 coefficients 


     atomic species   valence    mass     pseudopotential
     S                 6.00    32.06500     S ( 1.00)
     W                14.00   183.84000     W ( 1.00)
     Ag               11.00   107.87000     Ag( 1.00)
     N                 5.00    14.00700     N ( 1.00)
     O                 6.00    15.99900     O ( 1.00)
     H                 1.00     1.00800     H ( 1.00)

     Starting magnetic structure 
     atomic species   magnetization
     S               0.000
     W               0.000
     Ag              0.000
     N               0.000
     O               0.000
     H               0.000

     No symmetry found


                                    s                        frac. trans.

      isym =  1     identity                                     

 cryst.   s( 1) = (     1          0          0      )
                  (     0          1          0      )
                  (     0          0          1      )

 cart.    s( 1) = (  1.0000000  0.0000000  0.0000000 )
                  (  0.0000000  1.0000000  0.0000000 )
                  (  0.0000000  0.0000000  1.0000000 )


   Cartesian axes

     site n.     atom                  positions (alat units)
         1        W      tau(   1) = (  -0.0028587   0.1395947   0.2444812  )
         2        W      tau(   2) = (  -0.1282026   0.3564836   0.2443568  )
         3        W      tau(   3) = (  -0.2537731   0.5727289   0.2442261  )
         4        W      tau(   4) = (  -0.3783723   0.7888166   0.2441498  )
         5        W      tau(   5) = (   0.2469096   0.1395426   0.2440120  )
         6        W      tau(   6) = (   0.1225026   0.3570726   0.2432304  )
         7        W      tau(   7) = (  -0.0034888   0.5727502   0.2429844  )
         8        W      tau(   8) = (  -0.1283671   0.7891505   0.2439766  )
         9        W      tau(   9) = (   0.4969194   0.1397378   0.2430413  )
        10        W      tau(  10) = (   0.3721499   0.3552416   0.2405337  )
        11        W      tau(  11) = (   0.2452295   0.5727639   0.2402480  )
        12        W      tau(  12) = (   0.1220165   0.7890246   0.2436243  )
        13        W      tau(  13) = (   0.7467445   0.1394449   0.2440642  )
        14        W      tau(  14) = (   0.6211264   0.3563823   0.2436826  )
        15        W      tau(  15) = (   0.4971469   0.5732720   0.2421413  )
        16        W      tau(  16) = (   0.3721785   0.7886524   0.2428338  )
        17        S      tau(  17) = (   0.1219502   0.0672380   0.3684592  )
        18        S      tau(  18) = (  -0.0024014   0.2846735   0.3681910  )
        19        S      tau(  19) = (  -0.1281525   0.5008469   0.3682441  )
        20        S      tau(  20) = (  -0.2533258   0.7170167   0.3685687  )
        21        S      tau(  21) = (   0.3722606   0.0676427   0.3679766  )
        22        S      tau(  22) = (   0.2484890   0.2849851   0.3676532  )
        23        S      tau(  23) = (   0.1218721   0.5017515   0.3660861  )
        24        S      tau(  24) = (  -0.0030403   0.7167922   0.3679041  )
        25        S      tau(  25) = (   0.6215745   0.0674060   0.3678624  )
        26        S      tau(  26) = (   0.4959803   0.2843589   0.3667029  )
        27        S      tau(  27) = (   0.3710177   0.5007270   0.3638206  )
        28        S      tau(  28) = (   0.2481984   0.7153351   0.3669892  )
        29        S      tau(  29) = (   0.8717811   0.0668114   0.3679626  )
        30        S      tau(  30) = (   0.7463862   0.2840842   0.3681041  )
        31        S      tau(  31) = (   0.6195449   0.5004430   0.3687043  )
        32        S      tau(  32) = (   0.4956231   0.7159829   0.3681683  )
        33        S      tau(  33) = (   0.1218639   0.0672424   0.1203644  )
        34        S      tau(  34) = (  -0.0031686   0.2839920   0.1203246  )
        35        S      tau(  35) = (  -0.1290559   0.5005458   0.1199474  )
        36        S      tau(  36) = (  -0.2533637   0.7168463   0.1201865  )
        37        S      tau(  37) = (   0.3715067   0.0672515   0.1197328  )
        38        S      tau(  38) = (   0.2459712   0.2831895   0.1185177  )
        39        S      tau(  39) = (   0.1200987   0.4999851   0.1172124  )
        40        S      tau(  40) = (  -0.0034124   0.7174366   0.1195727  )
        41        S      tau(  41) = (   0.6220409   0.0671938   0.1195919  )
        42        S      tau(  42) = (   0.4978914   0.2834015   0.1177695  )
        43        S      tau(  43) = (   0.3720771   0.5008174   0.1169455  )
        44        S      tau(  44) = (   0.2466393   0.7180153   0.1180007  )
        45        S      tau(  45) = (   0.8722199   0.0680125   0.1199081  )
        46        S      tau(  46) = (   0.7469729   0.2840633   0.1202901  )
        47        S      tau(  47) = (   0.6222799   0.5003741   0.1191499  )
        48        S      tau(  48) = (   0.4972527   0.7176301   0.1185580  )
        49        Ag     tau(  49) = (   0.1547683   0.5150674   0.5753024  )
        50        Ag     tau(  50) = (   0.3069329   0.3595674   0.5464056  )
        51        Ag     tau(  51) = (   0.5024756   0.4743393   0.5615070  )
        52        Ag     tau(  52) = (   0.3399570   0.6321033   0.5430870  )
        53        Ag     tau(  53) = (   0.3428646   0.4953663   0.7084671  )
        54        N      tau(  54) = (   0.2596825   0.4648737   0.8674395  )
        55        O      tau(  55) = (   0.1477385   0.4509631   0.8500100  )
        56        H      tau(  56) = (   0.2650389   0.5234661   0.9229976  )
        57        H      tau(  57) = (   0.1408570   0.4613460   0.7729758  )
        58        H      tau(  58) = (   0.2837088   0.3964009   0.9032094  )

     --------------------------------------------
     DFT-D3 Dispersion Correction (3-body terms):
     --------------------------------------------
       Reference C6 values for interpolation: 

         atom   Coordination number   C6
         H          0.912             6.05
         H          0.000            15.18
         N          0.000            50.54
         N          0.994            44.25
         N          2.014            39.35
         N          2.990            31.16
         O          0.000            31.01
         O          0.993            25.63
         O          1.989            20.74
         S          0.000           268.01
         S          0.995           261.99
         S          1.990           251.62
         Ag         0.000           853.49
         Ag         0.968           537.23
         W          0.000          1628.72
         W          1.929          1086.81
         W         10.915           796.19

       Values used:

         atom   Coordination number  R0_AB[au]  C6      C8
         W          9.805            3.766    796.19 128250.55
         W          9.806            3.766    796.19 128250.55
         W          9.854            3.766    796.19 128250.55
         W          9.866            3.766    796.19 128250.55
         W          9.842            3.766    796.19 128250.55
         W          9.851            3.766    796.19 128250.55
         W          9.870            3.766    796.19 128250.55
         W          9.833            3.766    796.19 128250.55
         W          9.854            3.766    796.19 128250.55
         W          9.880            3.766    796.19 128250.55
         W          9.879            3.766    796.19 128250.55
         W          9.846            3.766    796.19 128250.55
         W          9.811            3.766    796.19 128250.55
         W          9.849            3.766    796.19 128250.55
         W          9.870            3.766    796.19 128250.55
         W          9.855            3.766    796.19 128250.55
         S          3.670            3.128    251.62  12327.25
         S          3.672            3.128    251.62  12327.25
         S          3.679            3.128    251.62  12327.25
         S          3.675            3.128    251.62  12327.25
         S          3.690            3.128    251.62  12327.25
         S          4.579            3.128    251.62  12327.25
         S          4.512            3.128    251.62  12327.25
         S          3.693            3.128    251.62  12327.25
         S          3.676            3.128    251.62  12327.25
         S          3.843            3.128    251.62  12327.25
         S          4.976            3.128    251.62  12327.25
         S          4.443            3.128    251.62  12327.25
         S          3.677            3.128    251.62  12327.25
         S          3.672            3.128    251.62  12327.25
         S          4.198            3.128    251.62  12327.25
         S          3.918            3.128    251.62  12327.25
         S          3.700            3.128    251.62  12327.25
         S          3.699            3.128    251.62  12327.25
         S          3.697            3.128    251.62  12327.25
         S          3.697            3.128    251.62  12327.25
         S          3.689            3.128    251.62  12327.25
         S          3.673            3.128    251.62  12327.25
         S          3.669            3.128    251.62  12327.25
         S          3.689            3.128    251.62  12327.25
         S          3.693            3.128    251.62  12327.25
         S          3.672            3.128    251.62  12327.25
         S          3.662            3.128    251.62  12327.25
         S          3.672            3.128    251.62  12327.25
         S          3.693            3.128    251.62  12327.25
         S          3.697            3.128    251.62  12327.25
         S          3.686            3.128    251.62  12327.25
         S          3.680            3.128    251.62  12327.25
         Ag         3.220            3.147    537.23  47741.54
         Ag         3.973            3.147    537.23  47741.54
         Ag         3.317            3.147    537.23  47741.54
         Ag         4.158            3.147    537.23  47741.54
         Ag         4.122            3.147    537.23  47741.54
         N          3.752            2.478     31.16    687.50
         O          2.001            2.345     20.82    420.11
         H          1.005            2.062      6.18     74.66
         H          1.030            2.062      6.16     74.42
         H          1.007            2.062      6.18     74.65

         Molecular C6 ( Ry / a.u.^6 ) =   1190031.52


   Crystallographic axes

     site n.     atom                  positions (cryst. coord.)
         1        W      tau(   1) = (  0.0777364  0.1611901  0.1550056  )
         2        W      tau(   2) = (  0.0776133  0.4116318  0.1549267  )
         3        W      tau(   3) = (  0.0768921  0.6613303  0.1548438  )
         4        W      tau(   4) = (  0.0770512  0.9108469  0.1547955  )
         5        W      tau(   5) = (  0.3274746  0.1611299  0.1547081  )
         6        W      tau(   6) = (  0.3286586  0.4123119  0.1542125  )
         7        W      tau(   7) = (  0.3271886  0.6613549  0.1540566  )
         8        W      tau(   8) = (  0.3272492  0.9112326  0.1546856  )
         9        W      tau(   9) = (  0.5775970  0.1613553  0.1540926  )
        10        W      tau(  10) = (  0.5772488  0.4101977  0.1525028  )
        11        W      tau(  11) = (  0.5759149  0.6613708  0.1523217  )
        12        W      tau(  12) = (  0.5775601  0.9110871  0.1544623  )
        13        W      tau(  13) = (  0.8272530  0.1610171  0.1547412  )
        14        W      tau(  14) = (  0.8268839  0.4115149  0.1544993  )
        15        W      tau(  15) = (  0.8281256  0.6619575  0.1535220  )
        16        W      tau(  16) = (  0.8275072  0.9106573  0.1539611  )
        17        S      tau(  17) = (  0.1607701  0.0776397  0.2336099  )
        18        S      tau(  18) = (  0.1619549  0.3287126  0.2334399  )
        19        S      tau(  19) = (  0.1610116  0.5783281  0.2334735  )
        20        S      tau(  20) = (  0.1606439  0.8279395  0.2336794  )
        21        S      tau(  21) = (  0.4113141  0.0781070  0.2333040  )
        22        S      tau(  22) = (  0.4130252  0.3290725  0.2330989  )
        23        S      tau(  23) = (  0.4115585  0.5793727  0.2321053  )
        24        S      tau(  24) = (  0.4107998  0.8276803  0.2332579  )
        25        S      tau(  25) = (  0.6604913  0.0778337  0.2332315  )
        26        S      tau(  26) = (  0.6601550  0.3283494  0.2324963  )
        27        S      tau(  27) = (  0.6601125  0.5781897  0.2306689  )
        28        S      tau(  28) = (  0.6611973  0.8259978  0.2326779  )
        29        S      tau(  29) = (  0.9103547  0.0771472  0.2332950  )
        30        S      tau(  30) = (  0.9104023  0.3280322  0.2333848  )
        31        S      tau(  31) = (  0.9084758  0.5778618  0.2337653  )
        32        S      tau(  32) = (  0.9089960  0.8267459  0.2334255  )
        33        S      tau(  33) = (  0.1606863  0.0776448  0.0763132  )
        34        S      tau(  34) = (  0.1607942  0.3279257  0.0762880  )
        35        S      tau(  35) = (  0.1599344  0.5779805  0.0760488  )
        36        S      tau(  36) = (  0.1605077  0.8277428  0.0762004  )
        37        S      tau(  37) = (  0.4103343  0.0776554  0.0759128  )
        38        S      tau(  38) = (  0.4094707  0.3269991  0.0751424  )
        39        S      tau(  39) = (  0.4087652  0.5773330  0.0743148  )
        40        S      tau(  40) = (  0.4107999  0.8284245  0.0758113  )
        41        S      tau(  41) = (  0.6608352  0.0775887  0.0758235  )
        42        S      tau(  42) = (  0.6615133  0.3272438  0.0746680  )
        43        S      tau(  43) = (  0.6612241  0.5782941  0.0741456  )
        44        S      tau(  44) = (  0.6611856  0.8290927  0.0748146  )
        45        S      tau(  45) = (  0.9114869  0.0785340  0.0760239  )
        46        S      tau(  46) = (  0.9109769  0.3280081  0.0762661  )
        47        S      tau(  47) = (  0.9111710  0.5777822  0.0755432  )
        48        S      tau(  48) = (  0.9115766  0.8286478  0.0751680  )
        49        Ag     tau(  49) = (  0.4521427  0.5947486  0.3647523  )
        50        Ag     tau(  50) = (  0.5145293  0.4151927  0.3464312  )
        51        Ag     tau(  51) = (  0.7763355  0.5477198  0.3560058  )
        52        Ag     tau(  52) = (  0.7049020  0.7298900  0.3443271  )
        53        Ag     tau(  53) = (  0.6288645  0.5719998  0.4491812  )
        54        N      tau(  54) = (  0.5280775  0.5367899  0.5499726  )
        55        O      tau(  55) = (  0.4081021  0.5207274  0.5389220  )
        56        H      tau(  56) = (  0.5672622  0.6044466  0.5851974  )
        57        H      tau(  57) = (  0.4072153  0.5327164  0.4900809  )
        58        H      tau(  58) = (  0.5125710  0.4577243  0.5726514  )

     number of k points=    13
                       cart. coord. in units 2pi/alat
        k(    1) = (   0.0000000   0.0000000   0.0000000), wk =   0.0400000
        k(    2) = (   0.0000000   0.2309401   0.0000000), wk =   0.0800000
        k(    3) = (   0.0000000   0.4618802   0.0000000), wk =   0.0800000
        k(    4) = (   0.2000000   0.3464102   0.0000000), wk =   0.0800000
        k(    5) = (   0.2000000   0.5773503   0.0000000), wk =   0.0800000
        k(    6) = (  -0.2000000   0.1154701   0.0000000), wk =   0.0800000
        k(    7) = (   0.2000000   0.1154701   0.0000000), wk =   0.0800000
        k(    8) = (  -0.4000000   0.2309401   0.0000000), wk =   0.0800000
        k(    9) = (   0.4000000   0.2309401   0.0000000), wk =   0.0800000
        k(   10) = (  -0.2000000   0.3464102   0.0000000), wk =   0.0800000
        k(   11) = (   0.4000000  -0.0000000   0.0000000), wk =   0.0800000
        k(   12) = (  -0.4000000   0.4618802   0.0000000), wk =   0.0800000
        k(   13) = (   0.6000000   0.1154701   0.0000000), wk =   0.0800000

                       cryst. coord.
        k(    1) = (   0.0000000   0.0000000   0.0000000), wk =   0.0400000
        k(    2) = (   0.0000000   0.2000000   0.0000000), wk =   0.0800000
        k(    3) = (   0.0000000   0.4000000   0.0000000), wk =   0.0800000
        k(    4) = (   0.2000000   0.2000000   0.0000000), wk =   0.0800000
        k(    5) = (   0.2000000   0.4000000   0.0000000), wk =   0.0800000
        k(    6) = (  -0.2000000   0.2000000   0.0000000), wk =   0.0800000
        k(    7) = (   0.2000000   0.0000000   0.0000000), wk =   0.0800000
        k(    8) = (  -0.4000000   0.4000000   0.0000000), wk =   0.0800000
        k(    9) = (   0.4000000   0.0000000   0.0000000), wk =   0.0800000
        k(   10) = (  -0.2000000   0.4000000   0.0000000), wk =   0.0800000
        k(   11) = (   0.4000000  -0.2000000   0.0000000), wk =   0.0800000
        k(   12) = (  -0.4000000   0.6000000   0.0000000), wk =   0.0800000
        k(   13) = (   0.6000000  -0.2000000   0.0000000), wk =   0.0800000

     Dense  grid:  2539249 G-vectors     FFT dimensions: ( 160, 160, 243)

     Smooth grid:   897387 G-vectors     FFT dimensions: ( 108, 108, 180)

     Dynamical RAM for                 wfc:       6.50 MB

     Dynamical RAM for     wfc (w. buffer):     175.50 MB

     Dynamical RAM for           str. fact:       3.63 MB

     Dynamical RAM for           local pot:       0.00 MB

     Dynamical RAM for          nlocal pot:      26.11 MB

     Dynamical RAM for                qrad:       9.63 MB

     Dynamical RAM for          rho,v,vnew:       8.32 MB

     Dynamical RAM for               rhoin:       2.77 MB

     Dynamical RAM for            rho*nmix:      19.38 MB

     Dynamical RAM for           G-vectors:       2.38 MB

     Dynamical RAM for          h,s,v(r/c):       2.70 MB

     Dynamical RAM for          <psi|beta>:       3.62 MB

     Dynamical RAM for                 psi:      13.00 MB

     Dynamical RAM for                hpsi:      13.00 MB

     Dynamical RAM for                spsi:      13.00 MB

     Dynamical RAM for      wfcinit/wfcrot:      14.35 MB

     Dynamical RAM for           addusdens:     132.60 MB

     Dynamical RAM for          addusforce:     170.39 MB

     Dynamical RAM for         addusstress:     122.61 MB

     Estimated static dynamical RAM per process >     237.27 MB

     Estimated max dynamical RAM per process >     427.03 MB

     Estimated total dynamical RAM >      26.69 GB
     Generating pointlists ...
     new r_m :   0.0782 (alat units)  1.8731 (a.u.) for type    1
     new r_m :   0.0782 (alat units)  1.8731 (a.u.) for type    2
     new r_m :   0.0751 (alat units)  1.7989 (a.u.) for type    3
     new r_m :   0.0334 (alat units)  0.7997 (a.u.) for type    4
     new r_m :   0.0322 (alat units)  0.7713 (a.u.) for type    5
     new r_m :   0.0322 (alat units)  0.7713 (a.u.) for type    6

     Initial potential from superposition of free atoms

     starting charge     484.9880, renormalised to     485.0000

     negative rho (up, down):  1.010E-03 1.010E-03
     Starting wfcs are  392 randomized atomic wfcs
     Checking if some PAW data can be deallocated... 
       PAW data deallocated on   32 nodes for type:  1
       PAW data deallocated on   42 nodes for type:  2
       PAW data deallocated on   59 nodes for type:  3
       PAW data deallocated on   63 nodes for type:  4
       PAW data deallocated on   63 nodes for type:  5
       PAW data deallocated on   61 nodes for type:  6

     total cpu time spent up to now is      167.4 secs

     per-process dynamical memory:   308.7 Mb

     Self-consistent Calculation

     iteration #  1     ecut=    50.00 Ry     beta= 0.40
     Davidson diagonalization with overlap

---- Real-time Memory Report at c_bands before calling an iterative solver
           368 MiB given to the printing process from OS
           301 MiB allocation reported by mallinfo(arena+hblkhd)
         49588 MiB available memory on the node where the printing process lives
------------------
     ethr =  1.00E-02,  avg # of iterations =  2.0

     Threshold (ethr) on eigenvalues was too large:
     Diagonalizing with lowered threshold

     Davidson diagonalization with overlap

---- Real-time Memory Report at c_bands before calling an iterative solver
           472 MiB given to the printing process from OS
           304 MiB allocation reported by mallinfo(arena+hblkhd)
         41709 MiB available memory on the node where the printing process lives
------------------
     ethr =  4.34E-04,  avg # of iterations =  4.8

     negative rho (up, down):  1.027E-02 6.722E-03

     total cpu time spent up to now is      832.4 secs

     total energy              =  -16138.22551398 Ry
     estimated scf accuracy    <       2.44161202 Ry

     total magnetization       =     1.00 Bohr mag/cell
     absolute magnetization    =     4.14 Bohr mag/cell

     iteration #  2     ecut=    50.00 Ry     beta= 0.40
     Davidson diagonalization with overlap

---- Real-time Memory Report at c_bands before calling an iterative solver
           480 MiB given to the printing process from OS
           311 MiB allocation reported by mallinfo(arena+hblkhd)
         46134 MiB available memory on the node where the printing process lives
------------------
     ethr =  5.03E-04,  avg # of iterations =  7.3

     negative rho (up, down):  3.219E-02 2.304E-02

     total cpu time spent up to now is     1184.2 secs

     total energy              =  -16138.44669292 Ry
     estimated scf accuracy    <       0.41192864 Ry

     total magnetization       =     1.00 Bohr mag/cell
     absolute magnetization    =     3.05 Bohr mag/cell

     iteration #  3     ecut=    50.00 Ry     beta= 0.40
     Davidson diagonalization with overlap

---- Real-time Memory Report at c_bands before calling an iterative solver
           483 MiB given to the printing process from OS
           313 MiB allocation reported by mallinfo(arena+hblkhd)
         30067 MiB available memory on the node where the printing process lives
------------------
     ethr =  8.49E-05,  avg # of iterations =  8.3

     negative rho (up, down):  3.684E-02 2.752E-02

     total cpu time spent up to now is     1550.3 secs

     total energy              =  -16138.51424642 Ry
     estimated scf accuracy    <       0.22302486 Ry

     total magnetization       =     1.00 Bohr mag/cell
     absolute magnetization    =     2.37 Bohr mag/cell

     iteration #  4     ecut=    50.00 Ry     beta= 0.40
     Davidson diagonalization with overlap

---- Real-time Memory Report at c_bands before calling an iterative solver
           484 MiB given to the printing process from OS
           314 MiB allocation reported by mallinfo(arena+hblkhd)
         46066 MiB available memory on the node where the printing process lives
------------------
     ethr =  4.60E-05,  avg # of iterations =  9.8

     negative rho (up, down):  3.078E-02 2.393E-02

     total cpu time spent up to now is     1888.9 secs

     total energy              =  -16138.54499965 Ry
     estimated scf accuracy    <       0.05171746 Ry

     total magnetization       =     1.00 Bohr mag/cell
     absolute magnetization    =     1.98 Bohr mag/cell

     iteration #  5     ecut=    50.00 Ry     beta= 0.40
     Davidson diagonalization with overlap

---- Real-time Memory Report at c_bands before calling an iterative solver
           514 MiB given to the printing process from OS
           346 MiB allocation reported by mallinfo(arena+hblkhd)
         27733 MiB available memory on the node where the printing process lives
------------------
     ethr =  1.07E-05,  avg # of iterations =  7.2

     negative rho (up, down):  2.131E-02 1.694E-02

     total cpu time spent up to now is     2241.0 secs

     total energy              =  -16138.55004579 Ry
     estimated scf accuracy    <       0.03191713 Ry

     total magnetization       =     1.00 Bohr mag/cell
     absolute magnetization    =     1.71 Bohr mag/cell

     iteration #  6     ecut=    50.00 Ry     beta= 0.40
     Davidson diagonalization with overlap

---- Real-time Memory Report at c_bands before calling an iterative solver
           517 MiB given to the printing process from OS
           348 MiB allocation reported by mallinfo(arena+hblkhd)
         28807 MiB available memory on the node where the printing process lives
------------------
     ethr =  6.58E-06,  avg # of iterations =  7.3

     negative rho (up, down):  1.385E-02 1.143E-02

     total cpu time spent up to now is     2561.8 secs

     total energy              =  -16138.55328071 Ry
     estimated scf accuracy    <       0.01662679 Ry

     total magnetization       =     1.00 Bohr mag/cell
     absolute magnetization    =     1.49 Bohr mag/cell

     iteration #  7     ecut=    50.00 Ry     beta= 0.40
     Davidson diagonalization with overlap

---- Real-time Memory Report at c_bands before calling an iterative solver
           518 MiB given to the printing process from OS
           349 MiB allocation reported by mallinfo(arena+hblkhd)
         27109 MiB available memory on the node where the printing process lives
------------------
     ethr =  3.43E-06,  avg # of iterations =  5.6

     negative rho (up, down):  1.986E-02 2.039E-02

     total cpu time spent up to now is     2866.0 secs

     total energy              =  -16138.55193953 Ry
     estimated scf accuracy    <       0.00833369 Ry

     total magnetization       =     1.00 Bohr mag/cell
     absolute magnetization    =     1.34 Bohr mag/cell

     iteration #  8     ecut=    50.00 Ry     beta= 0.40
     Davidson diagonalization with overlap

---- Real-time Memory Report at c_bands before calling an iterative solver
           519 MiB given to the printing process from OS
           350 MiB allocation reported by mallinfo(arena+hblkhd)
         27207 MiB available memory on the node where the printing process lives
------------------
     ethr =  1.72E-06,  avg # of iterations =  7.8

     negative rho (up, down):  2.091E-02 2.205E-02

     total cpu time spent up to now is     3173.5 secs

     total energy              =  -16138.55158711 Ry
     estimated scf accuracy    <       0.00210822 Ry

     total magnetization       =     1.00 Bohr mag/cell
     absolute magnetization    =     1.22 Bohr mag/cell

     iteration #  9     ecut=    50.00 Ry     beta= 0.40
     Davidson diagonalization with overlap

---- Real-time Memory Report at c_bands before calling an iterative solver
           520 MiB given to the printing process from OS
           351 MiB allocation reported by mallinfo(arena+hblkhd)
         26812 MiB available memory on the node where the printing process lives
------------------
     ethr =  4.35E-07,  avg # of iterations =  7.6

     negative rho (up, down):  1.521E-02 1.615E-02

     total cpu time spent up to now is     3528.4 secs

     total energy              =  -16138.55345769 Ry
     estimated scf accuracy    <       0.00052221 Ry

     total magnetization       =     1.00 Bohr mag/cell
     absolute magnetization    =     1.17 Bohr mag/cell

     iteration # 10     ecut=    50.00 Ry     beta= 0.40
     Davidson diagonalization with overlap

---- Real-time Memory Report at c_bands before calling an iterative solver
           521 MiB given to the printing process from OS
           352 MiB allocation reported by mallinfo(arena+hblkhd)
         30467 MiB available memory on the node where the printing process lives
------------------
     ethr =  1.08E-07,  avg # of iterations =  7.7

     negative rho (up, down):  1.099E-02 1.176E-02

     total cpu time spent up to now is     3884.7 secs

     total energy              =  -16138.55452578 Ry
     estimated scf accuracy    <       0.00015540 Ry

     total magnetization       =     1.00 Bohr mag/cell
     absolute magnetization    =     1.15 Bohr mag/cell

     iteration # 11     ecut=    50.00 Ry     beta= 0.40
     Davidson diagonalization with overlap

---- Real-time Memory Report at c_bands before calling an iterative solver
           522 MiB given to the printing process from OS
           354 MiB allocation reported by mallinfo(arena+hblkhd)
         27191 MiB available memory on the node where the printing process lives
------------------
     ethr =  3.20E-08,  avg # of iterations =  8.1

     negative rho (up, down):  7.812E-03 8.392E-03

     total cpu time spent up to now is     4285.4 secs

     total energy              =  -16138.55515189 Ry
     estimated scf accuracy    <       0.00007747 Ry

     total magnetization       =     1.00 Bohr mag/cell
     absolute magnetization    =     1.14 Bohr mag/cell

     iteration # 12     ecut=    50.00 Ry     beta= 0.40
     Davidson diagonalization with overlap

---- Real-time Memory Report at c_bands before calling an iterative solver
           523 MiB given to the printing process from OS
           354 MiB allocation reported by mallinfo(arena+hblkhd)
         37386 MiB available memory on the node where the printing process lives
------------------
     ethr =  1.60E-08,  avg # of iterations =  6.7

     negative rho (up, down):  5.998E-03 6.457E-03

     total cpu time spent up to now is     4645.6 secs

     total energy              =  -16138.55540617 Ry
     estimated scf accuracy    <       0.00002838 Ry

     total magnetization       =     1.00 Bohr mag/cell
     absolute magnetization    =     1.13 Bohr mag/cell

     iteration # 13     ecut=    50.00 Ry     beta= 0.40
     Davidson diagonalization with overlap

---- Real-time Memory Report at c_bands before calling an iterative solver
           523 MiB given to the printing process from OS
           354 MiB allocation reported by mallinfo(arena+hblkhd)
         45376 MiB available memory on the node where the printing process lives
------------------
     ethr =  5.85E-09,  avg # of iterations =  7.0

     negative rho (up, down):  5.234E-03 5.640E-03

     total cpu time spent up to now is     4999.5 secs

     total energy              =  -16138.55549310 Ry
     estimated scf accuracy    <       0.00001215 Ry

     total magnetization       =     1.00 Bohr mag/cell
     absolute magnetization    =     1.12 Bohr mag/cell

     iteration # 14     ecut=    50.00 Ry     beta= 0.40
     Davidson diagonalization with overlap

---- Real-time Memory Report at c_bands before calling an iterative solver
           523 MiB given to the printing process from OS
           354 MiB allocation reported by mallinfo(arena+hblkhd)
         29178 MiB available memory on the node where the printing process lives
------------------
     ethr =  2.51E-09,  avg # of iterations =  3.6

     negative rho (up, down):  4.923E-03 5.306E-03

     total cpu time spent up to now is     5306.4 secs

     total energy              =  -16138.55552737 Ry
     estimated scf accuracy    <       0.00000855 Ry

     total magnetization       =     1.00 Bohr mag/cell
     absolute magnetization    =     1.12 Bohr mag/cell

     iteration # 15     ecut=    50.00 Ry     beta= 0.40
     Davidson diagonalization with overlap

---- Real-time Memory Report at c_bands before calling an iterative solver
           523 MiB given to the printing process from OS
           354 MiB allocation reported by mallinfo(arena+hblkhd)
         45374 MiB available memory on the node where the printing process lives
------------------
     ethr =  1.76E-09,  avg # of iterations =  2.0

     negative rho (up, down):  4.955E-03 5.340E-03

     total cpu time spent up to now is     5574.1 secs

     total energy              =  -16138.55552356 Ry
     estimated scf accuracy    <       0.00000626 Ry

     total magnetization       =     1.00 Bohr mag/cell
     absolute magnetization    =     1.12 Bohr mag/cell

     iteration # 16     ecut=    50.00 Ry     beta= 0.40
     Davidson diagonalization with overlap

---- Real-time Memory Report at c_bands before calling an iterative solver
           523 MiB given to the printing process from OS
           354 MiB allocation reported by mallinfo(arena+hblkhd)
         35567 MiB available memory on the node where the printing process lives
------------------
     ethr =  1.29E-09,  avg # of iterations = 10.0

     negative rho (up, down):  5.159E-03 5.546E-03

     total cpu time spent up to now is     5887.1 secs

     total energy              =  -16138.55550343 Ry
     estimated scf accuracy    <       0.00000313 Ry

     total magnetization       =     1.00 Bohr mag/cell
     absolute magnetization    =     1.12 Bohr mag/cell

     iteration # 17     ecut=    50.00 Ry     beta= 0.40
     Davidson diagonalization with overlap

---- Real-time Memory Report at c_bands before calling an iterative solver
           523 MiB given to the printing process from OS
           354 MiB allocation reported by mallinfo(arena+hblkhd)
         25901 MiB available memory on the node where the printing process lives
------------------
     ethr =  6.45E-10,  avg # of iterations =  7.2

     negative rho (up, down):  4.893E-03 5.267E-03

     total cpu time spent up to now is     6238.1 secs

     total energy              =  -16138.55553035 Ry
     estimated scf accuracy    <       0.00000283 Ry

     total magnetization       =     1.00 Bohr mag/cell
     absolute magnetization    =     1.12 Bohr mag/cell

     iteration # 18     ecut=    50.00 Ry     beta= 0.40
     Davidson diagonalization with overlap

---- Real-time Memory Report at c_bands before calling an iterative solver
           523 MiB given to the printing process from OS
           354 MiB allocation reported by mallinfo(arena+hblkhd)
         25771 MiB available memory on the node where the printing process lives
------------------
     ethr =  5.84E-10,  avg # of iterations =  4.7

     negative rho (up, down):  4.824E-03 5.193E-03

     total cpu time spent up to now is     6577.7 secs

     total energy              =  -16138.55553899 Ry
     estimated scf accuracy    <       0.00000071 Ry

     total magnetization       =     1.00 Bohr mag/cell
     absolute magnetization    =     1.12 Bohr mag/cell

     iteration # 19     ecut=    50.00 Ry     beta= 0.40
     Davidson diagonalization with overlap

---- Real-time Memory Report at c_bands before calling an iterative solver
           523 MiB given to the printing process from OS
           354 MiB allocation reported by mallinfo(arena+hblkhd)
         44964 MiB available memory on the node where the printing process lives
------------------
     ethr =  1.46E-10,  avg # of iterations =  6.7

     negative rho (up, down):  4.801E-03 5.167E-03

     total cpu time spent up to now is     6976.6 secs

     total energy              =  -16138.55554194 Ry
     estimated scf accuracy    <       0.00000083 Ry

     total magnetization       =     1.00 Bohr mag/cell
     absolute magnetization    =     1.12 Bohr mag/cell

     iteration # 20     ecut=    50.00 Ry     beta= 0.40
     Davidson diagonalization with overlap

---- Real-time Memory Report at c_bands before calling an iterative solver
           525 MiB given to the printing process from OS
           355 MiB allocation reported by mallinfo(arena+hblkhd)
         28703 MiB available memory on the node where the printing process lives
------------------
     ethr =  1.46E-10,  avg # of iterations =  2.8

     negative rho (up, down):  4.805E-03 5.172E-03

     total cpu time spent up to now is     7278.7 secs

     total energy              =  -16138.55554110 Ry
     estimated scf accuracy    <       0.00000045 Ry

     total magnetization       =     1.00 Bohr mag/cell
     absolute magnetization    =     1.12 Bohr mag/cell

     iteration # 21     ecut=    50.00 Ry     beta= 0.40
     Davidson diagonalization with overlap

---- Real-time Memory Report at c_bands before calling an iterative solver
           525 MiB given to the printing process from OS
           355 MiB allocation reported by mallinfo(arena+hblkhd)
         44873 MiB available memory on the node where the printing process lives
------------------
     ethr =  9.37E-11,  avg # of iterations =  6.6

     negative rho (up, down):  4.801E-03 5.168E-03

     total cpu time spent up to now is     7625.2 secs

     total energy              =  -16138.55554165 Ry
     estimated scf accuracy    <       0.00000007 Ry

     total magnetization       =     1.00 Bohr mag/cell
     absolute magnetization    =     1.12 Bohr mag/cell

     iteration # 22     ecut=    50.00 Ry     beta= 0.40
     Davidson diagonalization with overlap

---- Real-time Memory Report at c_bands before calling an iterative solver
           525 MiB given to the printing process from OS
           355 MiB allocation reported by mallinfo(arena+hblkhd)
         38498 MiB available memory on the node where the printing process lives
------------------
     ethr =  1.53E-11,  avg # of iterations =  6.6

     negative rho (up, down):  4.798E-03 5.165E-03

     total cpu time spent up to now is     7983.0 secs

     total energy              =  -16138.55554198 Ry
     estimated scf accuracy    <       0.00000003 Ry

     total magnetization       =     1.00 Bohr mag/cell
     absolute magnetization    =     1.12 Bohr mag/cell

     iteration # 23     ecut=    50.00 Ry     beta= 0.40
     Davidson diagonalization with overlap

---- Real-time Memory Report at c_bands before calling an iterative solver
           525 MiB given to the printing process from OS
           355 MiB allocation reported by mallinfo(arena+hblkhd)
         44960 MiB available memory on the node where the printing process lives
------------------
     ethr =  6.71E-12,  avg # of iterations =  8.2

     negative rho (up, down):  4.797E-03 5.164E-03

     total cpu time spent up to now is     8296.4 secs

     total energy              =  -16138.55554214 Ry
     estimated scf accuracy    <          7.8E-09 Ry

     total magnetization       =     1.00 Bohr mag/cell
     absolute magnetization    =     1.12 Bohr mag/cell

     iteration # 24     ecut=    50.00 Ry     beta= 0.40
     Davidson diagonalization with overlap

---- Real-time Memory Report at c_bands before calling an iterative solver
           525 MiB given to the printing process from OS
           355 MiB allocation reported by mallinfo(arena+hblkhd)
         38504 MiB available memory on the node where the printing process lives
------------------
     ethr =  1.61E-12,  avg # of iterations =  5.2

     negative rho (up, down):  4.796E-03 5.163E-03

     total cpu time spent up to now is     8692.8 secs

     total energy              =  -16138.55554219 Ry
     estimated scf accuracy    <          3.5E-09 Ry

     total magnetization       =     1.00 Bohr mag/cell
     absolute magnetization    =     1.12 Bohr mag/cell

     iteration # 25     ecut=    50.00 Ry     beta= 0.40
     Davidson diagonalization with overlap

---- Real-time Memory Report at c_bands before calling an iterative solver
           525 MiB given to the printing process from OS
           355 MiB allocation reported by mallinfo(arena+hblkhd)
         44849 MiB available memory on the node where the printing process lives
------------------
     ethr =  7.29E-13,  avg # of iterations =  4.5

     negative rho (up, down):  4.796E-03 5.163E-03

     total cpu time spent up to now is     9005.2 secs

     total energy              =  -16138.55554218 Ry
     estimated scf accuracy    <          2.4E-09 Ry

     total magnetization       =     1.00 Bohr mag/cell
     absolute magnetization    =     1.12 Bohr mag/cell

     iteration # 26     ecut=    50.00 Ry     beta= 0.40
     Davidson diagonalization with overlap

---- Real-time Memory Report at c_bands before calling an iterative solver
           525 MiB given to the printing process from OS
           355 MiB allocation reported by mallinfo(arena+hblkhd)
         28835 MiB available memory on the node where the printing process lives
------------------
     ethr =  4.90E-13,  avg # of iterations =  6.5

     negative rho (up, down):  4.796E-03 5.163E-03

     total cpu time spent up to now is     9366.3 secs

     total energy              =  -16138.55554222 Ry
     estimated scf accuracy    <          1.2E-09 Ry

     total magnetization       =     1.00 Bohr mag/cell
     absolute magnetization    =     1.12 Bohr mag/cell

     iteration # 27     ecut=    50.00 Ry     beta= 0.40
     Davidson diagonalization with overlap

---- Real-time Memory Report at c_bands before calling an iterative solver
           525 MiB given to the printing process from OS
           355 MiB allocation reported by mallinfo(arena+hblkhd)
         45030 MiB available memory on the node where the printing process lives
------------------
     ethr =  2.55E-13,  avg # of iterations =  6.5

     negative rho (up, down):  4.796E-03 5.163E-03

     total cpu time spent up to now is     9741.1 secs

     total energy              =  -16138.55554222 Ry
     estimated scf accuracy    <          8.1E-10 Ry

     total magnetization       =     1.00 Bohr mag/cell
     absolute magnetization    =     1.12 Bohr mag/cell

     iteration # 28     ecut=    50.00 Ry     beta= 0.40
     Davidson diagonalization with overlap

---- Real-time Memory Report at c_bands before calling an iterative solver
           525 MiB given to the printing process from OS
           355 MiB allocation reported by mallinfo(arena+hblkhd)
         38500 MiB available memory on the node where the printing process lives
------------------
     ethr =  1.67E-13,  avg # of iterations =  3.0

     negative rho (up, down):  4.796E-03 5.163E-03

     total cpu time spent up to now is    10021.7 secs

     total energy              =  -16138.55554223 Ry
     estimated scf accuracy    <          4.6E-10 Ry

     total magnetization       =     1.00 Bohr mag/cell
     absolute magnetization    =     1.12 Bohr mag/cell

     iteration # 29     ecut=    50.00 Ry     beta= 0.40
     Davidson diagonalization with overlap

---- Real-time Memory Report at c_bands before calling an iterative solver
           525 MiB given to the printing process from OS
           355 MiB allocation reported by mallinfo(arena+hblkhd)
         44927 MiB available memory on the node where the printing process lives
------------------
     ethr =  1.00E-13,  avg # of iterations =  2.8

     negative rho (up, down):  4.796E-03 5.163E-03

     total cpu time spent up to now is    10294.0 secs

     total energy              =  -16138.55554223 Ry
     estimated scf accuracy    <          2.4E-10 Ry

     total magnetization       =     1.00 Bohr mag/cell
     absolute magnetization    =     1.12 Bohr mag/cell

     iteration # 30     ecut=    50.00 Ry     beta= 0.40
     Davidson diagonalization with overlap

---- Real-time Memory Report at c_bands before calling an iterative solver
           525 MiB given to the printing process from OS
           355 MiB allocation reported by mallinfo(arena+hblkhd)
         40386 MiB available memory on the node where the printing process lives
------------------
     ethr =  1.00E-13,  avg # of iterations =  7.6

     negative rho (up, down):  4.796E-03 5.163E-03

     total cpu time spent up to now is    10672.7 secs

     total energy              =  -16138.55554223 Ry
     estimated scf accuracy    <          2.1E-10 Ry

     total magnetization       =     1.00 Bohr mag/cell
     absolute magnetization    =     1.12 Bohr mag/cell

     iteration # 31     ecut=    50.00 Ry     beta= 0.40
     Davidson diagonalization with overlap

---- Real-time Memory Report at c_bands before calling an iterative solver
           525 MiB given to the printing process from OS
           355 MiB allocation reported by mallinfo(arena+hblkhd)
         44833 MiB available memory on the node where the printing process lives
------------------
     ethr =  1.00E-13,  avg # of iterations =  2.0

     negative rho (up, down):  4.796E-03 5.163E-03

     Magnetic moment per site  (integrated on atomic sphere of radius R)
     atom   1 (R=0.078)  charge= 10.3731  magn=  0.0015
     atom   2 (R=0.078)  charge= 10.3731  magn=  0.0080
     atom   3 (R=0.078)  charge= 10.3740  magn= -0.0007
     atom   4 (R=0.078)  charge= 10.3743  magn=  0.0147
     atom   5 (R=0.078)  charge= 10.3763  magn=  0.0110
     atom   6 (R=0.078)  charge= 10.3757  magn=  0.0063
     atom   7 (R=0.078)  charge= 10.3783  magn=  0.0051
     atom   8 (R=0.078)  charge= 10.3749  magn=  0.0108
     atom   9 (R=0.078)  charge= 10.3753  magn=  0.0033
     atom  10 (R=0.078)  charge= 10.3820  magn=  0.0364
     atom  11 (R=0.078)  charge= 10.3836  magn=  0.0167
     atom  12 (R=0.078)  charge= 10.3743  magn=  0.0164
     atom  13 (R=0.078)  charge= 10.3732  magn=  0.0029
     atom  14 (R=0.078)  charge= 10.3740  magn= -0.0006
     atom  15 (R=0.078)  charge= 10.3816  magn=  0.0171
     atom  16 (R=0.078)  charge= 10.3760  magn=  0.0042
     atom  17 (R=0.078)  charge=  4.1591  magn=  0.0027
     atom  18 (R=0.078)  charge=  4.1558  magn=  0.0017
     atom  19 (R=0.078)  charge=  4.1586  magn= -0.0000
     atom  20 (R=0.078)  charge=  4.1590  magn=  0.0027
     atom  21 (R=0.078)  charge=  4.1594  magn=  0.0025
     atom  22 (R=0.078)  charge=  4.1750  magn=  0.0122
     atom  23 (R=0.078)  charge=  4.1787  magn=  0.0050
     atom  24 (R=0.078)  charge=  4.1586  magn=  0.0036
     atom  25 (R=0.078)  charge=  4.1591  magn=  0.0022
     atom  26 (R=0.078)  charge=  4.1626  magn=  0.0026
     atom  27 (R=0.078)  charge=  4.1805  magn=  0.0068
     atom  28 (R=0.078)  charge=  4.1668  magn=  0.0125
     atom  29 (R=0.078)  charge=  4.1578  magn=  0.0030
     atom  30 (R=0.078)  charge=  4.1574  magn=  0.0007
     atom  31 (R=0.078)  charge=  4.1566  magn=  0.0017
     atom  32 (R=0.078)  charge=  4.1575  magn=  0.0062
     atom  33 (R=0.078)  charge=  4.1610  magn=  0.0008
     atom  34 (R=0.078)  charge=  4.1591  magn=  0.0008
     atom  35 (R=0.078)  charge=  4.1606  magn= -0.0002
     atom  36 (R=0.078)  charge=  4.1609  magn=  0.0001
     atom  37 (R=0.078)  charge=  4.1601  magn=  0.0005
     atom  38 (R=0.078)  charge=  4.1589  magn=  0.0036
     atom  39 (R=0.078)  charge=  4.1568  magn=  0.0010
     atom  40 (R=0.078)  charge=  4.1595  magn= -0.0001
     atom  41 (R=0.078)  charge=  4.1602  magn=  0.0005
     atom  42 (R=0.078)  charge=  4.1579  magn=  0.0018
     atom  43 (R=0.078)  charge=  4.1526  magn=  0.0025
     atom  44 (R=0.078)  charge=  4.1584  magn=  0.0032
     atom  45 (R=0.078)  charge=  4.1594  magn=  0.0015
     atom  46 (R=0.078)  charge=  4.1597  magn=  0.0002
     atom  47 (R=0.078)  charge=  4.1603  magn=  0.0006
     atom  48 (R=0.078)  charge=  4.1598  magn=  0.0022
     atom  49 (R=0.075)  charge=  8.3763  magn=  0.0118
     atom  50 (R=0.075)  charge=  8.3724  magn=  0.0310
     atom  51 (R=0.075)  charge=  8.3760  magn=  0.0134
     atom  52 (R=0.075)  charge=  8.3726  magn=  0.0331
     atom  53 (R=0.075)  charge=  8.3617  magn=  0.0186
     atom  54 (R=0.033)  charge=  1.3260  magn= -0.0002
     atom  55 (R=0.032)  charge=  2.0114  magn=  0.0004
     atom  56 (R=0.032)  charge=  0.4147  magn=  0.0002
     atom  57 (R=0.032)  charge=  0.4019  magn=  0.0001
     atom  58 (R=0.032)  charge=  0.4148  magn=  0.0001

     total cpu time spent up to now is    10941.1 secs

     End of self-consistent calculation

 ------ SPIN UP ------------


          k = 0.0000 0.0000 0.0000 (112117 PWs)   bands (ev):

   -73.8164 -73.8129 -73.8100 -73.8074 -73.8055 -73.8046 -73.8020 -73.8000
   -73.7952 -73.7933 -73.7905 -73.7883 -73.7865 -73.7538 -73.7490 -73.7394
   -38.2243 -38.2194 -38.2182 -38.1633 -38.1625 -38.1577 -38.1572 -38.1508
   -38.1430 -38.0593 -38.0564 -38.0537 -38.0531 -38.0480 -38.0460 -38.0441
   -38.0307 -38.0289 -38.0263 -38.0257 -38.0219 -38.0213 -38.0189 -38.0169
   -38.0163 -38.0133 -38.0117 -38.0039 -37.9951 -37.9920 -37.9907 -37.9878
   -37.9861 -37.9820 -37.9682 -37.9580 -37.9567 -37.9538 -37.9512 -37.9458
   -37.9247 -37.9178 -37.9133 -37.9127 -37.9089 -37.9040 -37.8697 -37.8664
   -21.5201 -15.4381 -14.5984 -13.7117 -13.6985 -13.6744 -13.6440 -13.6309
   -13.6206 -12.9830 -12.7133 -12.6776 -12.6554 -12.6396 -12.6032 -12.5814
   -12.5399 -12.5071 -12.4732 -12.4568 -12.4456 -12.4436 -12.4222 -12.4209
   -12.4161 -12.2236 -12.2016 -12.1904 -12.1746 -12.1576 -12.1538 -12.1501
   -12.1469 -12.1444  -7.9239  -7.5879  -6.3433  -6.3277  -6.3096  -6.2848
    -6.1638  -5.6156  -5.5742  -5.5522  -5.5338  -5.5287  -5.4949  -5.4463
    -5.4156  -5.3928  -5.3151  -5.2851  -5.2630  -5.1071  -5.0949  -5.0658
    -5.0608  -5.0563  -5.0551  -5.0007  -4.9993  -4.9903  -4.5257  -4.4428
    -4.4034  -4.3486  -4.2955  -4.2857  -4.2697  -4.2487  -4.2344  -4.1843
    -4.0822  -4.0123  -3.9803  -3.9641  -3.9381  -3.7972  -3.7621  -3.7601
    -3.7052  -3.6797  -3.6762  -3.6163  -3.5170  -3.4761  -3.4091  -3.4047
    -3.3753  -3.3677  -3.3012  -3.2273  -3.1987  -3.1848  -3.1660  -3.1448
    -3.1354  -3.1273  -3.1132  -3.1098  -3.0652  -2.9633  -2.8238  -2.7716
    -2.7250  -2.6799  -2.6509  -2.5936  -2.5851  -2.5240  -2.5161  -2.4676
    -2.4628  -2.4362  -2.4346  -2.4290  -2.4026  -2.3447  -2.2952  -2.2120
    -2.1352  -2.0874  -1.9825  -1.9790  -1.9566  -1.9348  -1.8718  -1.8396
    -1.8173  -1.7848  -1.7706  -1.7697  -1.7559  -1.7535  -1.7461  -1.7450
    -1.7395  -1.7110  -1.7031  -1.6687  -1.6617  -1.6473  -1.6376  -1.6117
    -1.5834  -1.5336  -1.5255  -1.5082  -1.4550  -1.4199  -1.3751  -1.3587
    -1.3129  -1.2774  -1.2064  -1.0998  -1.0612  -1.0314  -1.0161  -0.9975
    -0.7307  -0.6951  -0.6908  -0.6886  -0.6793  -0.6755  -0.6503  -0.6472
    -0.6310  -0.3981  -0.3895  -0.3780  -0.3629  -0.3506  -0.3423  -0.3240
     0.1964   1.2554   1.5338

     occupation numbers 
     1.0000   1.0000   1.0000   1.0000   1.0000   1.0000   1.0000   1.0000
     1.0000   1.0000   1.0000   1.0000   1.0000   1.0000   1.0000   1.0000
     1.0000   1.0000   1.0000   1.0000   1.0000   1.0000   1.0000   1.0000
     1.0000   1.0000   1.0000   1.0000   1.0000   1.0000   1.0000   1.0000
     1.0000   1.0000   1.0000   1.0000   1.0000   1.0000   1.0000   1.0000
     1.0000   1.0000   1.0000   1.0000   1.0000   1.0000   1.0000   1.0000
     1.0000   1.0000   1.0000   1.0000   1.0000   1.0000   1.0000   1.0000
     1.0000   1.0000   1.0000   1.0000   1.0000   1.0000   1.0000   1.0000
     1.0000   1.0000   1.0000   1.0000   1.0000   1.0000   1.0000   1.0000
     1.0000   1.0000   1.0000   1.0000   1.0000   1.0000   1.0000   1.0000
     1.0000   1.0000   1.0000   1.0000   1.0000   1.0000   1.0000   1.0000
     1.0000   1.0000   1.0000   1.0000   1.0000   1.0000   1.0000   1.0000
     1.0000   1.0000   1.0000   1.0000   1.0000   1.0000   1.0000   1.0000
     1.0000   1.0000   1.0000   1.0000   1.0000   1.0000   1.0000   1.0000
     1.0000   1.0000   1.0000   1.0000   1.0000   1.0000   1.0000   1.0000
     1.0000   1.0000   1.0000   1.0000   1.0000   1.0000   1.0000   1.0000
     1.0000   1.0000   1.0000   1.0000   1.0000   1.0000   1.0000   1.0000
     1.0000   1.0000   1.0000   1.0000   1.0000   1.0000   1.0000   1.0000
     1.0000   1.0000   1.0000   1.0000   1.0000   1.0000   1.0000   1.0000
     1.0000   1.0000   1.0000   1.0000   1.0000   1.0000   1.0000   1.0000
     1.0000   1.0000   1.0000   1.0000   1.0000   1.0000   1.0000   1.0000
     1.0000   1.0000   1.0000   1.0000   1.0000   1.0000   1.0000   1.0000
     1.0000   1.0000   1.0000   1.0000   1.0000   1.0000   1.0000   1.0000
     1.0000   1.0000   1.0000   1.0000   1.0000   1.0000   1.0000   1.0000
     1.0000   1.0000   1.0000   1.0000   1.0000   1.0000   1.0000   1.0000
     1.0000   1.0000   1.0000   1.0000   1.0000   1.0000   1.0000   1.0000
     1.0000   1.0000   1.0000   1.0000   1.0000   1.0000   1.0000   1.0000
     1.0000   1.0000   1.0000   1.0000   1.0000   1.0000   1.0000   1.0000
     1.0000   1.0000   1.0000   1.0000   1.0000   1.0000   1.0000   1.0000
     1.0000   1.0000   1.0000   1.0000   1.0000   1.0000   1.0000   1.0000
     1.0000   1.0000   1.0000

          k = 0.0000 0.2309 0.0000 (112171 PWs)   bands (ev):

   -73.8163 -73.8132 -73.8100 -73.8076 -73.8053 -73.8045 -73.8020 -73.7999
   -73.7953 -73.7933 -73.7904 -73.7884 -73.7865 -73.7538 -73.7490 -73.7395
   -38.2191 -38.2141 -38.2119 -38.1698 -38.1651 -38.1617 -38.1549 -38.1474
   -38.1403 -38.1031 -38.0783 -38.0762 -38.0522 -38.0486 -38.0450 -38.0321
   -38.0287 -38.0260 -38.0237 -38.0210 -38.0178 -38.0157 -38.0128 -38.0110
   -38.0039 -37.9986 -37.9967 -37.9953 -37.9935 -37.9916 -37.9880 -37.9867
   -37.9852 -37.9818 -37.9685 -37.9613 -37.9591 -37.9542 -37.9512 -37.9459
   -37.9320 -37.9223 -37.9214 -37.9109 -37.9077 -37.9004 -37.8772 -37.8679
   -21.5201 -15.4381 -14.5568 -13.9772 -13.8023 -13.7853 -13.4942 -13.4613
   -13.3245 -12.9670 -12.8069 -12.7352 -12.6974 -12.6875 -12.6550 -12.5876
   -12.5550 -12.5430 -12.4943 -12.4767 -12.4570 -12.4372 -12.4234 -12.3168
   -12.2850 -12.2632 -12.2440 -12.2141 -12.1853 -12.1743 -12.1680 -12.1525
   -12.0951 -12.0800  -7.9239  -7.5879  -6.2818  -6.2704  -6.2385  -6.2366
    -6.1620  -5.6709  -5.6477  -5.6305  -5.5600  -5.5188  -5.4896  -5.4715
    -5.4305  -5.4183  -5.3962  -5.3214  -5.3171  -5.2878  -5.2706  -5.0737
    -5.0665  -5.0184  -5.0024  -4.9565  -4.7398  -4.7345  -4.5921  -4.4857
    -4.4541  -4.3865  -4.3234  -4.2892  -4.2105  -4.1616  -4.1472  -4.1209
    -4.1001  -4.0632  -4.0440  -4.0017  -3.9855  -3.9131  -3.9101  -3.9015
    -3.6759  -3.5763  -3.5435  -3.5098  -3.4698  -3.4445  -3.4390  -3.3845
    -3.3646  -3.3163  -3.2980  -3.2813  -3.2765  -3.2097  -3.1954  -3.1498
    -3.1051  -2.9978  -2.9660  -2.9352  -2.8600  -2.7951  -2.7773  -2.7495
    -2.7252  -2.7186  -2.6999  -2.6874  -2.6593  -2.6369  -2.6112  -2.5454
    -2.5224  -2.5063  -2.4784  -2.4442  -2.3646  -2.3164  -2.2062  -2.1651
    -2.1259  -2.0887  -2.0191  -2.0049  -1.9860  -1.9695  -1.9382  -1.9116
    -1.8920  -1.8649  -1.8538  -1.8201  -1.7931  -1.7657  -1.7495  -1.7390
    -1.7242  -1.7053  -1.6907  -1.6674  -1.6515  -1.6103  -1.5865  -1.5534
    -1.5370  -1.4959  -1.4852  -1.4622  -1.4343  -1.3735  -1.3377  -1.3280
    -1.2977  -1.2822  -1.2477  -1.2268  -1.1684  -1.0728  -1.0496  -1.0290
    -0.8978  -0.7808  -0.7631  -0.7506  -0.5735  -0.5653  -0.5535  -0.5351
    -0.5222  -0.5123  -0.4137  -0.3778  -0.3664  -0.2673  -0.1711  -0.1461
     0.1774   1.2618   1.5651

     occupation numbers 
     1.0000   1.0000   1.0000   1.0000   1.0000   1.0000   1.0000   1.0000
     1.0000   1.0000   1.0000   1.0000   1.0000   1.0000   1.0000   1.0000
     1.0000   1.0000   1.0000   1.0000   1.0000   1.0000   1.0000   1.0000
     1.0000   1.0000   1.0000   1.0000   1.0000   1.0000   1.0000   1.0000
     1.0000   1.0000   1.0000   1.0000   1.0000   1.0000   1.0000   1.0000
     1.0000   1.0000   1.0000   1.0000   1.0000   1.0000   1.0000   1.0000
     1.0000   1.0000   1.0000   1.0000   1.0000   1.0000   1.0000   1.0000
     1.0000   1.0000   1.0000   1.0000   1.0000   1.0000   1.0000   1.0000
     1.0000   1.0000   1.0000   1.0000   1.0000   1.0000   1.0000   1.0000
     1.0000   1.0000   1.0000   1.0000   1.0000   1.0000   1.0000   1.0000
     1.0000   1.0000   1.0000   1.0000   1.0000   1.0000   1.0000   1.0000
     1.0000   1.0000   1.0000   1.0000   1.0000   1.0000   1.0000   1.0000
     1.0000   1.0000   1.0000   1.0000   1.0000   1.0000   1.0000   1.0000
     1.0000   1.0000   1.0000   1.0000   1.0000   1.0000   1.0000   1.0000
     1.0000   1.0000   1.0000   1.0000   1.0000   1.0000   1.0000   1.0000
     1.0000   1.0000   1.0000   1.0000   1.0000   1.0000   1.0000   1.0000
     1.0000   1.0000   1.0000   1.0000   1.0000   1.0000   1.0000   1.0000
     1.0000   1.0000   1.0000   1.0000   1.0000   1.0000   1.0000   1.0000
     1.0000   1.0000   1.0000   1.0000   1.0000   1.0000   1.0000   1.0000
     1.0000   1.0000   1.0000   1.0000   1.0000   1.0000   1.0000   1.0000
     1.0000   1.0000   1.0000   1.0000   1.0000   1.0000   1.0000   1.0000
     1.0000   1.0000   1.0000   1.0000   1.0000   1.0000   1.0000   1.0000
     1.0000   1.0000   1.0000   1.0000   1.0000   1.0000   1.0000   1.0000
     1.0000   1.0000   1.0000   1.0000   1.0000   1.0000   1.0000   1.0000
     1.0000   1.0000   1.0000   1.0000   1.0000   1.0000   1.0000   1.0000
     1.0000   1.0000   1.0000   1.0000   1.0000   1.0000   1.0000   1.0000
     1.0000   1.0000   1.0000   1.0000   1.0000   1.0000   1.0000   1.0000
     1.0000   1.0000   1.0000   1.0000   1.0000   1.0000   1.0000   1.0000
     1.0000   1.0000   1.0000   1.0000   1.0000   1.0000   1.0000   1.0000
     1.0000   1.0000   1.0000   1.0000   1.0000   1.0000   1.0000   1.0000
     1.0000   1.0000   1.0000

          k = 0.0000 0.4619 0.0000 (112236 PWs)   bands (ev):

   -73.8159 -73.8136 -73.8100 -73.8078 -73.8050 -73.8044 -73.8020 -73.7998
   -73.7955 -73.7932 -73.7902 -73.7886 -73.7865 -73.7539 -73.7490 -73.7395
   -38.2059 -38.2033 -38.1899 -38.1874 -38.1753 -38.1657 -38.1594 -38.1464
   -38.1304 -38.1257 -38.1050 -38.1006 -38.0633 -38.0580 -38.0468 -38.0379
   -38.0308 -38.0199 -38.0163 -38.0120 -38.0087 -38.0061 -38.0024 -38.0001
   -37.9981 -37.9967 -37.9963 -37.9906 -37.9879 -37.9850 -37.9818 -37.9781
   -37.9730 -37.9696 -37.9663 -37.9649 -37.9525 -37.9509 -37.9488 -37.9472
   -37.9424 -37.9357 -37.9310 -37.9154 -37.9105 -37.8946 -37.8930 -37.8708
   -21.5201 -15.4381 -14.4351 -14.2337 -13.8721 -13.8533 -13.2653 -13.2300
   -13.0203 -12.9994 -12.9701 -12.9173 -12.8329 -12.7309 -12.7045 -12.6888
   -12.5216 -12.5143 -12.4628 -12.4497 -12.4367 -12.4245 -12.3822 -12.3689
   -12.3504 -12.2840 -12.2163 -12.2015 -12.1771 -12.1588 -12.1569 -12.1525
   -12.0560 -12.0392  -7.9239  -7.5879  -6.1759  -6.1263  -6.1138  -6.0916
    -6.0273  -5.8733  -5.8610  -5.8385  -5.7146  -5.5348  -5.5001  -5.4887
    -5.4605  -5.4460  -5.4376  -5.3939  -5.3742  -5.3264  -5.3019  -5.0669
    -5.0636  -5.0309  -5.0094  -4.8112  -4.6327  -4.5298  -4.4869  -4.4407
    -4.3947  -4.3758  -4.3496  -4.3140  -4.2455  -4.2324  -4.1920  -4.1610
    -4.1299  -4.1193  -4.1033  -4.0772  -4.0657  -4.0523  -4.0428  -3.6989
    -3.5764  -3.5119  -3.4828  -3.4443  -3.4217  -3.3927  -3.3711  -3.3113
    -3.2977  -3.2827  -3.2634  -3.2408  -3.2217  -3.1895  -3.1646  -3.1082
    -3.0680  -3.0617  -3.0108  -2.9724  -2.9542  -2.9164  -2.8652  -2.7778
    -2.7533  -2.7090  -2.6693  -2.6403  -2.6119  -2.5736  -2.5418  -2.4974
    -2.4523  -2.4331  -2.3983  -2.3199  -2.2803  -2.2559  -2.2427  -2.1879
    -2.1286  -2.1000  -2.0470  -2.0208  -2.0112  -2.0010  -1.9839  -1.9554
    -1.9336  -1.9095  -1.8810  -1.8744  -1.8566  -1.8447  -1.8402  -1.8281
    -1.7770  -1.7716  -1.7270  -1.7168  -1.7008  -1.6713  -1.6345  -1.6211
    -1.5947  -1.5554  -1.5345  -1.5056  -1.4352  -1.3909  -1.3026  -1.2904
    -1.2379  -1.2042  -1.1919  -1.1511  -1.1210  -1.0988  -1.0498  -1.0117
    -0.9785  -0.8955  -0.7344  -0.7232  -0.6417  -0.6255  -0.4959  -0.4579
    -0.4444  -0.4341  -0.3986  -0.3811  -0.3144  -0.0950   0.0014   0.0245
     0.1278   1.2715   1.6176

     occupation numbers 
     1.0000   1.0000   1.0000   1.0000   1.0000   1.0000   1.0000   1.0000
     1.0000   1.0000   1.0000   1.0000   1.0000   1.0000   1.0000   1.0000
     1.0000   1.0000   1.0000   1.0000   1.0000   1.0000   1.0000   1.0000
     1.0000   1.0000   1.0000   1.0000   1.0000   1.0000   1.0000   1.0000
     1.0000   1.0000   1.0000   1.0000   1.0000   1.0000   1.0000   1.0000
     1.0000   1.0000   1.0000   1.0000   1.0000   1.0000   1.0000   1.0000
     1.0000   1.0000   1.0000   1.0000   1.0000   1.0000   1.0000   1.0000
     1.0000   1.0000   1.0000   1.0000   1.0000   1.0000   1.0000   1.0000
     1.0000   1.0000   1.0000   1.0000   1.0000   1.0000   1.0000   1.0000
     1.0000   1.0000   1.0000   1.0000   1.0000   1.0000   1.0000   1.0000
     1.0000   1.0000   1.0000   1.0000   1.0000   1.0000   1.0000   1.0000
     1.0000   1.0000   1.0000   1.0000   1.0000   1.0000   1.0000   1.0000
     1.0000   1.0000   1.0000   1.0000   1.0000   1.0000   1.0000   1.0000
     1.0000   1.0000   1.0000   1.0000   1.0000   1.0000   1.0000   1.0000
     1.0000   1.0000   1.0000   1.0000   1.0000   1.0000   1.0000   1.0000
     1.0000   1.0000   1.0000   1.0000   1.0000   1.0000   1.0000   1.0000
     1.0000   1.0000   1.0000   1.0000   1.0000   1.0000   1.0000   1.0000
     1.0000   1.0000   1.0000   1.0000   1.0000   1.0000   1.0000   1.0000
     1.0000   1.0000   1.0000   1.0000   1.0000   1.0000   1.0000   1.0000
     1.0000   1.0000   1.0000   1.0000   1.0000   1.0000   1.0000   1.0000
     1.0000   1.0000   1.0000   1.0000   1.0000   1.0000   1.0000   1.0000
     1.0000   1.0000   1.0000   1.0000   1.0000   1.0000   1.0000   1.0000
     1.0000   1.0000   1.0000   1.0000   1.0000   1.0000   1.0000   1.0000
     1.0000   1.0000   1.0000   1.0000   1.0000   1.0000   1.0000   1.0000
     1.0000   1.0000   1.0000   1.0000   1.0000   1.0000   1.0000   1.0000
     1.0000   1.0000   1.0000   1.0000   1.0000   1.0000   1.0000   1.0000
     1.0000   1.0000   1.0000   1.0000   1.0000   1.0000   1.0000   1.0000
     1.0000   1.0000   1.0000   1.0000   1.0000   1.0000   1.0000   1.0000
     1.0000   1.0000   1.0000   1.0000   1.0000   1.0000   1.0000   1.0000
     1.0000   1.0000   1.0000   1.0000   1.0000   1.0000   1.0000   1.0000
     1.0000   1.0000   1.0000

          k = 0.2000 0.3464 0.0000 (112231 PWs)   bands (ev):

   -73.8159 -73.8136 -73.8100 -73.8076 -73.8052 -73.8043 -73.8021 -73.8000
   -73.7952 -73.7934 -73.7902 -73.7886 -73.7865 -73.7539 -73.7490 -73.7395
   -38.2113 -38.2026 -38.1993 -38.1785 -38.1755 -38.1637 -38.1550 -38.1476
   -38.1317 -38.1231 -38.1158 -38.0770 -38.0590 -38.0553 -38.0469 -38.0366
   -38.0315 -38.0284 -38.0246 -38.0191 -38.0153 -38.0088 -38.0024 -37.9995
   -37.9948 -37.9920 -37.9903 -37.9886 -37.9862 -37.9835 -37.9821 -37.9807
   -37.9757 -37.9720 -37.9686 -37.9652 -37.9584 -37.9545 -37.9513 -37.9466
   -37.9405 -37.9314 -37.9255 -37.9204 -37.9044 -37.8993 -37.8860 -37.8715
   -21.5201 -15.4381 -14.4750 -14.1034 -14.0587 -13.5669 -13.5640 -13.1746
   -13.1183 -13.0093 -12.9352 -12.8099 -12.7895 -12.7103 -12.6713 -12.6053
   -12.5948 -12.5763 -12.5714 -12.4574 -12.4245 -12.3910 -12.3766 -12.3131
   -12.2899 -12.2728 -12.2518 -12.2321 -12.2203 -12.1546 -12.1500 -12.1076
   -12.0949 -12.0354  -7.9239  -7.5879  -6.1859  -6.1747  -6.1461  -6.1275
    -6.1051  -5.7662  -5.7373  -5.7209  -5.6813  -5.6441  -5.6018  -5.5664
    -5.5052  -5.4736  -5.3555  -5.3345  -5.2842  -5.2759  -5.2432  -5.2287
    -5.0953  -4.9054  -4.8899  -4.8159  -4.7510  -4.6065  -4.4913  -4.4706
    -4.3981  -4.3671  -4.3378  -4.3045  -4.2760  -4.2631  -4.2348  -4.2268
    -4.1730  -4.1227  -4.1074  -4.0920  -4.0554  -3.7666  -3.7365  -3.7266
    -3.7187  -3.6939  -3.6145  -3.4981  -3.4314  -3.4015  -3.3524  -3.3228
    -3.2996  -3.2462  -3.2265  -3.2070  -3.1694  -3.1507  -3.1086  -3.0915
    -3.0417  -3.0159  -2.9907  -2.9518  -2.9441  -2.9263  -2.9162  -2.9006
    -2.8192  -2.7438  -2.7229  -2.6544  -2.6363  -2.5628  -2.5231  -2.4797
    -2.4664  -2.4391  -2.3872  -2.3626  -2.3157  -2.2214  -2.1854  -2.1652
    -2.1318  -2.1251  -2.0973  -2.0888  -2.0184  -1.9994  -1.9816  -1.9520
    -1.9287  -1.9065  -1.8837  -1.8582  -1.8382  -1.8293  -1.7997  -1.7566
    -1.7394  -1.7196  -1.7137  -1.6796  -1.6718  -1.6232  -1.5962  -1.5752
    -1.5666  -1.5417  -1.5377  -1.5085  -1.4283  -1.3934  -1.3811  -1.3660
    -1.2921  -1.2263  -1.2081  -1.1859  -1.1567  -1.1188  -1.0352  -1.0184
    -0.8749  -0.8483  -0.6817  -0.6722  -0.6388  -0.6314  -0.6159  -0.5417
    -0.5328  -0.4392  -0.3760  -0.2556  -0.2112  -0.1999  -0.1592   0.0716
     0.1405   1.2845   1.5897

     occupation numbers 
     1.0000   1.0000   1.0000   1.0000   1.0000   1.0000   1.0000   1.0000
     1.0000   1.0000   1.0000   1.0000   1.0000   1.0000   1.0000   1.0000
     1.0000   1.0000   1.0000   1.0000   1.0000   1.0000   1.0000   1.0000
     1.0000   1.0000   1.0000   1.0000   1.0000   1.0000   1.0000   1.0000
     1.0000   1.0000   1.0000   1.0000   1.0000   1.0000   1.0000   1.0000
     1.0000   1.0000   1.0000   1.0000   1.0000   1.0000   1.0000   1.0000
     1.0000   1.0000   1.0000   1.0000   1.0000   1.0000   1.0000   1.0000
     1.0000   1.0000   1.0000   1.0000   1.0000   1.0000   1.0000   1.0000
     1.0000   1.0000   1.0000   1.0000   1.0000   1.0000   1.0000   1.0000
     1.0000   1.0000   1.0000   1.0000   1.0000   1.0000   1.0000   1.0000
     1.0000   1.0000   1.0000   1.0000   1.0000   1.0000   1.0000   1.0000
     1.0000   1.0000   1.0000   1.0000   1.0000   1.0000   1.0000   1.0000
     1.0000   1.0000   1.0000   1.0000   1.0000   1.0000   1.0000   1.0000
     1.0000   1.0000   1.0000   1.0000   1.0000   1.0000   1.0000   1.0000
     1.0000   1.0000   1.0000   1.0000   1.0000   1.0000   1.0000   1.0000
     1.0000   1.0000   1.0000   1.0000   1.0000   1.0000   1.0000   1.0000
     1.0000   1.0000   1.0000   1.0000   1.0000   1.0000   1.0000   1.0000
     1.0000   1.0000   1.0000   1.0000   1.0000   1.0000   1.0000   1.0000
     1.0000   1.0000   1.0000   1.0000   1.0000   1.0000   1.0000   1.0000
     1.0000   1.0000   1.0000   1.0000   1.0000   1.0000   1.0000   1.0000
     1.0000   1.0000   1.0000   1.0000   1.0000   1.0000   1.0000   1.0000
     1.0000   1.0000   1.0000   1.0000   1.0000   1.0000   1.0000   1.0000
     1.0000   1.0000   1.0000   1.0000   1.0000   1.0000   1.0000   1.0000
     1.0000   1.0000   1.0000   1.0000   1.0000   1.0000   1.0000   1.0000
     1.0000   1.0000   1.0000   1.0000   1.0000   1.0000   1.0000   1.0000
     1.0000   1.0000   1.0000   1.0000   1.0000   1.0000   1.0000   1.0000
     1.0000   1.0000   1.0000   1.0000   1.0000   1.0000   1.0000   1.0000
     1.0000   1.0000   1.0000   1.0000   1.0000   1.0000   1.0000   1.0000
     1.0000   1.0000   1.0000   1.0000   1.0000   1.0000   1.0000   1.0000
     1.0000   1.0000   1.0000   1.0000   1.0000   1.0000   1.0000   1.0000
     1.0000   1.0000   1.0000

          k = 0.2000 0.5774 0.0000 (112237 PWs)   bands (ev):

   -73.8158 -73.8137 -73.8101 -73.8079 -73.8050 -73.8042 -73.8021 -73.7999
   -73.7954 -73.7933 -73.7902 -73.7886 -73.7865 -73.7539 -73.7490 -73.7395
   -38.2003 -38.1963 -38.1861 -38.1829 -38.1760 -38.1705 -38.1647 -38.1500
   -38.1467 -38.1322 -38.0921 -38.0906 -38.0865 -38.0503 -38.0449 -38.0393
   -38.0332 -38.0299 -38.0170 -38.0166 -38.0068 -38.0043 -38.0021 -38.0004
   -37.9993 -37.9965 -37.9916 -37.9879 -37.9851 -37.9815 -37.9745 -37.9701
   -37.9687 -37.9660 -37.9611 -37.9584 -37.9557 -37.9524 -37.9498 -37.9454
   -37.9419 -37.9371 -37.9312 -37.9285 -37.9170 -37.8968 -37.8878 -37.8745
   -21.5201 -15.4381 -14.3360 -14.2926 -14.1143 -13.5952 -13.3016 -13.2932
   -12.9540 -12.9482 -12.8882 -12.8531 -12.8416 -12.8018 -12.7924 -12.6579
   -12.6306 -12.6028 -12.4919 -12.4839 -12.3837 -12.3720 -12.3585 -12.3231
   -12.3092 -12.2966 -12.2584 -12.2330 -12.2319 -12.1302 -12.1202 -12.1179
   -12.0782 -12.0159  -7.9239  -7.5879  -6.1715  -6.0577  -6.0092  -5.9860
    -5.9211  -5.8960  -5.8758  -5.8497  -5.8090  -5.7432  -5.6868  -5.6239
    -5.6128  -5.5406  -5.3634  -5.2664  -5.2548  -5.2192  -5.2040  -5.1707
    -5.1547  -4.8561  -4.8318  -4.7534  -4.6338  -4.5784  -4.5479  -4.5212
    -4.4744  -4.4181  -4.3987  -4.3191  -4.3117  -4.2389  -4.2324  -4.2126
    -4.1888  -4.1649  -4.1221  -4.0951  -3.9534  -3.9498  -3.7927  -3.6633
    -3.6523  -3.5675  -3.4420  -3.3931  -3.3616  -3.3292  -3.3097  -3.2860
    -3.2726  -3.2615  -3.2445  -3.2343  -3.2156  -3.2010  -3.1435  -3.1254
    -3.1018  -3.0804  -3.0620  -3.0354  -3.0079  -2.9590  -2.8787  -2.8310
    -2.7536  -2.7282  -2.6978  -2.6723  -2.6332  -2.5572  -2.5190  -2.4572
    -2.3983  -2.3335  -2.3200  -2.3081  -2.2547  -2.2067  -2.1795  -2.1357
    -2.1206  -2.1104  -2.0798  -2.0617  -2.0175  -1.9868  -1.9669  -1.9557
    -1.9387  -1.9181  -1.8974  -1.8807  -1.8700  -1.8562  -1.8433  -1.8353
    -1.8245  -1.7820  -1.7691  -1.7408  -1.7072  -1.6906  -1.6807  -1.6511
    -1.6183  -1.5729  -1.5611  -1.5080  -1.4784  -1.4662  -1.4142  -1.3338
    -1.2853  -1.1956  -1.1606  -1.1442  -1.0975  -1.0809  -1.0090  -1.0001
    -0.8136  -0.7992  -0.7019  -0.6910  -0.6599  -0.6453  -0.5925  -0.5829
    -0.5660  -0.4154  -0.2788  -0.2701  -0.1888  -0.1250  -0.0666   0.0905
     0.1885   1.2936   1.6061

     occupation numbers 
     1.0000   1.0000   1.0000   1.0000   1.0000   1.0000   1.0000   1.0000
     1.0000   1.0000   1.0000   1.0000   1.0000   1.0000   1.0000   1.0000
     1.0000   1.0000   1.0000   1.0000   1.0000   1.0000   1.0000   1.0000
     1.0000   1.0000   1.0000   1.0000   1.0000   1.0000   1.0000   1.0000
     1.0000   1.0000   1.0000   1.0000   1.0000   1.0000   1.0000   1.0000
     1.0000   1.0000   1.0000   1.0000   1.0000   1.0000   1.0000   1.0000
     1.0000   1.0000   1.0000   1.0000   1.0000   1.0000   1.0000   1.0000
     1.0000   1.0000   1.0000   1.0000   1.0000   1.0000   1.0000   1.0000
     1.0000   1.0000   1.0000   1.0000   1.0000   1.0000   1.0000   1.0000
     1.0000   1.0000   1.0000   1.0000   1.0000   1.0000   1.0000   1.0000
     1.0000   1.0000   1.0000   1.0000   1.0000   1.0000   1.0000   1.0000
     1.0000   1.0000   1.0000   1.0000   1.0000   1.0000   1.0000   1.0000
     1.0000   1.0000   1.0000   1.0000   1.0000   1.0000   1.0000   1.0000
     1.0000   1.0000   1.0000   1.0000   1.0000   1.0000   1.0000   1.0000
     1.0000   1.0000   1.0000   1.0000   1.0000   1.0000   1.0000   1.0000
     1.0000   1.0000   1.0000   1.0000   1.0000   1.0000   1.0000   1.0000
     1.0000   1.0000   1.0000   1.0000   1.0000   1.0000   1.0000   1.0000
     1.0000   1.0000   1.0000   1.0000   1.0000   1.0000   1.0000   1.0000
     1.0000   1.0000   1.0000   1.0000   1.0000   1.0000   1.0000   1.0000
     1.0000   1.0000   1.0000   1.0000   1.0000   1.0000   1.0000   1.0000
     1.0000   1.0000   1.0000   1.0000   1.0000   1.0000   1.0000   1.0000
     1.0000   1.0000   1.0000   1.0000   1.0000   1.0000   1.0000   1.0000
     1.0000   1.0000   1.0000   1.0000   1.0000   1.0000   1.0000   1.0000
     1.0000   1.0000   1.0000   1.0000   1.0000   1.0000   1.0000   1.0000
     1.0000   1.0000   1.0000   1.0000   1.0000   1.0000   1.0000   1.0000
     1.0000   1.0000   1.0000   1.0000   1.0000   1.0000   1.0000   1.0000
     1.0000   1.0000   1.0000   1.0000   1.0000   1.0000   1.0000   1.0000
     1.0000   1.0000   1.0000   1.0000   1.0000   1.0000   1.0000   1.0000
     1.0000   1.0000   1.0000   1.0000   1.0000   1.0000   1.0000   1.0000
     1.0000   1.0000   1.0000   1.0000   1.0000   1.0000   1.0000   1.0000
     1.0000   1.0000   1.0000

          k =-0.2000 0.1155 0.0000 (112171 PWs)   bands (ev):

   -73.8163 -73.8131 -73.8100 -73.8078 -73.8053 -73.8043 -73.8020 -73.8000
   -73.7952 -73.7934 -73.7905 -73.7883 -73.7865 -73.7538 -73.7490 -73.7395
   -38.2191 -38.2143 -38.2115 -38.1683 -38.1645 -38.1634 -38.1584 -38.1457
   -38.1392 -38.1024 -38.0796 -38.0755 -38.0506 -38.0481 -38.0441 -38.0338
   -38.0276 -38.0271 -38.0245 -38.0233 -38.0162 -38.0153 -38.0131 -38.0118
   -38.0035 -38.0001 -37.9970 -37.9957 -37.9928 -37.9913 -37.9876 -37.9858
   -37.9850 -37.9818 -37.9685 -37.9618 -37.9593 -37.9536 -37.9512 -37.9459
   -37.9322 -37.9242 -37.9202 -37.9100 -37.9080 -37.8998 -37.8742 -37.8711
   -21.5201 -15.4381 -14.5568 -13.9759 -13.8024 -13.7880 -13.4791 -13.4744
   -13.3252 -12.9674 -12.7919 -12.7592 -12.6919 -12.6821 -12.6573 -12.5872
   -12.5650 -12.5216 -12.4977 -12.4787 -12.4699 -12.4324 -12.4217 -12.3080
   -12.2945 -12.2615 -12.2441 -12.2133 -12.1866 -12.1756 -12.1676 -12.1504
   -12.0949 -12.0808  -7.9239  -7.5879  -6.2858  -6.2650  -6.2446  -6.2318
    -6.1621  -5.6792  -5.6399  -5.6255  -5.5498  -5.5321  -5.4929  -5.4693
    -5.4391  -5.4205  -5.3844  -5.3285  -5.3110  -5.2828  -5.2769  -5.0823
    -5.0631  -5.0161  -5.0000  -4.9519  -4.7407  -4.7357  -4.5738  -4.5157
    -4.4508  -4.3728  -4.3406  -4.2809  -4.2087  -4.1625  -4.1480  -4.1231
    -4.1003  -4.0666  -4.0407  -3.9967  -3.9843  -3.9157  -3.9059  -3.8973
    -3.6709  -3.5910  -3.5369  -3.5039  -3.4791  -3.4617  -3.4455  -3.3758
    -3.3667  -3.3205  -3.2960  -3.2797  -3.2659  -3.2067  -3.1953  -3.1553
    -3.1043  -2.9870  -2.9658  -2.9312  -2.8350  -2.8035  -2.7773  -2.7506
    -2.7320  -2.7154  -2.6992  -2.6910  -2.6770  -2.6537  -2.6075  -2.5478
    -2.5202  -2.4855  -2.4706  -2.4481  -2.3708  -2.3139  -2.1989  -2.1764
    -2.1358  -2.0903  -2.0226  -2.0062  -1.9805  -1.9672  -1.9457  -1.9085
    -1.8862  -1.8673  -1.8430  -1.8214  -1.8081  -1.7761  -1.7490  -1.7310
    -1.7110  -1.7031  -1.6853  -1.6678  -1.6545  -1.6097  -1.5772  -1.5568
    -1.5294  -1.5065  -1.4962  -1.4363  -1.4272  -1.3741  -1.3524  -1.3308
    -1.3144  -1.2769  -1.2573  -1.2245  -1.1660  -1.0817  -1.0472  -1.0182
    -0.9007  -0.7767  -0.7596  -0.7413  -0.5865  -0.5697  -0.5533  -0.5339
    -0.5193  -0.5109  -0.4157  -0.3836  -0.3596  -0.2653  -0.1728  -0.1459
     0.1761   1.2836   1.5413

     occupation numbers 
     1.0000   1.0000   1.0000   1.0000   1.0000   1.0000   1.0000   1.0000
     1.0000   1.0000   1.0000   1.0000   1.0000   1.0000   1.0000   1.0000
     1.0000   1.0000   1.0000   1.0000   1.0000   1.0000   1.0000   1.0000
     1.0000   1.0000   1.0000   1.0000   1.0000   1.0000   1.0000   1.0000
     1.0000   1.0000   1.0000   1.0000   1.0000   1.0000   1.0000   1.0000
     1.0000   1.0000   1.0000   1.0000   1.0000   1.0000   1.0000   1.0000
     1.0000   1.0000   1.0000   1.0000   1.0000   1.0000   1.0000   1.0000
     1.0000   1.0000   1.0000   1.0000   1.0000   1.0000   1.0000   1.0000
     1.0000   1.0000   1.0000   1.0000   1.0000   1.0000   1.0000   1.0000
     1.0000   1.0000   1.0000   1.0000   1.0000   1.0000   1.0000   1.0000
     1.0000   1.0000   1.0000   1.0000   1.0000   1.0000   1.0000   1.0000
     1.0000   1.0000   1.0000   1.0000   1.0000   1.0000   1.0000   1.0000
     1.0000   1.0000   1.0000   1.0000   1.0000   1.0000   1.0000   1.0000
     1.0000   1.0000   1.0000   1.0000   1.0000   1.0000   1.0000   1.0000
     1.0000   1.0000   1.0000   1.0000   1.0000   1.0000   1.0000   1.0000
     1.0000   1.0000   1.0000   1.0000   1.0000   1.0000   1.0000   1.0000
     1.0000   1.0000   1.0000   1.0000   1.0000   1.0000   1.0000   1.0000
     1.0000   1.0000   1.0000   1.0000   1.0000   1.0000   1.0000   1.0000
     1.0000   1.0000   1.0000   1.0000   1.0000   1.0000   1.0000   1.0000
     1.0000   1.0000   1.0000   1.0000   1.0000   1.0000   1.0000   1.0000
     1.0000   1.0000   1.0000   1.0000   1.0000   1.0000   1.0000   1.0000
     1.0000   1.0000   1.0000   1.0000   1.0000   1.0000   1.0000   1.0000
     1.0000   1.0000   1.0000   1.0000   1.0000   1.0000   1.0000   1.0000
     1.0000   1.0000   1.0000   1.0000   1.0000   1.0000   1.0000   1.0000
     1.0000   1.0000   1.0000   1.0000   1.0000   1.0000   1.0000   1.0000
     1.0000   1.0000   1.0000   1.0000   1.0000   1.0000   1.0000   1.0000
     1.0000   1.0000   1.0000   1.0000   1.0000   1.0000   1.0000   1.0000
     1.0000   1.0000   1.0000   1.0000   1.0000   1.0000   1.0000   1.0000
     1.0000   1.0000   1.0000   1.0000   1.0000   1.0000   1.0000   1.0000
     1.0000   1.0000   1.0000   1.0000   1.0000   1.0000   1.0000   1.0000
     1.0000   1.0000   1.0000

          k = 0.2000 0.1155 0.0000 (112171 PWs)   bands (ev):

   -73.8162 -73.8133 -73.8100 -73.8075 -73.8054 -73.8043 -73.8021 -73.8000
   -73.7951 -73.7934 -73.7904 -73.7884 -73.7865 -73.7538 -73.7490 -73.7395
   -38.2189 -38.2149 -38.2112 -38.1691 -38.1655 -38.1622 -38.1572 -38.1459
   -38.1393 -38.1027 -38.0795 -38.0758 -38.0508 -38.0483 -38.0446 -38.0338
   -38.0277 -38.0257 -38.0247 -38.0229 -38.0165 -38.0145 -38.0136 -38.0120
   -38.0039 -37.9993 -37.9971 -37.9956 -37.9930 -37.9908 -37.9888 -37.9858
   -37.9849 -37.9817 -37.9683 -37.9611 -37.9600 -37.9538 -37.9511 -37.9458
   -37.9322 -37.9235 -37.9197 -37.9120 -37.9072 -37.9000 -37.8758 -37.8694
   -21.5201 -15.4381 -14.5568 -13.9761 -13.8015 -13.7885 -13.4783 -13.4760
   -13.3244 -12.9675 -12.7921 -12.7585 -12.6914 -12.6832 -12.6576 -12.5872
   -12.5662 -12.5199 -12.4955 -12.4806 -12.4694 -12.4347 -12.4210 -12.3034
   -12.2943 -12.2646 -12.2472 -12.2085 -12.1922 -12.1725 -12.1707 -12.1479
   -12.0920 -12.0832  -7.9239  -7.5879  -6.2804  -6.2667  -6.2474  -6.2333
    -6.1620  -5.6731  -5.6433  -5.6231  -5.5509  -5.5364  -5.4900  -5.4719
    -5.4448  -5.4242  -5.3714  -5.3280  -5.3144  -5.2834  -5.2758  -5.0780
    -5.0710  -5.0140  -5.0037  -4.9464  -4.7416  -4.7364  -4.5696  -4.5115
    -4.4481  -4.3946  -4.3397  -4.2745  -4.2079  -4.1631  -4.1499  -4.1234
    -4.0999  -4.0568  -4.0406  -4.0038  -3.9827  -3.9132  -3.9101  -3.8997
    -3.6634  -3.5711  -3.5523  -3.5109  -3.4691  -3.4580  -3.4419  -3.3846
    -3.3727  -3.3125  -3.3024  -3.2833  -3.2606  -3.2138  -3.1972  -3.1479
    -3.1106  -3.0029  -2.9609  -2.9134  -2.8312  -2.8094  -2.7849  -2.7532
    -2.7388  -2.7129  -2.6994  -2.6930  -2.6689  -2.6394  -2.6005  -2.5508
    -2.5342  -2.5018  -2.4756  -2.4317  -2.3675  -2.3072  -2.2039  -2.1824
    -2.1249  -2.0921  -2.0201  -2.0011  -1.9732  -1.9699  -1.9319  -1.9092
    -1.9015  -1.8786  -1.8394  -1.8278  -1.8084  -1.7821  -1.7512  -1.7385
    -1.7133  -1.6944  -1.6814  -1.6594  -1.6412  -1.6272  -1.5913  -1.5454
    -1.5336  -1.5056  -1.4606  -1.4463  -1.4256  -1.4055  -1.3574  -1.3120
    -1.3061  -1.2976  -1.2516  -1.2118  -1.1710  -1.0668  -1.0474  -1.0301
    -0.8999  -0.7668  -0.7584  -0.7558  -0.5982  -0.5626  -0.5487  -0.5333
    -0.5216  -0.5159  -0.4111  -0.3844  -0.3559  -0.2660  -0.1690  -0.1499
     0.1768   1.2783   1.5476

     occupation numbers 
     1.0000   1.0000   1.0000   1.0000   1.0000   1.0000   1.0000   1.0000
     1.0000   1.0000   1.0000   1.0000   1.0000   1.0000   1.0000   1.0000
     1.0000   1.0000   1.0000   1.0000   1.0000   1.0000   1.0000   1.0000
     1.0000   1.0000   1.0000   1.0000   1.0000   1.0000   1.0000   1.0000
     1.0000   1.0000   1.0000   1.0000   1.0000   1.0000   1.0000   1.0000
     1.0000   1.0000   1.0000   1.0000   1.0000   1.0000   1.0000   1.0000
     1.0000   1.0000   1.0000   1.0000   1.0000   1.0000   1.0000   1.0000
     1.0000   1.0000   1.0000   1.0000   1.0000   1.0000   1.0000   1.0000
     1.0000   1.0000   1.0000   1.0000   1.0000   1.0000   1.0000   1.0000
     1.0000   1.0000   1.0000   1.0000   1.0000   1.0000   1.0000   1.0000
     1.0000   1.0000   1.0000   1.0000   1.0000   1.0000   1.0000   1.0000
     1.0000   1.0000   1.0000   1.0000   1.0000   1.0000   1.0000   1.0000
     1.0000   1.0000   1.0000   1.0000   1.0000   1.0000   1.0000   1.0000
     1.0000   1.0000   1.0000   1.0000   1.0000   1.0000   1.0000   1.0000
     1.0000   1.0000   1.0000   1.0000   1.0000   1.0000   1.0000   1.0000
     1.0000   1.0000   1.0000   1.0000   1.0000   1.0000   1.0000   1.0000
     1.0000   1.0000   1.0000   1.0000   1.0000   1.0000   1.0000   1.0000
     1.0000   1.0000   1.0000   1.0000   1.0000   1.0000   1.0000   1.0000
     1.0000   1.0000   1.0000   1.0000   1.0000   1.0000   1.0000   1.0000
     1.0000   1.0000   1.0000   1.0000   1.0000   1.0000   1.0000   1.0000
     1.0000   1.0000   1.0000   1.0000   1.0000   1.0000   1.0000   1.0000
     1.0000   1.0000   1.0000   1.0000   1.0000   1.0000   1.0000   1.0000
     1.0000   1.0000   1.0000   1.0000   1.0000   1.0000   1.0000   1.0000
     1.0000   1.0000   1.0000   1.0000   1.0000   1.0000   1.0000   1.0000
     1.0000   1.0000   1.0000   1.0000   1.0000   1.0000   1.0000   1.0000
     1.0000   1.0000   1.0000   1.0000   1.0000   1.0000   1.0000   1.0000
     1.0000   1.0000   1.0000   1.0000   1.0000   1.0000   1.0000   1.0000
     1.0000   1.0000   1.0000   1.0000   1.0000   1.0000   1.0000   1.0000
     1.0000   1.0000   1.0000   1.0000   1.0000   1.0000   1.0000   1.0000
     1.0000   1.0000   1.0000   1.0000   1.0000   1.0000   1.0000   1.0000
     1.0000   1.0000   1.0000

          k =-0.4000 0.2309 0.0000 (112236 PWs)   bands (ev):

   -73.8160 -73.8133 -73.8100 -73.8083 -73.8051 -73.8037 -73.8023 -73.7999
   -73.7952 -73.7935 -73.7905 -73.7883 -73.7865 -73.7539 -73.7490 -73.7395
   -38.2071 -38.2013 -38.1898 -38.1836 -38.1825 -38.1637 -38.1606 -38.1465
   -38.1298 -38.1234 -38.1053 -38.1004 -38.0625 -38.0574 -38.0466 -38.0393
   -38.0286 -38.0242 -38.0140 -38.0117 -38.0089 -38.0077 -38.0037 -37.9992
   -37.9980 -37.9969 -37.9947 -37.9921 -37.9870 -37.9854 -37.9818 -37.9789
   -37.9747 -37.9689 -37.9655 -37.9648 -37.9527 -37.9508 -37.9488 -37.9462
   -37.9440 -37.9377 -37.9292 -37.9166 -37.9086 -37.8916 -37.8899 -37.8756
   -21.5201 -15.4381 -14.4356 -14.2325 -13.8695 -13.8576 -13.2493 -13.2437
   -13.0248 -12.9974 -12.9750 -12.9106 -12.8323 -12.7330 -12.7036 -12.6848
   -12.5363 -12.5091 -12.4615 -12.4527 -12.4303 -12.4229 -12.3862 -12.3631
   -12.3527 -12.2818 -12.2219 -12.1999 -12.1755 -12.1611 -12.1545 -12.1519
   -12.0559 -12.0398  -7.9239  -7.5879  -6.1755  -6.1327  -6.1141  -6.0892
    -6.0228  -5.8766  -5.8562  -5.8395  -5.7115  -5.5344  -5.5112  -5.4900
    -5.4543  -5.4467  -5.4375  -5.3890  -5.3796  -5.3173  -5.3099  -5.0824
    -5.0581  -5.0238  -5.0056  -4.8048  -4.6094  -4.5571  -4.4822  -4.4423
    -4.4140  -4.3736  -4.3524  -4.3115  -4.2466  -4.2227  -4.1958  -4.1619
    -4.1224  -4.1142  -4.1019  -4.0750  -4.0688  -4.0541  -4.0429  -3.6928
    -3.5724  -3.5253  -3.4791  -3.4598  -3.4262  -3.3993  -3.3591  -3.3192
    -3.3031  -3.2812  -3.2607  -3.2425  -3.2155  -3.1999  -3.1511  -3.1163
    -3.0738  -3.0491  -3.0151  -2.9734  -2.9391  -2.9073  -2.8415  -2.7817
    -2.7444  -2.7156  -2.6676  -2.6346  -2.6163  -2.5882  -2.5582  -2.4998
    -2.4331  -2.4273  -2.4009  -2.3377  -2.2864  -2.2551  -2.2458  -2.1782
    -2.1287  -2.1193  -2.0608  -2.0327  -2.0190  -1.9953  -1.9655  -1.9374
    -1.9188  -1.9018  -1.8913  -1.8707  -1.8657  -1.8529  -1.8396  -1.8249
    -1.7931  -1.7643  -1.7240  -1.6999  -1.6945  -1.6732  -1.6538  -1.6154
    -1.5933  -1.5645  -1.5067  -1.4789  -1.4531  -1.3606  -1.3338  -1.3029
    -1.2669  -1.2227  -1.1744  -1.1298  -1.1228  -1.1043  -1.0784  -0.9913
    -0.9729  -0.8802  -0.7365  -0.7209  -0.6418  -0.6246  -0.5113  -0.4566
    -0.4508  -0.4256  -0.4047  -0.3779  -0.3048  -0.1020   0.0002   0.0305
     0.1223   1.3297   1.5534

     occupation numbers 
     1.0000   1.0000   1.0000   1.0000   1.0000   1.0000   1.0000   1.0000
     1.0000   1.0000   1.0000   1.0000   1.0000   1.0000   1.0000   1.0000
     1.0000   1.0000   1.0000   1.0000   1.0000   1.0000   1.0000   1.0000
     1.0000   1.0000   1.0000   1.0000   1.0000   1.0000   1.0000   1.0000
     1.0000   1.0000   1.0000   1.0000   1.0000   1.0000   1.0000   1.0000
     1.0000   1.0000   1.0000   1.0000   1.0000   1.0000   1.0000   1.0000
     1.0000   1.0000   1.0000   1.0000   1.0000   1.0000   1.0000   1.0000
     1.0000   1.0000   1.0000   1.0000   1.0000   1.0000   1.0000   1.0000
     1.0000   1.0000   1.0000   1.0000   1.0000   1.0000   1.0000   1.0000
     1.0000   1.0000   1.0000   1.0000   1.0000   1.0000   1.0000   1.0000
     1.0000   1.0000   1.0000   1.0000   1.0000   1.0000   1.0000   1.0000
     1.0000   1.0000   1.0000   1.0000   1.0000   1.0000   1.0000   1.0000
     1.0000   1.0000   1.0000   1.0000   1.0000   1.0000   1.0000   1.0000
     1.0000   1.0000   1.0000   1.0000   1.0000   1.0000   1.0000   1.0000
     1.0000   1.0000   1.0000   1.0000   1.0000   1.0000   1.0000   1.0000
     1.0000   1.0000   1.0000   1.0000   1.0000   1.0000   1.0000   1.0000
     1.0000   1.0000   1.0000   1.0000   1.0000   1.0000   1.0000   1.0000
     1.0000   1.0000   1.0000   1.0000   1.0000   1.0000   1.0000   1.0000
     1.0000   1.0000   1.0000   1.0000   1.0000   1.0000   1.0000   1.0000
     1.0000   1.0000   1.0000   1.0000   1.0000   1.0000   1.0000   1.0000
     1.0000   1.0000   1.0000   1.0000   1.0000   1.0000   1.0000   1.0000
     1.0000   1.0000   1.0000   1.0000   1.0000   1.0000   1.0000   1.0000
     1.0000   1.0000   1.0000   1.0000   1.0000   1.0000   1.0000   1.0000
     1.0000   1.0000   1.0000   1.0000   1.0000   1.0000   1.0000   1.0000
     1.0000   1.0000   1.0000   1.0000   1.0000   1.0000   1.0000   1.0000
     1.0000   1.0000   1.0000   1.0000   1.0000   1.0000   1.0000   1.0000
     1.0000   1.0000   1.0000   1.0000   1.0000   1.0000   1.0000   1.0000
     1.0000   1.0000   1.0000   1.0000   1.0000   1.0000   1.0000   1.0000
     1.0000   1.0000   1.0000   1.0000   1.0000   1.0000   1.0000   1.0000
     1.0000   1.0000   1.0000   1.0000   1.0000   1.0000   1.0000   1.0000
     1.0000   1.0000   1.0000

          k = 0.4000 0.2309 0.0000 (112236 PWs)   bands (ev):

   -73.8158 -73.8139 -73.8100 -73.8076 -73.8053 -73.8040 -73.8023 -73.8000
   -73.7949 -73.7936 -73.7902 -73.7886 -73.7865 -73.7538 -73.7490 -73.7395
   -38.2054 -38.2034 -38.1895 -38.1862 -38.1799 -38.1627 -38.1610 -38.1464
   -38.1293 -38.1239 -38.1060 -38.1008 -38.0621 -38.0584 -38.0464 -38.0396
   -38.0278 -38.0242 -38.0132 -38.0108 -38.0101 -38.0089 -38.0037 -37.9995
   -37.9972 -37.9960 -37.9943 -37.9909 -37.9889 -37.9855 -37.9815 -37.9788
   -37.9760 -37.9688 -37.9661 -37.9636 -37.9522 -37.9498 -37.9493 -37.9460
   -37.9441 -37.9368 -37.9293 -37.9174 -37.9089 -37.8935 -37.8910 -37.8733
   -21.5201 -15.4381 -14.4355 -14.2328 -13.8688 -13.8582 -13.2492 -13.2447
   -13.0215 -12.9974 -12.9770 -12.9098 -12.8332 -12.7307 -12.7054 -12.6856
   -12.5431 -12.5019 -12.4657 -12.4503 -12.4293 -12.4231 -12.3866 -12.3617
   -12.3503 -12.2818 -12.2286 -12.1978 -12.1775 -12.1602 -12.1549 -12.1493
   -12.0529 -12.0423  -7.9239  -7.5879  -6.1753  -6.1247  -6.1144  -6.0891
    -6.0366  -5.8693  -5.8559  -5.8362  -5.7165  -5.5354  -5.5097  -5.4929
    -5.4489  -5.4482  -5.4401  -5.3885  -5.3830  -5.3151  -5.3090  -5.0736
    -5.0697  -5.0220  -5.0103  -4.7770  -4.6229  -4.5610  -4.4907  -4.4525
    -4.4201  -4.3726  -4.3505  -4.3055  -4.2409  -4.2270  -4.1916  -4.1594
    -4.1259  -4.1156  -4.1030  -4.0769  -4.0638  -4.0518  -4.0434  -3.6802
    -3.5648  -3.5264  -3.4697  -3.4522  -3.4320  -3.4029  -3.3617  -3.3287
    -3.2924  -3.2858  -3.2558  -3.2411  -3.2202  -3.2060  -3.1404  -3.1193
    -3.0918  -3.0577  -3.0216  -2.9719  -2.9410  -2.9067  -2.8533  -2.7818
    -2.7481  -2.6925  -2.6585  -2.6347  -2.6215  -2.6061  -2.5226  -2.5060
    -2.4631  -2.4327  -2.3774  -2.3358  -2.2785  -2.2607  -2.2467  -2.1623
    -2.1279  -2.1201  -2.0459  -2.0173  -2.0114  -1.9877  -1.9809  -1.9654
    -1.9415  -1.9063  -1.8958  -1.8700  -1.8578  -1.8484  -1.8398  -1.8244
    -1.8091  -1.7537  -1.7333  -1.7158  -1.6976  -1.6508  -1.6368  -1.6283
    -1.6000  -1.5577  -1.5140  -1.5007  -1.4267  -1.3643  -1.3154  -1.2958
    -1.2626  -1.2389  -1.1936  -1.1356  -1.1197  -1.0660  -1.0585  -1.0062
    -0.9784  -0.8916  -0.7316  -0.7272  -0.6404  -0.6310  -0.5210  -0.4603
    -0.4495  -0.4238  -0.4057  -0.3681  -0.2985  -0.1037   0.0015   0.0265
     0.1254   1.3129   1.5738

     occupation numbers 
     1.0000   1.0000   1.0000   1.0000   1.0000   1.0000   1.0000   1.0000
     1.0000   1.0000   1.0000   1.0000   1.0000   1.0000   1.0000   1.0000
     1.0000   1.0000   1.0000   1.0000   1.0000   1.0000   1.0000   1.0000
     1.0000   1.0000   1.0000   1.0000   1.0000   1.0000   1.0000   1.0000
     1.0000   1.0000   1.0000   1.0000   1.0000   1.0000   1.0000   1.0000
     1.0000   1.0000   1.0000   1.0000   1.0000   1.0000   1.0000   1.0000
     1.0000   1.0000   1.0000   1.0000   1.0000   1.0000   1.0000   1.0000
     1.0000   1.0000   1.0000   1.0000   1.0000   1.0000   1.0000   1.0000
     1.0000   1.0000   1.0000   1.0000   1.0000   1.0000   1.0000   1.0000
     1.0000   1.0000   1.0000   1.0000   1.0000   1.0000   1.0000   1.0000
     1.0000   1.0000   1.0000   1.0000   1.0000   1.0000   1.0000   1.0000
     1.0000   1.0000   1.0000   1.0000   1.0000   1.0000   1.0000   1.0000
     1.0000   1.0000   1.0000   1.0000   1.0000   1.0000   1.0000   1.0000
     1.0000   1.0000   1.0000   1.0000   1.0000   1.0000   1.0000   1.0000
     1.0000   1.0000   1.0000   1.0000   1.0000   1.0000   1.0000   1.0000
     1.0000   1.0000   1.0000   1.0000   1.0000   1.0000   1.0000   1.0000
     1.0000   1.0000   1.0000   1.0000   1.0000   1.0000   1.0000   1.0000
     1.0000   1.0000   1.0000   1.0000   1.0000   1.0000   1.0000   1.0000
     1.0000   1.0000   1.0000   1.0000   1.0000   1.0000   1.0000   1.0000
     1.0000   1.0000   1.0000   1.0000   1.0000   1.0000   1.0000   1.0000
     1.0000   1.0000   1.0000   1.0000   1.0000   1.0000   1.0000   1.0000
     1.0000   1.0000   1.0000   1.0000   1.0000   1.0000   1.0000   1.0000
     1.0000   1.0000   1.0000   1.0000   1.0000   1.0000   1.0000   1.0000
     1.0000   1.0000   1.0000   1.0000   1.0000   1.0000   1.0000   1.0000
     1.0000   1.0000   1.0000   1.0000   1.0000   1.0000   1.0000   1.0000
     1.0000   1.0000   1.0000   1.0000   1.0000   1.0000   1.0000   1.0000
     1.0000   1.0000   1.0000   1.0000   1.0000   1.0000   1.0000   1.0000
     1.0000   1.0000   1.0000   1.0000   1.0000   1.0000   1.0000   1.0000
     1.0000   1.0000   1.0000   1.0000   1.0000   1.0000   1.0000   1.0000
     1.0000   1.0000   1.0000   1.0000   1.0000   1.0000   1.0000   1.0000
     1.0000   1.0000   1.0000

          k =-0.2000 0.3464 0.0000 (112231 PWs)   bands (ev):

   -73.8161 -73.8133 -73.8101 -73.8080 -73.8051 -73.8042 -73.8020 -73.7999
   -73.7954 -73.7933 -73.7904 -73.7884 -73.7865 -73.7539 -73.7490 -73.7395
   -38.2116 -38.2015 -38.2001 -38.1786 -38.1751 -38.1637 -38.1549 -38.1487
   -38.1322 -38.1249 -38.1124 -38.0764 -38.0603 -38.0549 -38.0473 -38.0366
   -38.0316 -38.0279 -38.0246 -38.0198 -38.0155 -38.0076 -38.0030 -37.9991
   -37.9957 -37.9927 -37.9907 -37.9879 -37.9858 -37.9834 -37.9816 -37.9805
   -37.9760 -37.9730 -37.9690 -37.9646 -37.9578 -37.9547 -37.9512 -37.9465
   -37.9410 -37.9318 -37.9260 -37.9210 -37.9028 -37.8980 -37.8861 -37.8726
   -21.5201 -15.4381 -14.4751 -14.1026 -14.0595 -13.5737 -13.5567 -13.1753
   -13.1189 -13.0093 -12.9350 -12.8081 -12.7911 -12.7062 -12.6723 -12.6196
   -12.5849 -12.5765 -12.5686 -12.4547 -12.4259 -12.3935 -12.3791 -12.3101
   -12.2915 -12.2737 -12.2512 -12.2264 -12.2225 -12.1563 -12.1496 -12.1081
   -12.0952 -12.0351  -7.9239  -7.5879  -6.1928  -6.1767  -6.1428  -6.1216
    -6.1031  -5.7689  -5.7380  -5.7169  -5.6996  -5.6263  -5.6023  -5.5639
    -5.5077  -5.4761  -5.3564  -5.3312  -5.3001  -5.2654  -5.2421  -5.2213
    -5.0977  -4.9141  -4.8948  -4.7968  -4.7559  -4.6091  -4.5177  -4.4481
    -4.3957  -4.3447  -4.3354  -4.3096  -4.2806  -4.2609  -4.2458  -4.2277
    -4.1644  -4.1303  -4.1114  -4.0933  -4.0542  -3.7752  -3.7404  -3.7290
    -3.7090  -3.6923  -3.6163  -3.5085  -3.4238  -3.3832  -3.3746  -3.3098
    -3.2954  -3.2434  -3.2337  -3.2043  -3.1670  -3.1477  -3.1280  -3.0842
    -3.0638  -3.0131  -2.9750  -2.9460  -2.9343  -2.9273  -2.9240  -2.9022
    -2.7987  -2.7446  -2.7228  -2.6780  -2.6315  -2.5649  -2.5325  -2.4784
    -2.4642  -2.4102  -2.3908  -2.3661  -2.3232  -2.2226  -2.1984  -2.1585
    -2.1384  -2.1241  -2.1089  -2.0846  -2.0384  -1.9910  -1.9840  -1.9445
    -1.9210  -1.9022  -1.8698  -1.8565  -1.8269  -1.8185  -1.7983  -1.7777
    -1.7509  -1.7138  -1.7055  -1.6819  -1.6562  -1.6394  -1.5898  -1.5841
    -1.5617  -1.5491  -1.5316  -1.5118  -1.4437  -1.3978  -1.3859  -1.3472
    -1.2908  -1.2493  -1.1977  -1.1739  -1.1589  -1.1229  -1.0477  -1.0069
    -0.8770  -0.8381  -0.6880  -0.6717  -0.6384  -0.6285  -0.6107  -0.5435
    -0.5367  -0.4292  -0.3861  -0.2581  -0.2068  -0.1994  -0.1616   0.0723
     0.1389   1.2923   1.5799

     occupation numbers 
     1.0000   1.0000   1.0000   1.0000   1.0000   1.0000   1.0000   1.0000
     1.0000   1.0000   1.0000   1.0000   1.0000   1.0000   1.0000   1.0000
     1.0000   1.0000   1.0000   1.0000   1.0000   1.0000   1.0000   1.0000
     1.0000   1.0000   1.0000   1.0000   1.0000   1.0000   1.0000   1.0000
     1.0000   1.0000   1.0000   1.0000   1.0000   1.0000   1.0000   1.0000
     1.0000   1.0000   1.0000   1.0000   1.0000   1.0000   1.0000   1.0000
     1.0000   1.0000   1.0000   1.0000   1.0000   1.0000   1.0000   1.0000
     1.0000   1.0000   1.0000   1.0000   1.0000   1.0000   1.0000   1.0000
     1.0000   1.0000   1.0000   1.0000   1.0000   1.0000   1.0000   1.0000
     1.0000   1.0000   1.0000   1.0000   1.0000   1.0000   1.0000   1.0000
     1.0000   1.0000   1.0000   1.0000   1.0000   1.0000   1.0000   1.0000
     1.0000   1.0000   1.0000   1.0000   1.0000   1.0000   1.0000   1.0000
     1.0000   1.0000   1.0000   1.0000   1.0000   1.0000   1.0000   1.0000
     1.0000   1.0000   1.0000   1.0000   1.0000   1.0000   1.0000   1.0000
     1.0000   1.0000   1.0000   1.0000   1.0000   1.0000   1.0000   1.0000
     1.0000   1.0000   1.0000   1.0000   1.0000   1.0000   1.0000   1.0000
     1.0000   1.0000   1.0000   1.0000   1.0000   1.0000   1.0000   1.0000
     1.0000   1.0000   1.0000   1.0000   1.0000   1.0000   1.0000   1.0000
     1.0000   1.0000   1.0000   1.0000   1.0000   1.0000   1.0000   1.0000
     1.0000   1.0000   1.0000   1.0000   1.0000   1.0000   1.0000   1.0000
     1.0000   1.0000   1.0000   1.0000   1.0000   1.0000   1.0000   1.0000
     1.0000   1.0000   1.0000   1.0000   1.0000   1.0000   1.0000   1.0000
     1.0000   1.0000   1.0000   1.0000   1.0000   1.0000   1.0000   1.0000
     1.0000   1.0000   1.0000   1.0000   1.0000   1.0000   1.0000   1.0000
     1.0000   1.0000   1.0000   1.0000   1.0000   1.0000   1.0000   1.0000
     1.0000   1.0000   1.0000   1.0000   1.0000   1.0000   1.0000   1.0000
     1.0000   1.0000   1.0000   1.0000   1.0000   1.0000   1.0000   1.0000
     1.0000   1.0000   1.0000   1.0000   1.0000   1.0000   1.0000   1.0000
     1.0000   1.0000   1.0000   1.0000   1.0000   1.0000   1.0000   1.0000
     1.0000   1.0000   1.0000   1.0000   1.0000   1.0000   1.0000   1.0000
     1.0000   1.0000   1.0000

          k = 0.4000-0.0000 0.0000 (112231 PWs)   bands (ev):

   -73.8160 -73.8135 -73.8100 -73.8079 -73.8052 -73.8039 -73.8023 -73.8000
   -73.7950 -73.7936 -73.7904 -73.7884 -73.7865 -73.7539 -73.7490 -73.7395
   -38.2116 -38.2023 -38.1990 -38.1784 -38.1752 -38.1650 -38.1555 -38.1489
   -38.1315 -38.1234 -38.1119 -38.0762 -38.0612 -38.0555 -38.0471 -38.0373
   -38.0301 -38.0281 -38.0247 -38.0213 -38.0134 -38.0087 -38.0033 -37.9980
   -37.9955 -37.9929 -37.9906 -37.9884 -37.9872 -37.9846 -37.9815 -37.9795
   -37.9746 -37.9740 -37.9687 -37.9648 -37.9577 -37.9543 -37.9510 -37.9462
   -37.9416 -37.9312 -37.9273 -37.9215 -37.9010 -37.8976 -37.8849 -37.8745
   -21.5201 -15.4381 -14.4752 -14.0990 -14.0631 -13.5682 -13.5630 -13.1703
   -13.1222 -13.0132 -12.9288 -12.8041 -12.7952 -12.7108 -12.6815 -12.6019
   -12.5990 -12.5736 -12.5606 -12.4564 -12.4231 -12.4123 -12.3643 -12.3072
   -12.2927 -12.2706 -12.2539 -12.2342 -12.2197 -12.1572 -12.1470 -12.1059
   -12.0966 -12.0355  -7.9239  -7.5879  -6.1841  -6.1811  -6.1467  -6.1191
    -6.1082  -5.7585  -5.7428  -5.7208  -5.6878  -5.6368  -5.6088  -5.5615
    -5.5057  -5.4733  -5.3519  -5.3350  -5.2928  -5.2718  -5.2446  -5.2294
    -5.0973  -4.9019  -4.8866  -4.8103  -4.7562  -4.5723  -4.5391  -4.4661
    -4.4099  -4.3469  -4.3381  -4.3134  -4.2756  -4.2645  -4.2437  -4.2109
    -4.1753  -4.1176  -4.1103  -4.0900  -4.0543  -3.7642  -3.7350  -3.7278
    -3.7082  -3.6989  -3.6280  -3.4866  -3.4312  -3.4032  -3.3727  -3.3273
    -3.2886  -3.2468  -3.2368  -3.2030  -3.1775  -3.1451  -3.1276  -3.0828
    -3.0439  -3.0065  -2.9697  -2.9524  -2.9414  -2.9244  -2.9083  -2.9004
    -2.7902  -2.7584  -2.7233  -2.6625  -2.6337  -2.5841  -2.5488  -2.4718
    -2.4681  -2.4212  -2.3884  -2.3472  -2.3215  -2.2277  -2.1812  -2.1629
    -2.1327  -2.1249  -2.1086  -2.1021  -2.0136  -1.9952  -1.9770  -1.9515
    -1.9276  -1.9014  -1.8834  -1.8656  -1.8534  -1.8222  -1.7946  -1.7713
    -1.7379  -1.7163  -1.6950  -1.6753  -1.6617  -1.6300  -1.5960  -1.5732
    -1.5574  -1.5478  -1.5332  -1.5067  -1.4504  -1.4134  -1.3704  -1.3408
    -1.2884  -1.2680  -1.2025  -1.1795  -1.1523  -1.1111  -1.0508  -1.0051
    -0.8681  -0.8501  -0.6823  -0.6750  -0.6395  -0.6233  -0.6151  -0.5417
    -0.5359  -0.4436  -0.3835  -0.2528  -0.2076  -0.1944  -0.1631   0.0696
     0.1389   1.3222   1.5488

     occupation numbers 
     1.0000   1.0000   1.0000   1.0000   1.0000   1.0000   1.0000   1.0000
     1.0000   1.0000   1.0000   1.0000   1.0000   1.0000   1.0000   1.0000
     1.0000   1.0000   1.0000   1.0000   1.0000   1.0000   1.0000   1.0000
     1.0000   1.0000   1.0000   1.0000   1.0000   1.0000   1.0000   1.0000
     1.0000   1.0000   1.0000   1.0000   1.0000   1.0000   1.0000   1.0000
     1.0000   1.0000   1.0000   1.0000   1.0000   1.0000   1.0000   1.0000
     1.0000   1.0000   1.0000   1.0000   1.0000   1.0000   1.0000   1.0000
     1.0000   1.0000   1.0000   1.0000   1.0000   1.0000   1.0000   1.0000
     1.0000   1.0000   1.0000   1.0000   1.0000   1.0000   1.0000   1.0000
     1.0000   1.0000   1.0000   1.0000   1.0000   1.0000   1.0000   1.0000
     1.0000   1.0000   1.0000   1.0000   1.0000   1.0000   1.0000   1.0000
     1.0000   1.0000   1.0000   1.0000   1.0000   1.0000   1.0000   1.0000
     1.0000   1.0000   1.0000   1.0000   1.0000   1.0000   1.0000   1.0000
     1.0000   1.0000   1.0000   1.0000   1.0000   1.0000   1.0000   1.0000
     1.0000   1.0000   1.0000   1.0000   1.0000   1.0000   1.0000   1.0000
     1.0000   1.0000   1.0000   1.0000   1.0000   1.0000   1.0000   1.0000
     1.0000   1.0000   1.0000   1.0000   1.0000   1.0000   1.0000   1.0000
     1.0000   1.0000   1.0000   1.0000   1.0000   1.0000   1.0000   1.0000
     1.0000   1.0000   1.0000   1.0000   1.0000   1.0000   1.0000   1.0000
     1.0000   1.0000   1.0000   1.0000   1.0000   1.0000   1.0000   1.0000
     1.0000   1.0000   1.0000   1.0000   1.0000   1.0000   1.0000   1.0000
     1.0000   1.0000   1.0000   1.0000   1.0000   1.0000   1.0000   1.0000
     1.0000   1.0000   1.0000   1.0000   1.0000   1.0000   1.0000   1.0000
     1.0000   1.0000   1.0000   1.0000   1.0000   1.0000   1.0000   1.0000
     1.0000   1.0000   1.0000   1.0000   1.0000   1.0000   1.0000   1.0000
     1.0000   1.0000   1.0000   1.0000   1.0000   1.0000   1.0000   1.0000
     1.0000   1.0000   1.0000   1.0000   1.0000   1.0000   1.0000   1.0000
     1.0000   1.0000   1.0000   1.0000   1.0000   1.0000   1.0000   1.0000
     1.0000   1.0000   1.0000   1.0000   1.0000   1.0000   1.0000   1.0000
     1.0000   1.0000   1.0000   1.0000   1.0000   1.0000   1.0000   1.0000
     1.0000   1.0000   1.0000

          k =-0.4000 0.4619 0.0000 (112237 PWs)   bands (ev):

   -73.8159 -73.8135 -73.8101 -73.8081 -73.8051 -73.8037 -73.8023 -73.7999
   -73.7952 -73.7935 -73.7903 -73.7884 -73.7865 -73.7539 -73.7490 -73.7395
   -38.2012 -38.1944 -38.1850 -38.1816 -38.1791 -38.1727 -38.1653 -38.1484
   -38.1457 -38.1321 -38.0937 -38.0895 -38.0843 -38.0515 -38.0442 -38.0406
   -38.0325 -38.0306 -38.0204 -38.0123 -38.0076 -38.0046 -38.0030 -37.9996
   -37.9985 -37.9957 -37.9929 -37.9875 -37.9853 -37.9816 -37.9742 -37.9710
   -37.9690 -37.9673 -37.9606 -37.9571 -37.9540 -37.9523 -37.9492 -37.9471
   -37.9449 -37.9376 -37.9332 -37.9263 -37.9142 -37.8954 -37.8847 -37.8789
   -21.5201 -15.4381 -14.3388 -14.2888 -14.1153 -13.5962 -13.2980 -13.2944
   -12.9612 -12.9491 -12.8863 -12.8563 -12.8272 -12.8007 -12.7959 -12.6653
   -12.6338 -12.5957 -12.4936 -12.4832 -12.3875 -12.3751 -12.3477 -12.3256
   -12.3090 -12.2968 -12.2606 -12.2343 -12.2290 -12.1335 -12.1195 -12.1145
   -12.0794 -12.0160  -7.9239  -7.5879  -6.1714  -6.0593  -6.0247  -5.9692
    -5.9148  -5.8901  -5.8771  -5.8592  -5.8077  -5.7444  -5.6890  -5.6256
    -5.6100  -5.5409  -5.3575  -5.2863  -5.2473  -5.2165  -5.2015  -5.1684
    -5.1574  -4.8543  -4.8325  -4.7457  -4.6201  -4.5899  -4.5443  -4.5250
    -4.4912  -4.4265  -4.3842  -4.3257  -4.3081  -4.2418  -4.2269  -4.2088
    -4.1933  -4.1637  -4.1200  -4.0941  -3.9569  -3.9468  -3.7925  -3.6714
    -3.6279  -3.5895  -3.4343  -3.3975  -3.3635  -3.3258  -3.3086  -3.2813
    -3.2784  -3.2671  -3.2420  -3.2316  -3.2199  -3.2138  -3.1495  -3.1209
    -3.0970  -3.0852  -3.0588  -3.0468  -2.9974  -2.9531  -2.8509  -2.8153
    -2.7443  -2.7306  -2.7123  -2.6822  -2.6312  -2.5971  -2.5108  -2.4196
    -2.4000  -2.3308  -2.3228  -2.3177  -2.2679  -2.1989  -2.1744  -2.1608
    -2.1466  -2.0899  -2.0796  -2.0519  -2.0285  -1.9790  -1.9686  -1.9484
    -1.9323  -1.9181  -1.8946  -1.8836  -1.8683  -1.8550  -1.8447  -1.8418
    -1.8188  -1.7962  -1.7621  -1.7300  -1.7045  -1.6963  -1.6729  -1.6539
    -1.6265  -1.5853  -1.5360  -1.5053  -1.4842  -1.4613  -1.4208  -1.3176
    -1.2848  -1.2363  -1.1705  -1.1163  -1.0937  -1.0771  -1.0446  -0.9743
    -0.8140  -0.7879  -0.7023  -0.6915  -0.6578  -0.6462  -0.5998  -0.5837
    -0.5673  -0.4144  -0.2807  -0.2745  -0.1791  -0.1192  -0.0773   0.0908
     0.1872   1.3305   1.5661

     occupation numbers 
     1.0000   1.0000   1.0000   1.0000   1.0000   1.0000   1.0000   1.0000
     1.0000   1.0000   1.0000   1.0000   1.0000   1.0000   1.0000   1.0000
     1.0000   1.0000   1.0000   1.0000   1.0000   1.0000   1.0000   1.0000
     1.0000   1.0000   1.0000   1.0000   1.0000   1.0000   1.0000   1.0000
     1.0000   1.0000   1.0000   1.0000   1.0000   1.0000   1.0000   1.0000
     1.0000   1.0000   1.0000   1.0000   1.0000   1.0000   1.0000   1.0000
     1.0000   1.0000   1.0000   1.0000   1.0000   1.0000   1.0000   1.0000
     1.0000   1.0000   1.0000   1.0000   1.0000   1.0000   1.0000   1.0000
     1.0000   1.0000   1.0000   1.0000   1.0000   1.0000   1.0000   1.0000
     1.0000   1.0000   1.0000   1.0000   1.0000   1.0000   1.0000   1.0000
     1.0000   1.0000   1.0000   1.0000   1.0000   1.0000   1.0000   1.0000
     1.0000   1.0000   1.0000   1.0000   1.0000   1.0000   1.0000   1.0000
     1.0000   1.0000   1.0000   1.0000   1.0000   1.0000   1.0000   1.0000
     1.0000   1.0000   1.0000   1.0000   1.0000   1.0000   1.0000   1.0000
     1.0000   1.0000   1.0000   1.0000   1.0000   1.0000   1.0000   1.0000
     1.0000   1.0000   1.0000   1.0000   1.0000   1.0000   1.0000   1.0000
     1.0000   1.0000   1.0000   1.0000   1.0000   1.0000   1.0000   1.0000
     1.0000   1.0000   1.0000   1.0000   1.0000   1.0000   1.0000   1.0000
     1.0000   1.0000   1.0000   1.0000   1.0000   1.0000   1.0000   1.0000
     1.0000   1.0000   1.0000   1.0000   1.0000   1.0000   1.0000   1.0000
     1.0000   1.0000   1.0000   1.0000   1.0000   1.0000   1.0000   1.0000
     1.0000   1.0000   1.0000   1.0000   1.0000   1.0000   1.0000   1.0000
     1.0000   1.0000   1.0000   1.0000   1.0000   1.0000   1.0000   1.0000
     1.0000   1.0000   1.0000   1.0000   1.0000   1.0000   1.0000   1.0000
     1.0000   1.0000   1.0000   1.0000   1.0000   1.0000   1.0000   1.0000
     1.0000   1.0000   1.0000   1.0000   1.0000   1.0000   1.0000   1.0000
     1.0000   1.0000   1.0000   1.0000   1.0000   1.0000   1.0000   1.0000
     1.0000   1.0000   1.0000   1.0000   1.0000   1.0000   1.0000   1.0000
     1.0000   1.0000   1.0000   1.0000   1.0000   1.0000   1.0000   1.0000
     1.0000   1.0000   1.0000   1.0000   1.0000   1.0000   1.0000   1.0000
     1.0000   1.0000   1.0000

          k = 0.6000 0.1155 0.0000 (112237 PWs)   bands (ev):

   -73.8157 -73.8139 -73.8100 -73.8078 -73.8052 -73.8039 -73.8023 -73.8000
   -73.7950 -73.7936 -73.7902 -73.7886 -73.7865 -73.7539 -73.7490 -73.7395
   -38.1999 -38.1961 -38.1858 -38.1832 -38.1762 -38.1727 -38.1648 -38.1482
   -38.1464 -38.1318 -38.0931 -38.0915 -38.0839 -38.0510 -38.0442 -38.0404
   -38.0326 -38.0309 -38.0200 -38.0115 -38.0084 -38.0054 -38.0024 -37.9999
   -37.9989 -37.9943 -37.9926 -37.9883 -37.9854 -37.9815 -37.9740 -37.9712
   -37.9689 -37.9681 -37.9604 -37.9570 -37.9545 -37.9525 -37.9496 -37.9469
   -37.9411 -37.9382 -37.9315 -37.9287 -37.9153 -37.8962 -37.8862 -37.8767
   -21.5201 -15.4381 -14.3381 -14.2897 -14.1151 -13.5961 -13.3053 -13.2871
   -12.9671 -12.9431 -12.8813 -12.8598 -12.8276 -12.8011 -12.7964 -12.6678
   -12.6327 -12.5939 -12.5035 -12.4731 -12.3942 -12.3717 -12.3439 -12.3210
   -12.3098 -12.2990 -12.2638 -12.2348 -12.2299 -12.1313 -12.1203 -12.1148
   -12.0787 -12.0162  -7.9239  -7.5879  -6.1713  -6.0563  -6.0197  -5.9683
    -5.9283  -5.9064  -5.8765  -5.8349  -5.8070  -5.7494  -5.6909  -5.6233
    -5.6122  -5.5375  -5.3564  -5.2826  -5.2560  -5.2253  -5.1967  -5.1723
    -5.1482  -4.8563  -4.8392  -4.6956  -4.6471  -4.6096  -4.5514  -4.5142
    -4.4942  -4.4354  -4.3847  -4.3212  -4.3021  -4.2419  -4.2313  -4.1994
    -4.1917  -4.1674  -4.1196  -4.0957  -3.9576  -3.9471  -3.7889  -3.6690
    -3.6294  -3.5803  -3.4361  -3.3762  -3.3673  -3.3346  -3.3029  -3.2870
    -3.2844  -3.2614  -3.2453  -3.2345  -3.2207  -3.2029  -3.1800  -3.1433
    -3.0872  -3.0788  -3.0532  -3.0214  -3.0071  -2.9657  -2.8488  -2.8131
    -2.7524  -2.7319  -2.7258  -2.6579  -2.6409  -2.5589  -2.5204  -2.4678
    -2.3952  -2.3358  -2.3158  -2.2967  -2.2467  -2.2149  -2.1743  -2.1510
    -2.1297  -2.1049  -2.0770  -2.0482  -2.0196  -1.9843  -1.9685  -1.9593
    -1.9379  -1.9128  -1.9029  -1.8820  -1.8728  -1.8621  -1.8533  -1.8446
    -1.8115  -1.8001  -1.7526  -1.7355  -1.7102  -1.6927  -1.6661  -1.6440
    -1.6268  -1.6056  -1.5387  -1.5209  -1.4765  -1.4342  -1.4064  -1.3296
    -1.2937  -1.2303  -1.1603  -1.1394  -1.0959  -1.0580  -1.0231  -0.9935
    -0.8104  -0.7944  -0.6978  -0.6961  -0.6589  -0.6523  -0.6005  -0.5952
    -0.5528  -0.4158  -0.2827  -0.2676  -0.1765  -0.1241  -0.0766   0.0916
     0.1875   1.3204   1.5783

     occupation numbers 
     1.0000   1.0000   1.0000   1.0000   1.0000   1.0000   1.0000   1.0000
     1.0000   1.0000   1.0000   1.0000   1.0000   1.0000   1.0000   1.0000
     1.0000   1.0000   1.0000   1.0000   1.0000   1.0000   1.0000   1.0000
     1.0000   1.0000   1.0000   1.0000   1.0000   1.0000   1.0000   1.0000
     1.0000   1.0000   1.0000   1.0000   1.0000   1.0000   1.0000   1.0000
     1.0000   1.0000   1.0000   1.0000   1.0000   1.0000   1.0000   1.0000
     1.0000   1.0000   1.0000   1.0000   1.0000   1.0000   1.0000   1.0000
     1.0000   1.0000   1.0000   1.0000   1.0000   1.0000   1.0000   1.0000
     1.0000   1.0000   1.0000   1.0000   1.0000   1.0000   1.0000   1.0000
     1.0000   1.0000   1.0000   1.0000   1.0000   1.0000   1.0000   1.0000
     1.0000   1.0000   1.0000   1.0000   1.0000   1.0000   1.0000   1.0000
     1.0000   1.0000   1.0000   1.0000   1.0000   1.0000   1.0000   1.0000
     1.0000   1.0000   1.0000   1.0000   1.0000   1.0000   1.0000   1.0000
     1.0000   1.0000   1.0000   1.0000   1.0000   1.0000   1.0000   1.0000
     1.0000   1.0000   1.0000   1.0000   1.0000   1.0000   1.0000   1.0000
     1.0000   1.0000   1.0000   1.0000   1.0000   1.0000   1.0000   1.0000
     1.0000   1.0000   1.0000   1.0000   1.0000   1.0000   1.0000   1.0000
     1.0000   1.0000   1.0000   1.0000   1.0000   1.0000   1.0000   1.0000
     1.0000   1.0000   1.0000   1.0000   1.0000   1.0000   1.0000   1.0000
     1.0000   1.0000   1.0000   1.0000   1.0000   1.0000   1.0000   1.0000
     1.0000   1.0000   1.0000   1.0000   1.0000   1.0000   1.0000   1.0000
     1.0000   1.0000   1.0000   1.0000   1.0000   1.0000   1.0000   1.0000
     1.0000   1.0000   1.0000   1.0000   1.0000   1.0000   1.0000   1.0000
     1.0000   1.0000   1.0000   1.0000   1.0000   1.0000   1.0000   1.0000
     1.0000   1.0000   1.0000   1.0000   1.0000   1.0000   1.0000   1.0000
     1.0000   1.0000   1.0000   1.0000   1.0000   1.0000   1.0000   1.0000
     1.0000   1.0000   1.0000   1.0000   1.0000   1.0000   1.0000   1.0000
     1.0000   1.0000   1.0000   1.0000   1.0000   1.0000   1.0000   1.0000
     1.0000   1.0000   1.0000   1.0000   1.0000   1.0000   1.0000   1.0000
     1.0000   1.0000   1.0000   1.0000   1.0000   1.0000   1.0000   1.0000
     1.0000   1.0000   1.0000

 ------ SPIN DOWN ----------


          k = 0.0000 0.0000 0.0000 (112117 PWs)   bands (ev):

   -73.8131 -73.8086 -73.8056 -73.8038 -73.8016 -73.8008 -73.7975 -73.7952
   -73.7930 -73.7880 -73.7871 -73.7854 -73.7813 -73.7404 -73.7308 -73.7278
   -38.2152 -38.2140 -38.2120 -38.1559 -38.1553 -38.1512 -38.1465 -38.1454
   -38.1340 -38.0549 -38.0498 -38.0472 -38.0467 -38.0406 -38.0376 -38.0364
   -38.0235 -38.0216 -38.0198 -38.0185 -38.0159 -38.0157 -38.0143 -38.0113
   -38.0082 -38.0049 -38.0035 -37.9985 -37.9916 -37.9882 -37.9856 -37.9842
   -37.9827 -37.9756 -37.9515 -37.9506 -37.9477 -37.9439 -37.9346 -37.9241
   -37.9181 -37.9071 -37.9049 -37.9033 -37.9009 -37.8902 -37.8577 -37.8556
   -21.5187 -15.4369 -14.5939 -13.7050 -13.6905 -13.6704 -13.6417 -13.6278
   -13.6185 -12.9785 -12.7043 -12.6736 -12.6496 -12.6351 -12.6000 -12.5792
   -12.5317 -12.5029 -12.4671 -12.4542 -12.4426 -12.4409 -12.4198 -12.4183
   -12.4145 -12.2195 -12.1973 -12.1876 -12.1709 -12.1552 -12.1514 -12.1470
   -12.1450 -12.1426  -7.9219  -7.5861  -6.3351  -6.3219  -6.3043  -6.2744
    -6.1620  -5.5993  -5.5676  -5.5437  -5.5279  -5.5237  -5.4912  -5.4370
    -5.4042  -5.3855  -5.3102  -5.2790  -5.2590  -5.0981  -5.0891  -5.0611
    -5.0564  -5.0524  -5.0516  -4.9956  -4.9950  -4.9865  -4.5106  -4.4313
    -4.3914  -4.3422  -4.2885  -4.2795  -4.2635  -4.2423  -4.2289  -4.1752
    -4.0763  -4.0055  -3.9745  -3.9594  -3.9331  -3.7874  -3.7549  -3.7510
    -3.6971  -3.6752  -3.6722  -3.5978  -3.5068  -3.4673  -3.4021  -3.3982
    -3.3706  -3.3640  -3.2738  -3.2181  -3.1920  -3.1784  -3.1565  -3.1388
    -3.1259  -3.1209  -3.1067  -3.1043  -3.0387  -2.9235  -2.7909  -2.7449
    -2.6863  -2.6650  -2.6194  -2.5847  -2.5718  -2.4999  -2.4897  -2.4617
    -2.4567  -2.4295  -2.4268  -2.4218  -2.3886  -2.3282  -2.2714  -2.1853
    -2.1148  -2.0525  -1.9631  -1.9585  -1.9289  -1.9154  -1.8642  -1.8221
    -1.7982  -1.7736  -1.7628  -1.7626  -1.7503  -1.7464  -1.7407  -1.7387
    -1.7312  -1.6983  -1.6916  -1.6548  -1.6453  -1.6333  -1.6306  -1.5974
    -1.5714  -1.5248  -1.5148  -1.4878  -1.4470  -1.4079  -1.3684  -1.3510
    -1.2886  -1.2602  -1.1812  -1.0862  -1.0334  -1.0251  -1.0085  -0.9890
    -0.7210  -0.6861  -0.6820  -0.6817  -0.6687  -0.6640  -0.6419  -0.6354
    -0.6190  -0.3916  -0.3803  -0.3703  -0.3551  -0.3384  -0.3290  -0.2928
     0.2196   1.3033   1.6764

     occupation numbers 
     1.0000   1.0000   1.0000   1.0000   1.0000   1.0000   1.0000   1.0000
     1.0000   1.0000   1.0000   1.0000   1.0000   1.0000   1.0000   1.0000
     1.0000   1.0000   1.0000   1.0000   1.0000   1.0000   1.0000   1.0000
     1.0000   1.0000   1.0000   1.0000   1.0000   1.0000   1.0000   1.0000
     1.0000   1.0000   1.0000   1.0000   1.0000   1.0000   1.0000   1.0000
     1.0000   1.0000   1.0000   1.0000   1.0000   1.0000   1.0000   1.0000
     1.0000   1.0000   1.0000   1.0000   1.0000   1.0000   1.0000   1.0000
     1.0000   1.0000   1.0000   1.0000   1.0000   1.0000   1.0000   1.0000
     1.0000   1.0000   1.0000   1.0000   1.0000   1.0000   1.0000   1.0000
     1.0000   1.0000   1.0000   1.0000   1.0000   1.0000   1.0000   1.0000
     1.0000   1.0000   1.0000   1.0000   1.0000   1.0000   1.0000   1.0000
     1.0000   1.0000   1.0000   1.0000   1.0000   1.0000   1.0000   1.0000
     1.0000   1.0000   1.0000   1.0000   1.0000   1.0000   1.0000   1.0000
     1.0000   1.0000   1.0000   1.0000   1.0000   1.0000   1.0000   1.0000
     1.0000   1.0000   1.0000   1.0000   1.0000   1.0000   1.0000   1.0000
     1.0000   1.0000   1.0000   1.0000   1.0000   1.0000   1.0000   1.0000
     1.0000   1.0000   1.0000   1.0000   1.0000   1.0000   1.0000   1.0000
     1.0000   1.0000   1.0000   1.0000   1.0000   1.0000   1.0000   1.0000
     1.0000   1.0000   1.0000   1.0000   1.0000   1.0000   1.0000   1.0000
     1.0000   1.0000   1.0000   1.0000   1.0000   1.0000   1.0000   1.0000
     1.0000   1.0000   1.0000   1.0000   1.0000   1.0000   1.0000   1.0000
     1.0000   1.0000   1.0000   1.0000   1.0000   1.0000   1.0000   1.0000
     1.0000   1.0000   1.0000   1.0000   1.0000   1.0000   1.0000   1.0000
     1.0000   1.0000   1.0000   1.0000   1.0000   1.0000   1.0000   1.0000
     1.0000   1.0000   1.0000   1.0000   1.0000   1.0000   1.0000   1.0000
     1.0000   1.0000   1.0000   1.0000   1.0000   1.0000   1.0000   1.0000
     1.0000   1.0000   1.0000   1.0000   1.0000   1.0000   1.0000   1.0000
     1.0000   1.0000   1.0000   1.0000   1.0000   1.0000   1.0000   1.0000
     1.0000   1.0000   1.0000   1.0000   1.0000   1.0000   1.0000   1.0000
     1.0000   1.0000   1.0000   1.0000   1.0000   1.0000   1.0000   1.0000
     1.0000   1.0000   0.0000

          k = 0.0000 0.2309 0.0000 (112171 PWs)   bands (ev):

   -73.8130 -73.8086 -73.8058 -73.8037 -73.8017 -73.8005 -73.7975 -73.7951
   -73.7931 -73.7880 -73.7871 -73.7854 -73.7813 -73.7404 -73.7308 -73.7278
   -38.2104 -38.2086 -38.2055 -38.1596 -38.1580 -38.1567 -38.1494 -38.1389
   -38.1308 -38.0956 -38.0702 -38.0689 -38.0455 -38.0416 -38.0368 -38.0260
   -38.0246 -38.0193 -38.0164 -38.0151 -38.0123 -38.0094 -38.0079 -38.0045
   -37.9984 -37.9937 -37.9932 -37.9898 -37.9872 -37.9858 -37.9830 -37.9823
   -37.9784 -37.9755 -37.9546 -37.9522 -37.9481 -37.9448 -37.9347 -37.9250
   -37.9245 -37.9136 -37.9098 -37.9018 -37.8979 -37.8887 -37.8634 -37.8583
   -21.5187 -15.4369 -14.5522 -13.9720 -13.7979 -13.7818 -13.4878 -13.4579
   -13.3210 -12.9625 -12.7991 -12.7312 -12.6921 -12.6838 -12.6518 -12.5821
   -12.5512 -12.5382 -12.4908 -12.4741 -12.4529 -12.4322 -12.4211 -12.3129
   -12.2818 -12.2594 -12.2410 -12.2116 -12.1821 -12.1716 -12.1648 -12.1500
   -12.0930 -12.0772  -7.9219  -7.5861  -6.2739  -6.2634  -6.2319  -6.2281
    -6.1599  -5.6582  -5.6387  -5.6221  -5.5521  -5.5135  -5.4849  -5.4661
    -5.4219  -5.4116  -5.3892  -5.3166  -5.3123  -5.2818  -5.2650  -5.0677
    -5.0629  -5.0121  -4.9983  -4.9502  -4.7349  -4.7302  -4.5793  -4.4722
    -4.4435  -4.3798  -4.3170  -4.2797  -4.2019  -4.1563  -4.1412  -4.1152
    -4.0950  -4.0569  -4.0388  -3.9968  -3.9806  -3.9064  -3.9039  -3.8964
    -3.6541  -3.5650  -3.5342  -3.5005  -3.4615  -3.4368  -3.4325  -3.3789
    -3.3598  -3.3084  -3.2877  -3.2740  -3.2604  -3.2018  -3.1879  -3.1451
    -3.0722  -2.9799  -2.9361  -2.9203  -2.8413  -2.7731  -2.7547  -2.7402
    -2.7144  -2.7064  -2.6912  -2.6674  -2.6412  -2.6239  -2.5816  -2.5370
    -2.4971  -2.4934  -2.4623  -2.4271  -2.3464  -2.3001  -2.1845  -2.1556
    -2.1031  -2.0597  -2.0076  -1.9919  -1.9669  -1.9475  -1.9212  -1.8993
    -1.8800  -1.8511  -1.8389  -1.8103  -1.7770  -1.7521  -1.7370  -1.7290
    -1.7147  -1.6927  -1.6768  -1.6505  -1.6350  -1.5987  -1.5774  -1.5372
    -1.5218  -1.4871  -1.4754  -1.4467  -1.4275  -1.3631  -1.3305  -1.3177
    -1.2923  -1.2710  -1.2312  -1.2128  -1.1465  -1.0604  -1.0371  -1.0042
    -0.8863  -0.7724  -0.7542  -0.7377  -0.5622  -0.5581  -0.5408  -0.5270
    -0.5140  -0.5011  -0.4014  -0.3707  -0.3551  -0.2410  -0.1643  -0.1339
     0.2017   1.3092   1.7075

     occupation numbers 
     1.0000   1.0000   1.0000   1.0000   1.0000   1.0000   1.0000   1.0000
     1.0000   1.0000   1.0000   1.0000   1.0000   1.0000   1.0000   1.0000
     1.0000   1.0000   1.0000   1.0000   1.0000   1.0000   1.0000   1.0000
     1.0000   1.0000   1.0000   1.0000   1.0000   1.0000   1.0000   1.0000
     1.0000   1.0000   1.0000   1.0000   1.0000   1.0000   1.0000   1.0000
     1.0000   1.0000   1.0000   1.0000   1.0000   1.0000   1.0000   1.0000
     1.0000   1.0000   1.0000   1.0000   1.0000   1.0000   1.0000   1.0000
     1.0000   1.0000   1.0000   1.0000   1.0000   1.0000   1.0000   1.0000
     1.0000   1.0000   1.0000   1.0000   1.0000   1.0000   1.0000   1.0000
     1.0000   1.0000   1.0000   1.0000   1.0000   1.0000   1.0000   1.0000
     1.0000   1.0000   1.0000   1.0000   1.0000   1.0000   1.0000   1.0000
     1.0000   1.0000   1.0000   1.0000   1.0000   1.0000   1.0000   1.0000
     1.0000   1.0000   1.0000   1.0000   1.0000   1.0000   1.0000   1.0000
     1.0000   1.0000   1.0000   1.0000   1.0000   1.0000   1.0000   1.0000
     1.0000   1.0000   1.0000   1.0000   1.0000   1.0000   1.0000   1.0000
     1.0000   1.0000   1.0000   1.0000   1.0000   1.0000   1.0000   1.0000
     1.0000   1.0000   1.0000   1.0000   1.0000   1.0000   1.0000   1.0000
     1.0000   1.0000   1.0000   1.0000   1.0000   1.0000   1.0000   1.0000
     1.0000   1.0000   1.0000   1.0000   1.0000   1.0000   1.0000   1.0000
     1.0000   1.0000   1.0000   1.0000   1.0000   1.0000   1.0000   1.0000
     1.0000   1.0000   1.0000   1.0000   1.0000   1.0000   1.0000   1.0000
     1.0000   1.0000   1.0000   1.0000   1.0000   1.0000   1.0000   1.0000
     1.0000   1.0000   1.0000   1.0000   1.0000   1.0000   1.0000   1.0000
     1.0000   1.0000   1.0000   1.0000   1.0000   1.0000   1.0000   1.0000
     1.0000   1.0000   1.0000   1.0000   1.0000   1.0000   1.0000   1.0000
     1.0000   1.0000   1.0000   1.0000   1.0000   1.0000   1.0000   1.0000
     1.0000   1.0000   1.0000   1.0000   1.0000   1.0000   1.0000   1.0000
     1.0000   1.0000   1.0000   1.0000   1.0000   1.0000   1.0000   1.0000
     1.0000   1.0000   1.0000   1.0000   1.0000   1.0000   1.0000   1.0000
     1.0000   1.0000   1.0000   1.0000   1.0000   1.0000   1.0000   1.0000
     1.0000   1.0000   0.0000

          k = 0.0000 0.4619 0.0000 (112236 PWs)   bands (ev):

   -73.8128 -73.8088 -73.8061 -73.8035 -73.8019 -73.8003 -73.7974 -73.7950
   -73.7933 -73.7880 -73.7870 -73.7854 -73.7813 -73.7404 -73.7308 -73.7278
   -38.1998 -38.1956 -38.1839 -38.1769 -38.1718 -38.1574 -38.1538 -38.1378
   -38.1233 -38.1161 -38.0952 -38.0924 -38.0556 -38.0492 -38.0419 -38.0323
   -38.0262 -38.0149 -38.0093 -38.0063 -38.0020 -38.0008 -37.9977 -37.9966
   -37.9938 -37.9907 -37.9903 -37.9867 -37.9831 -37.9814 -37.9755 -37.9724
   -37.9661 -37.9596 -37.9577 -37.9496 -37.9442 -37.9404 -37.9380 -37.9327
   -37.9313 -37.9214 -37.9168 -37.9083 -37.8981 -37.8833 -37.8773 -37.8617
   -21.5187 -15.4369 -14.4305 -14.2291 -13.8673 -13.8499 -13.2584 -13.2266
   -13.0140 -12.9953 -12.9665 -12.9126 -12.8293 -12.7255 -12.7012 -12.6854
   -12.5164 -12.5089 -12.4573 -12.4464 -12.4330 -12.4222 -12.3791 -12.3654
   -12.3472 -12.2812 -12.2121 -12.1984 -12.1740 -12.1559 -12.1541 -12.1498
   -12.0538 -12.0364  -7.9219  -7.5861  -6.1720  -6.1176  -6.1042  -6.0851
    -6.0200  -5.8667  -5.8547  -5.8296  -5.7071  -5.5270  -5.4944  -5.4814
    -5.4543  -5.4415  -5.4325  -5.3866  -5.3692  -5.3197  -5.2964  -5.0629
    -5.0576  -5.0248  -5.0054  -4.8018  -4.6204  -4.5157  -4.4779  -4.4340
    -4.3895  -4.3698  -4.3438  -4.3060  -4.2395  -4.2247  -4.1869  -4.1552
    -4.1244  -4.1134  -4.0988  -4.0723  -4.0622  -4.0474  -4.0373  -3.6779
    -3.5641  -3.5024  -3.4709  -3.4362  -3.4115  -3.3821  -3.3616  -3.3054
    -3.2839  -3.2750  -3.2563  -3.2318  -3.2141  -3.1814  -3.1520  -3.1018
    -3.0574  -3.0447  -3.0007  -2.9489  -2.9310  -2.9038  -2.8410  -2.7566
    -2.7212  -2.6916  -2.6418  -2.6266  -2.5914  -2.5515  -2.5224  -2.4761
    -2.4380  -2.4239  -2.3875  -2.3095  -2.2717  -2.2455  -2.2365  -2.1683
    -2.1017  -2.0804  -2.0325  -2.0076  -2.0007  -1.9892  -1.9688  -1.9336
    -1.9168  -1.8957  -1.8732  -1.8628  -1.8480  -1.8360  -1.8268  -1.8205
    -1.7658  -1.7571  -1.7119  -1.7013  -1.6800  -1.6513  -1.6215  -1.6077
    -1.5798  -1.5460  -1.5149  -1.4851  -1.4172  -1.3794  -1.2954  -1.2775
    -1.2217  -1.1943  -1.1840  -1.1368  -1.1101  -1.0899  -1.0375  -0.9898
    -0.9648  -0.8828  -0.7265  -0.7116  -0.6340  -0.6141  -0.4770  -0.4490
    -0.4373  -0.4257  -0.3920  -0.3686  -0.2973  -0.0808   0.0077   0.0373
     0.1553   1.3178   1.7586

     occupation numbers 
     1.0000   1.0000   1.0000   1.0000   1.0000   1.0000   1.0000   1.0000
     1.0000   1.0000   1.0000   1.0000   1.0000   1.0000   1.0000   1.0000
     1.0000   1.0000   1.0000   1.0000   1.0000   1.0000   1.0000   1.0000
     1.0000   1.0000   1.0000   1.0000   1.0000   1.0000   1.0000   1.0000
     1.0000   1.0000   1.0000   1.0000   1.0000   1.0000   1.0000   1.0000
     1.0000   1.0000   1.0000   1.0000   1.0000   1.0000   1.0000   1.0000
     1.0000   1.0000   1.0000   1.0000   1.0000   1.0000   1.0000   1.0000
     1.0000   1.0000   1.0000   1.0000   1.0000   1.0000   1.0000   1.0000
     1.0000   1.0000   1.0000   1.0000   1.0000   1.0000   1.0000   1.0000
     1.0000   1.0000   1.0000   1.0000   1.0000   1.0000   1.0000   1.0000
     1.0000   1.0000   1.0000   1.0000   1.0000   1.0000   1.0000   1.0000
     1.0000   1.0000   1.0000   1.0000   1.0000   1.0000   1.0000   1.0000
     1.0000   1.0000   1.0000   1.0000   1.0000   1.0000   1.0000   1.0000
     1.0000   1.0000   1.0000   1.0000   1.0000   1.0000   1.0000   1.0000
     1.0000   1.0000   1.0000   1.0000   1.0000   1.0000   1.0000   1.0000
     1.0000   1.0000   1.0000   1.0000   1.0000   1.0000   1.0000   1.0000
     1.0000   1.0000   1.0000   1.0000   1.0000   1.0000   1.0000   1.0000
     1.0000   1.0000   1.0000   1.0000   1.0000   1.0000   1.0000   1.0000
     1.0000   1.0000   1.0000   1.0000   1.0000   1.0000   1.0000   1.0000
     1.0000   1.0000   1.0000   1.0000   1.0000   1.0000   1.0000   1.0000
     1.0000   1.0000   1.0000   1.0000   1.0000   1.0000   1.0000   1.0000
     1.0000   1.0000   1.0000   1.0000   1.0000   1.0000   1.0000   1.0000
     1.0000   1.0000   1.0000   1.0000   1.0000   1.0000   1.0000   1.0000
     1.0000   1.0000   1.0000   1.0000   1.0000   1.0000   1.0000   1.0000
     1.0000   1.0000   1.0000   1.0000   1.0000   1.0000   1.0000   1.0000
     1.0000   1.0000   1.0000   1.0000   1.0000   1.0000   1.0000   1.0000
     1.0000   1.0000   1.0000   1.0000   1.0000   1.0000   1.0000   1.0000
     1.0000   1.0000   1.0000   1.0000   1.0000   1.0000   1.0000   1.0000
     1.0000   1.0000   1.0000   1.0000   1.0000   1.0000   1.0000   1.0000
     1.0000   1.0000   1.0000   1.0000   1.0000   1.0000   1.0000   1.0000
     1.0000   1.0000   0.0000

          k = 0.2000 0.3464 0.0000 (112231 PWs)   bands (ev):

   -73.8128 -73.8089 -73.8059 -73.8037 -73.8016 -73.8003 -73.7976 -73.7952
   -73.7930 -73.7881 -73.7870 -73.7854 -73.7813 -73.7404 -73.7308 -73.7278
   -38.2041 -38.1950 -38.1943 -38.1716 -38.1663 -38.1574 -38.1475 -38.1403
   -38.1256 -38.1150 -38.1042 -38.0692 -38.0522 -38.0467 -38.0424 -38.0309
   -38.0261 -38.0215 -38.0161 -38.0135 -38.0100 -38.0045 -37.9978 -37.9962
   -37.9907 -37.9874 -37.9859 -37.9837 -37.9814 -37.9789 -37.9755 -37.9744
   -37.9689 -37.9648 -37.9564 -37.9510 -37.9483 -37.9455 -37.9367 -37.9323
   -37.9258 -37.9195 -37.9165 -37.9081 -37.8950 -37.8882 -37.8730 -37.8604
   -21.5187 -15.4369 -14.4704 -14.0974 -14.0560 -13.5620 -13.5600 -13.1679
   -13.1156 -13.0043 -12.9305 -12.8042 -12.7853 -12.7054 -12.6689 -12.5998
   -12.5903 -12.5731 -12.5680 -12.4529 -12.4213 -12.3869 -12.3728 -12.3090
   -12.2871 -12.2688 -12.2492 -12.2289 -12.2181 -12.1514 -12.1469 -12.1042
   -12.0931 -12.0329  -7.9219  -7.5861  -6.1786  -6.1689  -6.1388  -6.1182
    -6.1001  -5.7530  -5.7299  -5.7150  -5.6745  -5.6392  -5.5971  -5.5587
    -5.5000  -5.4684  -5.3497  -5.3272  -5.2792  -5.2699  -5.2378  -5.2210
    -5.0906  -4.8985  -4.8841  -4.8089  -4.7478  -4.5918  -4.4822  -4.4568
    -4.3898  -4.3604  -4.3326  -4.2971  -4.2717  -4.2583  -4.2282  -4.2204
    -4.1671  -4.1172  -4.1023  -4.0871  -4.0517  -3.7551  -3.7289  -3.7198
    -3.7121  -3.6868  -3.5961  -3.4889  -3.4209  -3.3892  -3.3439  -3.3135
    -3.2792  -3.2388  -3.2162  -3.1977  -3.1612  -3.1450  -3.0932  -3.0864
    -3.0318  -2.9997  -2.9641  -2.9427  -2.9347  -2.9171  -2.9022  -2.8896
    -2.7919  -2.7156  -2.6880  -2.6396  -2.6031  -2.5349  -2.5014  -2.4695
    -2.4526  -2.4239  -2.3793  -2.3528  -2.3031  -2.2077  -2.1703  -2.1527
    -2.1196  -2.1182  -2.0807  -2.0704  -1.9951  -1.9807  -1.9646  -1.9370
    -1.9155  -1.8917  -1.8679  -1.8439  -1.8285  -1.8148  -1.7862  -1.7478
    -1.7222  -1.7073  -1.6987  -1.6624  -1.6559  -1.6088  -1.5812  -1.5676
    -1.5591  -1.5327  -1.5205  -1.4934  -1.4133  -1.3814  -1.3675  -1.3548
    -1.2785  -1.2149  -1.1983  -1.1744  -1.1469  -1.1021  -1.0203  -0.9918
    -0.8670  -0.8355  -0.6735  -0.6638  -0.6296  -0.6204  -0.6070  -0.5321
    -0.5234  -0.4177  -0.3670  -0.2485  -0.1994  -0.1901  -0.1419   0.0812
     0.1669   1.3317   1.7287

     occupation numbers 
     1.0000   1.0000   1.0000   1.0000   1.0000   1.0000   1.0000   1.0000
     1.0000   1.0000   1.0000   1.0000   1.0000   1.0000   1.0000   1.0000
     1.0000   1.0000   1.0000   1.0000   1.0000   1.0000   1.0000   1.0000
     1.0000   1.0000   1.0000   1.0000   1.0000   1.0000   1.0000   1.0000
     1.0000   1.0000   1.0000   1.0000   1.0000   1.0000   1.0000   1.0000
     1.0000   1.0000   1.0000   1.0000   1.0000   1.0000   1.0000   1.0000
     1.0000   1.0000   1.0000   1.0000   1.0000   1.0000   1.0000   1.0000
     1.0000   1.0000   1.0000   1.0000   1.0000   1.0000   1.0000   1.0000
     1.0000   1.0000   1.0000   1.0000   1.0000   1.0000   1.0000   1.0000
     1.0000   1.0000   1.0000   1.0000   1.0000   1.0000   1.0000   1.0000
     1.0000   1.0000   1.0000   1.0000   1.0000   1.0000   1.0000   1.0000
     1.0000   1.0000   1.0000   1.0000   1.0000   1.0000   1.0000   1.0000
     1.0000   1.0000   1.0000   1.0000   1.0000   1.0000   1.0000   1.0000
     1.0000   1.0000   1.0000   1.0000   1.0000   1.0000   1.0000   1.0000
     1.0000   1.0000   1.0000   1.0000   1.0000   1.0000   1.0000   1.0000
     1.0000   1.0000   1.0000   1.0000   1.0000   1.0000   1.0000   1.0000
     1.0000   1.0000   1.0000   1.0000   1.0000   1.0000   1.0000   1.0000
     1.0000   1.0000   1.0000   1.0000   1.0000   1.0000   1.0000   1.0000
     1.0000   1.0000   1.0000   1.0000   1.0000   1.0000   1.0000   1.0000
     1.0000   1.0000   1.0000   1.0000   1.0000   1.0000   1.0000   1.0000
     1.0000   1.0000   1.0000   1.0000   1.0000   1.0000   1.0000   1.0000
     1.0000   1.0000   1.0000   1.0000   1.0000   1.0000   1.0000   1.0000
     1.0000   1.0000   1.0000   1.0000   1.0000   1.0000   1.0000   1.0000
     1.0000   1.0000   1.0000   1.0000   1.0000   1.0000   1.0000   1.0000
     1.0000   1.0000   1.0000   1.0000   1.0000   1.0000   1.0000   1.0000
     1.0000   1.0000   1.0000   1.0000   1.0000   1.0000   1.0000   1.0000
     1.0000   1.0000   1.0000   1.0000   1.0000   1.0000   1.0000   1.0000
     1.0000   1.0000   1.0000   1.0000   1.0000   1.0000   1.0000   1.0000
     1.0000   1.0000   1.0000   1.0000   1.0000   1.0000   1.0000   1.0000
     1.0000   1.0000   1.0000   1.0000   1.0000   1.0000   1.0000   1.0000
     1.0000   1.0000   0.0000

          k = 0.2000 0.5774 0.0000 (112237 PWs)   bands (ev):

   -73.8127 -73.8089 -73.8061 -73.8036 -73.8017 -73.8003 -73.7974 -73.7951
   -73.7932 -73.7881 -73.7870 -73.7854 -73.7813 -73.7404 -73.7308 -73.7278
   -38.1949 -38.1879 -38.1792 -38.1751 -38.1694 -38.1655 -38.1574 -38.1421
   -38.1381 -38.1220 -38.0847 -38.0834 -38.0754 -38.0440 -38.0402 -38.0336
   -38.0282 -38.0218 -38.0125 -38.0089 -38.0028 -37.9991 -37.9972 -37.9953
   -37.9942 -37.9922 -37.9875 -37.9835 -37.9810 -37.9753 -37.9682 -37.9642
   -37.9590 -37.9547 -37.9524 -37.9496 -37.9484 -37.9409 -37.9372 -37.9336
   -37.9304 -37.9235 -37.9194 -37.9153 -37.9034 -37.8859 -37.8735 -37.8651
   -21.5187 -15.4369 -14.3305 -14.2886 -14.1106 -13.5909 -13.2949 -13.2900
   -12.9466 -12.9433 -12.8843 -12.8490 -12.8367 -12.7988 -12.7893 -12.6540
   -12.6267 -12.5989 -12.4872 -12.4806 -12.3790 -12.3674 -12.3539 -12.3205
   -12.3060 -12.2941 -12.2547 -12.2302 -12.2292 -12.1272 -12.1171 -12.1147
   -12.0759 -12.0134  -7.9219  -7.5861  -6.1689  -6.0432  -5.9972  -5.9805
    -5.9139  -5.8888  -5.8695  -5.8428  -5.8041  -5.7389  -5.6805  -5.6172
    -5.6087  -5.5360  -5.3570  -5.2593  -5.2493  -5.2124  -5.1972  -5.1651
    -5.1490  -4.8497  -4.8260  -4.7425  -4.6260  -4.5700  -4.5402  -4.5131
    -4.4674  -4.4104  -4.3909  -4.3108  -4.3046  -4.2344  -4.2271  -4.2070
    -4.1808  -4.1600  -4.1177  -4.0913  -3.9481  -3.9447  -3.7832  -3.6555
    -3.6330  -3.5585  -3.4260  -3.3821  -3.3491  -3.3167  -3.2966  -3.2783
    -3.2636  -3.2542  -3.2363  -3.2267  -3.2094  -3.1938  -3.1345  -3.1153
    -3.0911  -3.0731  -3.0553  -3.0231  -2.9912  -2.9208  -2.8667  -2.8105
    -2.7280  -2.6966  -2.6775  -2.6546  -2.5983  -2.5381  -2.4918  -2.4400
    -2.3832  -2.3257  -2.3134  -2.2991  -2.2439  -2.1887  -2.1661  -2.1231
    -2.1069  -2.0923  -2.0672  -2.0457  -2.0053  -1.9718  -1.9526  -1.9418
    -1.9236  -1.9040  -1.8846  -1.8682  -1.8598  -1.8471  -1.8366  -1.8270
    -1.8103  -1.7704  -1.7595  -1.7271  -1.6940  -1.6729  -1.6572  -1.6347
    -1.6012  -1.5596  -1.5420  -1.4893  -1.4712  -1.4566  -1.3906  -1.3194
    -1.2651  -1.1839  -1.1504  -1.1327  -1.0852  -1.0716  -0.9970  -0.9739
    -0.8056  -0.7903  -0.6942  -0.6819  -0.6489  -0.6347  -0.5846  -0.5735
    -0.5555  -0.3907  -0.2706  -0.2613  -0.1791  -0.1160  -0.0556   0.1225
     0.1980   1.3398   1.7419

     occupation numbers 
     1.0000   1.0000   1.0000   1.0000   1.0000   1.0000   1.0000   1.0000
     1.0000   1.0000   1.0000   1.0000   1.0000   1.0000   1.0000   1.0000
     1.0000   1.0000   1.0000   1.0000   1.0000   1.0000   1.0000   1.0000
     1.0000   1.0000   1.0000   1.0000   1.0000   1.0000   1.0000   1.0000
     1.0000   1.0000   1.0000   1.0000   1.0000   1.0000   1.0000   1.0000
     1.0000   1.0000   1.0000   1.0000   1.0000   1.0000   1.0000   1.0000
     1.0000   1.0000   1.0000   1.0000   1.0000   1.0000   1.0000   1.0000
     1.0000   1.0000   1.0000   1.0000   1.0000   1.0000   1.0000   1.0000
     1.0000   1.0000   1.0000   1.0000   1.0000   1.0000   1.0000   1.0000
     1.0000   1.0000   1.0000   1.0000   1.0000   1.0000   1.0000   1.0000
     1.0000   1.0000   1.0000   1.0000   1.0000   1.0000   1.0000   1.0000
     1.0000   1.0000   1.0000   1.0000   1.0000   1.0000   1.0000   1.0000
     1.0000   1.0000   1.0000   1.0000   1.0000   1.0000   1.0000   1.0000
     1.0000   1.0000   1.0000   1.0000   1.0000   1.0000   1.0000   1.0000
     1.0000   1.0000   1.0000   1.0000   1.0000   1.0000   1.0000   1.0000
     1.0000   1.0000   1.0000   1.0000   1.0000   1.0000   1.0000   1.0000
     1.0000   1.0000   1.0000   1.0000   1.0000   1.0000   1.0000   1.0000
     1.0000   1.0000   1.0000   1.0000   1.0000   1.0000   1.0000   1.0000
     1.0000   1.0000   1.0000   1.0000   1.0000   1.0000   1.0000   1.0000
     1.0000   1.0000   1.0000   1.0000   1.0000   1.0000   1.0000   1.0000
     1.0000   1.0000   1.0000   1.0000   1.0000   1.0000   1.0000   1.0000
     1.0000   1.0000   1.0000   1.0000   1.0000   1.0000   1.0000   1.0000
     1.0000   1.0000   1.0000   1.0000   1.0000   1.0000   1.0000   1.0000
     1.0000   1.0000   1.0000   1.0000   1.0000   1.0000   1.0000   1.0000
     1.0000   1.0000   1.0000   1.0000   1.0000   1.0000   1.0000   1.0000
     1.0000   1.0000   1.0000   1.0000   1.0000   1.0000   1.0000   1.0000
     1.0000   1.0000   1.0000   1.0000   1.0000   1.0000   1.0000   1.0000
     1.0000   1.0000   1.0000   1.0000   1.0000   1.0000   1.0000   1.0000
     1.0000   1.0000   1.0000   1.0000   1.0000   1.0000   1.0000   1.0000
     1.0000   1.0000   1.0000   1.0000   1.0000   1.0000   1.0000   1.0000
     1.0000   1.0000   0.0000

          k =-0.2000 0.1155 0.0000 (112171 PWs)   bands (ev):

   -73.8130 -73.8087 -73.8057 -73.8038 -73.8014 -73.8008 -73.7975 -73.7951
   -73.7930 -73.7881 -73.7870 -73.7854 -73.7813 -73.7404 -73.7308 -73.7278
   -38.2100 -38.2096 -38.2050 -38.1611 -38.1579 -38.1552 -38.1497 -38.1381
   -38.1311 -38.0950 -38.0710 -38.0688 -38.0455 -38.0418 -38.0366 -38.0274
   -38.0214 -38.0196 -38.0186 -38.0172 -38.0106 -38.0090 -38.0077 -38.0042
   -37.9984 -37.9935 -37.9919 -37.9905 -37.9873 -37.9860 -37.9837 -37.9819
   -37.9784 -37.9754 -37.9545 -37.9515 -37.9488 -37.9448 -37.9347 -37.9268
   -37.9230 -37.9131 -37.9090 -37.9025 -37.8985 -37.8885 -37.8628 -37.8589
   -21.5187 -15.4369 -14.5523 -13.9712 -13.7970 -13.7846 -13.4746 -13.4699
   -13.3213 -12.9628 -12.7864 -12.7521 -12.6878 -12.6780 -12.6540 -12.5828
   -12.5606 -12.5172 -12.4929 -12.4753 -12.4648 -12.4295 -12.4202 -12.3036
   -12.2910 -12.2584 -12.2412 -12.2098 -12.1836 -12.1721 -12.1651 -12.1487
   -12.0922 -12.0781  -7.9219  -7.5861  -6.2779  -6.2574  -6.2372  -6.2246
    -6.1599  -5.6671  -5.6310  -5.6183  -5.5429  -5.5249  -5.4845  -5.4647
    -5.4317  -5.4128  -5.3790  -5.3232  -5.3072  -5.2770  -5.2717  -5.0750
    -5.0584  -5.0106  -4.9961  -4.9467  -4.7351  -4.7315  -4.5617  -4.5029
    -4.4387  -4.3656  -4.3342  -4.2721  -4.2002  -4.1564  -4.1415  -4.1181
    -4.0949  -4.0600  -4.0358  -3.9915  -3.9789  -3.9103  -3.9002  -3.8916
    -3.6488  -3.5799  -3.5276  -3.4952  -3.4701  -3.4540  -3.4395  -3.3694
    -3.3608  -3.3067  -3.2898  -3.2726  -3.2523  -3.1999  -3.1884  -3.1481
    -3.0732  -2.9669  -2.9437  -2.9106  -2.8126  -2.7870  -2.7630  -2.7375
    -2.7143  -2.7019  -2.6892  -2.6796  -2.6611  -2.6334  -2.5794  -2.5372
    -2.4918  -2.4751  -2.4599  -2.4252  -2.3532  -2.2996  -2.1770  -2.1639
    -2.1122  -2.0642  -2.0118  -1.9903  -1.9630  -1.9525  -1.9220  -1.8979
    -1.8726  -1.8531  -1.8296  -1.8089  -1.7916  -1.7627  -1.7379  -1.7197
    -1.7018  -1.6915  -1.6719  -1.6520  -1.6422  -1.5974  -1.5638  -1.5424
    -1.5128  -1.4938  -1.4871  -1.4296  -1.4212  -1.3569  -1.3418  -1.3210
    -1.3040  -1.2705  -1.2426  -1.2121  -1.1439  -1.0701  -1.0340  -0.9914
    -0.8923  -0.7676  -0.7497  -0.7297  -0.5767  -0.5613  -0.5406  -0.5258
    -0.5093  -0.5004  -0.4041  -0.3740  -0.3494  -0.2400  -0.1638  -0.1360
     0.2003   1.3314   1.6821

     occupation numbers 
     1.0000   1.0000   1.0000   1.0000   1.0000   1.0000   1.0000   1.0000
     1.0000   1.0000   1.0000   1.0000   1.0000   1.0000   1.0000   1.0000
     1.0000   1.0000   1.0000   1.0000   1.0000   1.0000   1.0000   1.0000
     1.0000   1.0000   1.0000   1.0000   1.0000   1.0000   1.0000   1.0000
     1.0000   1.0000   1.0000   1.0000   1.0000   1.0000   1.0000   1.0000
     1.0000   1.0000   1.0000   1.0000   1.0000   1.0000   1.0000   1.0000
     1.0000   1.0000   1.0000   1.0000   1.0000   1.0000   1.0000   1.0000
     1.0000   1.0000   1.0000   1.0000   1.0000   1.0000   1.0000   1.0000
     1.0000   1.0000   1.0000   1.0000   1.0000   1.0000   1.0000   1.0000
     1.0000   1.0000   1.0000   1.0000   1.0000   1.0000   1.0000   1.0000
     1.0000   1.0000   1.0000   1.0000   1.0000   1.0000   1.0000   1.0000
     1.0000   1.0000   1.0000   1.0000   1.0000   1.0000   1.0000   1.0000
     1.0000   1.0000   1.0000   1.0000   1.0000   1.0000   1.0000   1.0000
     1.0000   1.0000   1.0000   1.0000   1.0000   1.0000   1.0000   1.0000
     1.0000   1.0000   1.0000   1.0000   1.0000   1.0000   1.0000   1.0000
     1.0000   1.0000   1.0000   1.0000   1.0000   1.0000   1.0000   1.0000
     1.0000   1.0000   1.0000   1.0000   1.0000   1.0000   1.0000   1.0000
     1.0000   1.0000   1.0000   1.0000   1.0000   1.0000   1.0000   1.0000
     1.0000   1.0000   1.0000   1.0000   1.0000   1.0000   1.0000   1.0000
     1.0000   1.0000   1.0000   1.0000   1.0000   1.0000   1.0000   1.0000
     1.0000   1.0000   1.0000   1.0000   1.0000   1.0000   1.0000   1.0000
     1.0000   1.0000   1.0000   1.0000   1.0000   1.0000   1.0000   1.0000
     1.0000   1.0000   1.0000   1.0000   1.0000   1.0000   1.0000   1.0000
     1.0000   1.0000   1.0000   1.0000   1.0000   1.0000   1.0000   1.0000
     1.0000   1.0000   1.0000   1.0000   1.0000   1.0000   1.0000   1.0000
     1.0000   1.0000   1.0000   1.0000   1.0000   1.0000   1.0000   1.0000
     1.0000   1.0000   1.0000   1.0000   1.0000   1.0000   1.0000   1.0000
     1.0000   1.0000   1.0000   1.0000   1.0000   1.0000   1.0000   1.0000
     1.0000   1.0000   1.0000   1.0000   1.0000   1.0000   1.0000   1.0000
     1.0000   1.0000   1.0000   1.0000   1.0000   1.0000   1.0000   1.0000
     1.0000   1.0000   0.0000

          k = 0.2000 0.1155 0.0000 (112171 PWs)   bands (ev):

   -73.8130 -73.8088 -73.8056 -73.8038 -73.8015 -73.8006 -73.7977 -73.7952
   -73.7929 -73.7881 -73.7870 -73.7854 -73.7813 -73.7404 -73.7308 -73.7278
   -38.2106 -38.2084 -38.2055 -38.1624 -38.1574 -38.1545 -38.1489 -38.1383
   -38.1316 -38.0951 -38.0713 -38.0687 -38.0456 -38.0407 -38.0380 -38.0274
   -38.0219 -38.0196 -38.0179 -38.0163 -38.0116 -38.0088 -38.0068 -38.0043
   -37.9988 -37.9934 -37.9925 -37.9891 -37.9871 -37.9861 -37.9849 -37.9818
   -37.9784 -37.9754 -37.9536 -37.9526 -37.9489 -37.9444 -37.9347 -37.9269
   -37.9227 -37.9126 -37.9096 -37.9026 -37.8984 -37.8888 -37.8647 -37.8570
   -21.5187 -15.4369 -14.5523 -13.9714 -13.7963 -13.7851 -13.4735 -13.4717
   -13.3206 -12.9629 -12.7863 -12.7514 -12.6871 -12.6796 -12.6544 -12.5827
   -12.5617 -12.5160 -12.4906 -12.4771 -12.4647 -12.4315 -12.4192 -12.2993
   -12.2908 -12.2612 -12.2442 -12.2053 -12.1892 -12.1697 -12.1676 -12.1458
   -12.0896 -12.0806  -7.9219  -7.5861  -6.2720  -6.2599  -6.2403  -6.2254
    -6.1599  -5.6599  -5.6365  -5.6150  -5.5428  -5.5300  -5.4835  -5.4663
    -5.4361  -5.4179  -5.3660  -5.3226  -5.3101  -5.2774  -5.2704  -5.0723
    -5.0654  -5.0089  -4.9994  -4.9409  -4.7364  -4.7318  -4.5555  -4.5028
    -4.4335  -4.3864  -4.3336  -4.2666  -4.1991  -4.1571  -4.1437  -4.1186
    -4.0944  -4.0509  -4.0353  -3.9982  -3.9780  -3.9076  -3.9039  -3.8939
    -3.6411  -3.5610  -3.5427  -3.5010  -3.4613  -3.4516  -3.4344  -3.3765
    -3.3667  -3.3035  -3.2941  -3.2769  -3.2437  -3.2060  -3.1913  -3.1419
    -3.0815  -2.9804  -2.9336  -2.8993  -2.8095  -2.7889  -2.7680  -2.7392
    -2.7259  -2.7023  -2.6909  -2.6801  -2.6472  -2.6208  -2.5726  -2.5408
    -2.5163  -2.4814  -2.4627  -2.4127  -2.3497  -2.2924  -2.1876  -2.1623
    -2.1063  -2.0649  -2.0097  -1.9819  -1.9572  -1.9453  -1.9137  -1.8996
    -1.8920  -1.8656  -1.8275  -1.8114  -1.7948  -1.7646  -1.7412  -1.7279
    -1.7015  -1.6829  -1.6694  -1.6458  -1.6269  -1.6083  -1.5826  -1.5300
    -1.5243  -1.4954  -1.4468  -1.4368  -1.4174  -1.3922  -1.3441  -1.3043
    -1.3000  -1.2889  -1.2376  -1.1959  -1.1506  -1.0502  -1.0354  -1.0075
    -0.8897  -0.7579  -0.7484  -0.7437  -0.5875  -0.5523  -0.5403  -0.5252
    -0.5120  -0.5046  -0.3999  -0.3754  -0.3444  -0.2409  -0.1598  -0.1397
     0.2009   1.3263   1.6885

     occupation numbers 
     1.0000   1.0000   1.0000   1.0000   1.0000   1.0000   1.0000   1.0000
     1.0000   1.0000   1.0000   1.0000   1.0000   1.0000   1.0000   1.0000
     1.0000   1.0000   1.0000   1.0000   1.0000   1.0000   1.0000   1.0000
     1.0000   1.0000   1.0000   1.0000   1.0000   1.0000   1.0000   1.0000
     1.0000   1.0000   1.0000   1.0000   1.0000   1.0000   1.0000   1.0000
     1.0000   1.0000   1.0000   1.0000   1.0000   1.0000   1.0000   1.0000
     1.0000   1.0000   1.0000   1.0000   1.0000   1.0000   1.0000   1.0000
     1.0000   1.0000   1.0000   1.0000   1.0000   1.0000   1.0000   1.0000
     1.0000   1.0000   1.0000   1.0000   1.0000   1.0000   1.0000   1.0000
     1.0000   1.0000   1.0000   1.0000   1.0000   1.0000   1.0000   1.0000
     1.0000   1.0000   1.0000   1.0000   1.0000   1.0000   1.0000   1.0000
     1.0000   1.0000   1.0000   1.0000   1.0000   1.0000   1.0000   1.0000
     1.0000   1.0000   1.0000   1.0000   1.0000   1.0000   1.0000   1.0000
     1.0000   1.0000   1.0000   1.0000   1.0000   1.0000   1.0000   1.0000
     1.0000   1.0000   1.0000   1.0000   1.0000   1.0000   1.0000   1.0000
     1.0000   1.0000   1.0000   1.0000   1.0000   1.0000   1.0000   1.0000
     1.0000   1.0000   1.0000   1.0000   1.0000   1.0000   1.0000   1.0000
     1.0000   1.0000   1.0000   1.0000   1.0000   1.0000   1.0000   1.0000
     1.0000   1.0000   1.0000   1.0000   1.0000   1.0000   1.0000   1.0000
     1.0000   1.0000   1.0000   1.0000   1.0000   1.0000   1.0000   1.0000
     1.0000   1.0000   1.0000   1.0000   1.0000   1.0000   1.0000   1.0000
     1.0000   1.0000   1.0000   1.0000   1.0000   1.0000   1.0000   1.0000
     1.0000   1.0000   1.0000   1.0000   1.0000   1.0000   1.0000   1.0000
     1.0000   1.0000   1.0000   1.0000   1.0000   1.0000   1.0000   1.0000
     1.0000   1.0000   1.0000   1.0000   1.0000   1.0000   1.0000   1.0000
     1.0000   1.0000   1.0000   1.0000   1.0000   1.0000   1.0000   1.0000
     1.0000   1.0000   1.0000   1.0000   1.0000   1.0000   1.0000   1.0000
     1.0000   1.0000   1.0000   1.0000   1.0000   1.0000   1.0000   1.0000
     1.0000   1.0000   1.0000   1.0000   1.0000   1.0000   1.0000   1.0000
     1.0000   1.0000   1.0000   1.0000   1.0000   1.0000   1.0000   1.0000
     1.0000   1.0000   0.0000

          k =-0.4000 0.2309 0.0000 (112236 PWs)   bands (ev):

   -73.8128 -73.8089 -73.8058 -73.8039 -73.8011 -73.8008 -73.7974 -73.7951
   -73.7930 -73.7882 -73.7870 -73.7853 -73.7813 -73.7404 -73.7308 -73.7278
   -38.1994 -38.1968 -38.1834 -38.1782 -38.1715 -38.1558 -38.1537 -38.1376
   -38.1222 -38.1161 -38.0964 -38.0926 -38.0558 -38.0496 -38.0418 -38.0332
   -38.0229 -38.0190 -38.0063 -38.0060 -38.0042 -38.0022 -37.9983 -37.9953
   -37.9929 -37.9901 -37.9892 -37.9875 -37.9841 -37.9805 -37.9754 -37.9732
   -37.9664 -37.9590 -37.9564 -37.9502 -37.9438 -37.9410 -37.9385 -37.9352
   -37.9277 -37.9220 -37.9160 -37.9082 -37.8988 -37.8840 -37.8764 -37.8621
   -21.5187 -15.4369 -14.4307 -14.2284 -13.8643 -13.8541 -13.2443 -13.2391
   -13.0187 -12.9926 -12.9709 -12.9067 -12.8290 -12.7277 -12.7000 -12.6816
   -12.5292 -12.5031 -12.4573 -12.4492 -12.4271 -12.4216 -12.3827 -12.3598
   -12.3493 -12.2792 -12.2178 -12.1958 -12.1731 -12.1581 -12.1521 -12.1492
   -12.0534 -12.0373  -7.9219  -7.5861  -6.1716  -6.1236  -6.1016  -6.0834
    -6.0170  -5.8700  -5.8509  -5.8316  -5.7055  -5.5241  -5.5052  -5.4798
    -5.4487  -5.4410  -5.4331  -5.3843  -5.3750  -5.3119  -5.3043  -5.0744
    -5.0525  -5.0191  -5.0023  -4.7970  -4.5983  -4.5435  -4.4709  -4.4351
    -4.4073  -4.3673  -4.3473  -4.3036  -4.2398  -4.2164  -4.1910  -4.1558
    -4.1173  -4.1087  -4.0968  -4.0709  -4.0638  -4.0475  -4.0367  -3.6714
    -3.5617  -3.5142  -3.4682  -3.4493  -3.4191  -3.3896  -3.3513  -3.3120
    -3.2834  -3.2742  -3.2544  -3.2370  -3.2088  -3.1908  -3.1403  -3.1108
    -3.0619  -3.0315  -3.0052  -2.9438  -2.9249  -2.8932  -2.8186  -2.7581
    -2.7133  -2.6954  -2.6445  -2.6218  -2.5879  -2.5731  -2.5434  -2.4745
    -2.4223  -2.4165  -2.3868  -2.3248  -2.2736  -2.2458  -2.2373  -2.1599
    -2.1138  -2.0921  -2.0466  -2.0239  -2.0047  -1.9859  -1.9495  -1.9155
    -1.9021  -1.8890  -1.8789  -1.8609  -1.8524  -1.8445  -1.8332  -1.8144
    -1.7788  -1.7481  -1.7094  -1.6821  -1.6796  -1.6540  -1.6396  -1.6056
    -1.5792  -1.5470  -1.4911  -1.4616  -1.4406  -1.3466  -1.3184  -1.2892
    -1.2574  -1.2058  -1.1671  -1.1216  -1.1110  -1.0916  -1.0652  -0.9791
    -0.9530  -0.8684  -0.7268  -0.7105  -0.6325  -0.6153  -0.4953  -0.4472
    -0.4397  -0.4178  -0.3970  -0.3667  -0.2846  -0.0908   0.0088   0.0400
     0.1507   1.3778   1.6897

     occupation numbers 
     1.0000   1.0000   1.0000   1.0000   1.0000   1.0000   1.0000   1.0000
     1.0000   1.0000   1.0000   1.0000   1.0000   1.0000   1.0000   1.0000
     1.0000   1.0000   1.0000   1.0000   1.0000   1.0000   1.0000   1.0000
     1.0000   1.0000   1.0000   1.0000   1.0000   1.0000   1.0000   1.0000
     1.0000   1.0000   1.0000   1.0000   1.0000   1.0000   1.0000   1.0000
     1.0000   1.0000   1.0000   1.0000   1.0000   1.0000   1.0000   1.0000
     1.0000   1.0000   1.0000   1.0000   1.0000   1.0000   1.0000   1.0000
     1.0000   1.0000   1.0000   1.0000   1.0000   1.0000   1.0000   1.0000
     1.0000   1.0000   1.0000   1.0000   1.0000   1.0000   1.0000   1.0000
     1.0000   1.0000   1.0000   1.0000   1.0000   1.0000   1.0000   1.0000
     1.0000   1.0000   1.0000   1.0000   1.0000   1.0000   1.0000   1.0000
     1.0000   1.0000   1.0000   1.0000   1.0000   1.0000   1.0000   1.0000
     1.0000   1.0000   1.0000   1.0000   1.0000   1.0000   1.0000   1.0000
     1.0000   1.0000   1.0000   1.0000   1.0000   1.0000   1.0000   1.0000
     1.0000   1.0000   1.0000   1.0000   1.0000   1.0000   1.0000   1.0000
     1.0000   1.0000   1.0000   1.0000   1.0000   1.0000   1.0000   1.0000
     1.0000   1.0000   1.0000   1.0000   1.0000   1.0000   1.0000   1.0000
     1.0000   1.0000   1.0000   1.0000   1.0000   1.0000   1.0000   1.0000
     1.0000   1.0000   1.0000   1.0000   1.0000   1.0000   1.0000   1.0000
     1.0000   1.0000   1.0000   1.0000   1.0000   1.0000   1.0000   1.0000
     1.0000   1.0000   1.0000   1.0000   1.0000   1.0000   1.0000   1.0000
     1.0000   1.0000   1.0000   1.0000   1.0000   1.0000   1.0000   1.0000
     1.0000   1.0000   1.0000   1.0000   1.0000   1.0000   1.0000   1.0000
     1.0000   1.0000   1.0000   1.0000   1.0000   1.0000   1.0000   1.0000
     1.0000   1.0000   1.0000   1.0000   1.0000   1.0000   1.0000   1.0000
     1.0000   1.0000   1.0000   1.0000   1.0000   1.0000   1.0000   1.0000
     1.0000   1.0000   1.0000   1.0000   1.0000   1.0000   1.0000   1.0000
     1.0000   1.0000   1.0000   1.0000   1.0000   1.0000   1.0000   1.0000
     1.0000   1.0000   1.0000   1.0000   1.0000   1.0000   1.0000   1.0000
     1.0000   1.0000   1.0000   1.0000   1.0000   1.0000   1.0000   1.0000
     1.0000   1.0000   0.0000

          k = 0.4000 0.2309 0.0000 (112236 PWs)   bands (ev):

   -73.8127 -73.8091 -73.8057 -73.8038 -73.8013 -73.8003 -73.7979 -73.7952
   -73.7928 -73.7882 -73.7869 -73.7854 -73.7813 -73.7404 -73.7308 -73.7278
   -38.1981 -38.1976 -38.1839 -38.1796 -38.1699 -38.1552 -38.1540 -38.1384
   -38.1216 -38.1159 -38.0974 -38.0928 -38.0544 -38.0509 -38.0417 -38.0335
   -38.0234 -38.0173 -38.0068 -38.0059 -38.0047 -38.0024 -37.9984 -37.9958
   -37.9911 -37.9906 -37.9888 -37.9865 -37.9851 -37.9808 -37.9754 -37.9729
   -37.9680 -37.9584 -37.9566 -37.9498 -37.9428 -37.9412 -37.9388 -37.9343
   -37.9265 -37.9229 -37.9168 -37.9091 -37.8968 -37.8850 -37.8798 -37.8596
   -21.5187 -15.4369 -14.4306 -14.2286 -13.8638 -13.8545 -13.2439 -13.2403
   -13.0157 -12.9922 -12.9730 -12.9059 -12.8296 -12.7254 -12.7019 -12.6825
   -12.5368 -12.4954 -12.4614 -12.4465 -12.4261 -12.4216 -12.3833 -12.3584
   -12.3470 -12.2790 -12.2248 -12.1938 -12.1748 -12.1571 -12.1523 -12.1466
   -12.0505 -12.0398  -7.9219  -7.5861  -6.1715  -6.1143  -6.1052  -6.0820
    -6.0297  -5.8628  -5.8510  -5.8285  -5.7101  -5.5258  -5.5044  -5.4826
    -5.4440  -5.4428  -5.4349  -5.3839  -5.3768  -5.3095  -5.3031  -5.0672
    -5.0638  -5.0174  -5.0066  -4.7700  -4.6077  -4.5521  -4.4774  -4.4451
    -4.4135  -4.3665  -4.3435  -4.2999  -4.2341  -4.2207  -4.1867  -4.1530
    -4.1208  -4.1110  -4.0978  -4.0723  -4.0592  -4.0453  -4.0379  -3.6583
    -3.5558  -3.5151  -3.4571  -3.4434  -3.4230  -3.3934  -3.3535  -3.3202
    -3.2858  -3.2702  -3.2486  -3.2311  -3.2137  -3.1980  -3.1300  -3.1117
    -3.0709  -3.0514  -3.0117  -2.9448  -2.9228  -2.8973  -2.8272  -2.7585
    -2.7109  -2.6778  -2.6338  -2.6111  -2.6075  -2.5917  -2.5015  -2.4853
    -2.4479  -2.4236  -2.3653  -2.3243  -2.2677  -2.2522  -2.2370  -2.1407
    -2.1106  -2.0983  -2.0318  -2.0040  -1.9953  -1.9765  -1.9670  -1.9512
    -1.9248  -1.8942  -1.8799  -1.8591  -1.8462  -1.8407  -1.8325  -1.8100
    -1.7948  -1.7435  -1.7151  -1.6956  -1.6832  -1.6324  -1.6199  -1.6134
    -1.5901  -1.5432  -1.5005  -1.4876  -1.4060  -1.3544  -1.3019  -1.2829
    -1.2455  -1.2265  -1.1845  -1.1292  -1.1125  -1.0538  -1.0400  -0.9890
    -0.9652  -0.8763  -0.7230  -0.7169  -0.6320  -0.6216  -0.5031  -0.4508
    -0.4418  -0.4152  -0.3994  -0.3553  -0.2791  -0.0916   0.0108   0.0361
     0.1532   1.3619   1.7098

     occupation numbers 
     1.0000   1.0000   1.0000   1.0000   1.0000   1.0000   1.0000   1.0000
     1.0000   1.0000   1.0000   1.0000   1.0000   1.0000   1.0000   1.0000
     1.0000   1.0000   1.0000   1.0000   1.0000   1.0000   1.0000   1.0000
     1.0000   1.0000   1.0000   1.0000   1.0000   1.0000   1.0000   1.0000
     1.0000   1.0000   1.0000   1.0000   1.0000   1.0000   1.0000   1.0000
     1.0000   1.0000   1.0000   1.0000   1.0000   1.0000   1.0000   1.0000
     1.0000   1.0000   1.0000   1.0000   1.0000   1.0000   1.0000   1.0000
     1.0000   1.0000   1.0000   1.0000   1.0000   1.0000   1.0000   1.0000
     1.0000   1.0000   1.0000   1.0000   1.0000   1.0000   1.0000   1.0000
     1.0000   1.0000   1.0000   1.0000   1.0000   1.0000   1.0000   1.0000
     1.0000   1.0000   1.0000   1.0000   1.0000   1.0000   1.0000   1.0000
     1.0000   1.0000   1.0000   1.0000   1.0000   1.0000   1.0000   1.0000
     1.0000   1.0000   1.0000   1.0000   1.0000   1.0000   1.0000   1.0000
     1.0000   1.0000   1.0000   1.0000   1.0000   1.0000   1.0000   1.0000
     1.0000   1.0000   1.0000   1.0000   1.0000   1.0000   1.0000   1.0000
     1.0000   1.0000   1.0000   1.0000   1.0000   1.0000   1.0000   1.0000
     1.0000   1.0000   1.0000   1.0000   1.0000   1.0000   1.0000   1.0000
     1.0000   1.0000   1.0000   1.0000   1.0000   1.0000   1.0000   1.0000
     1.0000   1.0000   1.0000   1.0000   1.0000   1.0000   1.0000   1.0000
     1.0000   1.0000   1.0000   1.0000   1.0000   1.0000   1.0000   1.0000
     1.0000   1.0000   1.0000   1.0000   1.0000   1.0000   1.0000   1.0000
     1.0000   1.0000   1.0000   1.0000   1.0000   1.0000   1.0000   1.0000
     1.0000   1.0000   1.0000   1.0000   1.0000   1.0000   1.0000   1.0000
     1.0000   1.0000   1.0000   1.0000   1.0000   1.0000   1.0000   1.0000
     1.0000   1.0000   1.0000   1.0000   1.0000   1.0000   1.0000   1.0000
     1.0000   1.0000   1.0000   1.0000   1.0000   1.0000   1.0000   1.0000
     1.0000   1.0000   1.0000   1.0000   1.0000   1.0000   1.0000   1.0000
     1.0000   1.0000   1.0000   1.0000   1.0000   1.0000   1.0000   1.0000
     1.0000   1.0000   1.0000   1.0000   1.0000   1.0000   1.0000   1.0000
     1.0000   1.0000   1.0000   1.0000   1.0000   1.0000   1.0000   1.0000
     1.0000   1.0000   0.0000

          k =-0.2000 0.3464 0.0000 (112231 PWs)   bands (ev):

   -73.8128 -73.8088 -73.8060 -73.8037 -73.8016 -73.8005 -73.7974 -73.7951
   -73.7932 -73.7881 -73.7870 -73.7854 -73.7813 -73.7404 -73.7308 -73.7278
   -38.2044 -38.1958 -38.1932 -38.1712 -38.1661 -38.1580 -38.1476 -38.1409
   -38.1251 -38.1169 -38.1014 -38.0686 -38.0536 -38.0472 -38.0426 -38.0306
   -38.0263 -38.0211 -38.0158 -38.0147 -38.0096 -38.0035 -37.9979 -37.9955
   -37.9922 -37.9876 -37.9859 -37.9834 -37.9817 -37.9775 -37.9755 -37.9743
   -37.9684 -37.9665 -37.9563 -37.9509 -37.9481 -37.9458 -37.9363 -37.9330
   -37.9258 -37.9192 -37.9161 -37.9105 -37.8936 -37.8871 -37.8716 -37.8623
   -21.5187 -15.4369 -14.4704 -14.0968 -14.0566 -13.5691 -13.5524 -13.1688
   -13.1159 -13.0044 -12.9303 -12.8031 -12.7864 -12.7012 -12.6695 -12.6142
   -12.5805 -12.5734 -12.5653 -12.4504 -12.4225 -12.3891 -12.3753 -12.3063
   -12.2886 -12.2701 -12.2478 -12.2235 -12.2202 -12.1532 -12.1465 -12.1051
   -12.0930 -12.0326  -7.9219  -7.5861  -6.1850  -6.1713  -6.1330  -6.1162
    -6.0973  -5.7565  -5.7291  -5.7114  -5.6927  -5.6218  -5.5975  -5.5558
    -5.5022  -5.4712  -5.3504  -5.3247  -5.2941  -5.2607  -5.2363  -5.2141
    -5.0924  -4.9075  -4.8887  -4.7901  -4.7522  -4.5965  -4.5032  -4.4372
    -4.3896  -4.3388  -4.3289  -4.3031  -4.2764  -4.2546  -4.2394  -4.2206
    -4.1588  -4.1244  -4.1060  -4.0891  -4.0498  -3.7638  -3.7331  -3.7222
    -3.7027  -3.6852  -3.5972  -3.4985  -3.4131  -3.3747  -3.3636  -3.2993
    -3.2787  -3.2351  -3.2222  -3.1962  -3.1583  -3.1425  -3.1098  -3.0779
    -3.0513  -3.0003  -2.9549  -2.9373  -2.9224  -2.9177  -2.9069  -2.8931
    -2.7740  -2.7152  -2.6851  -2.6637  -2.5961  -2.5416  -2.5110  -2.4665
    -2.4504  -2.3982  -2.3788  -2.3545  -2.3109  -2.2066  -2.1885  -2.1444
    -2.1227  -2.1155  -2.0971  -2.0653  -2.0209  -1.9760  -1.9637  -1.9268
    -1.9012  -1.8888  -1.8573  -1.8416  -1.8152  -1.8085  -1.7856  -1.7673
    -1.7341  -1.7026  -1.6876  -1.6665  -1.6396  -1.6234  -1.5778  -1.5756
    -1.5534  -1.5421  -1.5171  -1.4919  -1.4243  -1.3876  -1.3766  -1.3368
    -1.2732  -1.2372  -1.1863  -1.1666  -1.1488  -1.1053  -1.0353  -0.9784
    -0.8697  -0.8257  -0.6805  -0.6637  -0.6275  -0.6173  -0.6019  -0.5324
    -0.5283  -0.4074  -0.3768  -0.2506  -0.1977  -0.1892  -0.1435   0.0818
     0.1654   1.3394   1.7187

     occupation numbers 
     1.0000   1.0000   1.0000   1.0000   1.0000   1.0000   1.0000   1.0000
     1.0000   1.0000   1.0000   1.0000   1.0000   1.0000   1.0000   1.0000
     1.0000   1.0000   1.0000   1.0000   1.0000   1.0000   1.0000   1.0000
     1.0000   1.0000   1.0000   1.0000   1.0000   1.0000   1.0000   1.0000
     1.0000   1.0000   1.0000   1.0000   1.0000   1.0000   1.0000   1.0000
     1.0000   1.0000   1.0000   1.0000   1.0000   1.0000   1.0000   1.0000
     1.0000   1.0000   1.0000   1.0000   1.0000   1.0000   1.0000   1.0000
     1.0000   1.0000   1.0000   1.0000   1.0000   1.0000   1.0000   1.0000
     1.0000   1.0000   1.0000   1.0000   1.0000   1.0000   1.0000   1.0000
     1.0000   1.0000   1.0000   1.0000   1.0000   1.0000   1.0000   1.0000
     1.0000   1.0000   1.0000   1.0000   1.0000   1.0000   1.0000   1.0000
     1.0000   1.0000   1.0000   1.0000   1.0000   1.0000   1.0000   1.0000
     1.0000   1.0000   1.0000   1.0000   1.0000   1.0000   1.0000   1.0000
     1.0000   1.0000   1.0000   1.0000   1.0000   1.0000   1.0000   1.0000
     1.0000   1.0000   1.0000   1.0000   1.0000   1.0000   1.0000   1.0000
     1.0000   1.0000   1.0000   1.0000   1.0000   1.0000   1.0000   1.0000
     1.0000   1.0000   1.0000   1.0000   1.0000   1.0000   1.0000   1.0000
     1.0000   1.0000   1.0000   1.0000   1.0000   1.0000   1.0000   1.0000
     1.0000   1.0000   1.0000   1.0000   1.0000   1.0000   1.0000   1.0000
     1.0000   1.0000   1.0000   1.0000   1.0000   1.0000   1.0000   1.0000
     1.0000   1.0000   1.0000   1.0000   1.0000   1.0000   1.0000   1.0000
     1.0000   1.0000   1.0000   1.0000   1.0000   1.0000   1.0000   1.0000
     1.0000   1.0000   1.0000   1.0000   1.0000   1.0000   1.0000   1.0000
     1.0000   1.0000   1.0000   1.0000   1.0000   1.0000   1.0000   1.0000
     1.0000   1.0000   1.0000   1.0000   1.0000   1.0000   1.0000   1.0000
     1.0000   1.0000   1.0000   1.0000   1.0000   1.0000   1.0000   1.0000
     1.0000   1.0000   1.0000   1.0000   1.0000   1.0000   1.0000   1.0000
     1.0000   1.0000   1.0000   1.0000   1.0000   1.0000   1.0000   1.0000
     1.0000   1.0000   1.0000   1.0000   1.0000   1.0000   1.0000   1.0000
     1.0000   1.0000   1.0000   1.0000   1.0000   1.0000   1.0000   1.0000
     1.0000   1.0000   0.0000

          k = 0.4000-0.0000 0.0000 (112231 PWs)   bands (ev):

   -73.8128 -73.8090 -73.8058 -73.8039 -73.8012 -73.8007 -73.7977 -73.7952
   -73.7929 -73.7882 -73.7870 -73.7854 -73.7813 -73.7404 -73.7308 -73.7278
   -38.2045 -38.1954 -38.1937 -38.1709 -38.1672 -38.1578 -38.1474 -38.1399
   -38.1238 -38.1154 -38.1048 -38.0696 -38.0525 -38.0468 -38.0425 -38.0315
   -38.0250 -38.0217 -38.0167 -38.0147 -38.0096 -38.0046 -37.9982 -37.9938
   -37.9916 -37.9880 -37.9855 -37.9841 -37.9811 -37.9785 -37.9754 -37.9745
   -37.9678 -37.9647 -37.9569 -37.9515 -37.9490 -37.9448 -37.9363 -37.9344
   -37.9240 -37.9192 -37.9161 -37.9089 -37.8949 -37.8885 -37.8725 -37.8608
   -21.5187 -15.4369 -14.4705 -14.0946 -14.0589 -13.5626 -13.5595 -13.1649
   -13.1182 -13.0081 -12.9248 -12.8003 -12.7893 -12.7053 -12.6772 -12.5987
   -12.5949 -12.5707 -12.5563 -12.4527 -12.4189 -12.4075 -12.3608 -12.3045
   -12.2890 -12.2669 -12.2500 -12.2321 -12.2172 -12.1539 -12.1437 -12.1035
   -12.0940 -12.0330  -7.9219  -7.5861  -6.1777  -6.1728  -6.1387  -6.1117
    -6.1033  -5.7491  -5.7342  -5.7155  -5.6804  -5.6292  -5.6030  -5.5546
    -5.5000  -5.4686  -5.3467  -5.3300  -5.2853  -5.2666  -5.2385  -5.2231
    -5.0917  -4.8949  -4.8820  -4.8036  -4.7516  -4.5597  -4.5270  -4.4522
    -4.4021  -4.3408  -4.3328  -4.3062  -4.2712  -4.2592  -4.2370  -4.2040
    -4.1701  -4.1130  -4.1048  -4.0854  -4.0493  -3.7542  -3.7277  -3.7211
    -3.7012  -3.6918  -3.6078  -3.4775  -3.4222  -3.3905  -3.3641  -3.3101
    -3.2750  -3.2388  -3.2262  -3.1958  -3.1677  -3.1376  -3.1175  -3.0740
    -3.0310  -2.9842  -2.9611  -2.9424  -2.9339  -2.9113  -2.8962  -2.8874
    -2.7617  -2.7316  -2.6875  -2.6374  -2.6086  -2.5626  -2.5243  -2.4602
    -2.4534  -2.4085  -2.3774  -2.3338  -2.3103  -2.2131  -2.1725  -2.1440
    -2.1207  -2.1162  -2.0951  -2.0824  -1.9932  -1.9765  -1.9631  -1.9305
    -1.9148  -1.8894  -1.8668  -1.8536  -1.8367  -1.8121  -1.7780  -1.7560
    -1.7296  -1.7010  -1.6801  -1.6639  -1.6429  -1.6158  -1.5854  -1.5657
    -1.5464  -1.5373  -1.5174  -1.4898  -1.4391  -1.4013  -1.3568  -1.3286
    -1.2756  -1.2513  -1.1921  -1.1701  -1.1431  -1.0948  -1.0363  -0.9775
    -0.8593  -0.8399  -0.6749  -0.6662  -0.6275  -0.6138  -0.6058  -0.5318
    -0.5272  -0.4256  -0.3702  -0.2434  -0.1986  -0.1844  -0.1465   0.0794
     0.1650   1.3699   1.6858

     occupation numbers 
     1.0000   1.0000   1.0000   1.0000   1.0000   1.0000   1.0000   1.0000
     1.0000   1.0000   1.0000   1.0000   1.0000   1.0000   1.0000   1.0000
     1.0000   1.0000   1.0000   1.0000   1.0000   1.0000   1.0000   1.0000
     1.0000   1.0000   1.0000   1.0000   1.0000   1.0000   1.0000   1.0000
     1.0000   1.0000   1.0000   1.0000   1.0000   1.0000   1.0000   1.0000
     1.0000   1.0000   1.0000   1.0000   1.0000   1.0000   1.0000   1.0000
     1.0000   1.0000   1.0000   1.0000   1.0000   1.0000   1.0000   1.0000
     1.0000   1.0000   1.0000   1.0000   1.0000   1.0000   1.0000   1.0000
     1.0000   1.0000   1.0000   1.0000   1.0000   1.0000   1.0000   1.0000
     1.0000   1.0000   1.0000   1.0000   1.0000   1.0000   1.0000   1.0000
     1.0000   1.0000   1.0000   1.0000   1.0000   1.0000   1.0000   1.0000
     1.0000   1.0000   1.0000   1.0000   1.0000   1.0000   1.0000   1.0000
     1.0000   1.0000   1.0000   1.0000   1.0000   1.0000   1.0000   1.0000
     1.0000   1.0000   1.0000   1.0000   1.0000   1.0000   1.0000   1.0000
     1.0000   1.0000   1.0000   1.0000   1.0000   1.0000   1.0000   1.0000
     1.0000   1.0000   1.0000   1.0000   1.0000   1.0000   1.0000   1.0000
     1.0000   1.0000   1.0000   1.0000   1.0000   1.0000   1.0000   1.0000
     1.0000   1.0000   1.0000   1.0000   1.0000   1.0000   1.0000   1.0000
     1.0000   1.0000   1.0000   1.0000   1.0000   1.0000   1.0000   1.0000
     1.0000   1.0000   1.0000   1.0000   1.0000   1.0000   1.0000   1.0000
     1.0000   1.0000   1.0000   1.0000   1.0000   1.0000   1.0000   1.0000
     1.0000   1.0000   1.0000   1.0000   1.0000   1.0000   1.0000   1.0000
     1.0000   1.0000   1.0000   1.0000   1.0000   1.0000   1.0000   1.0000
     1.0000   1.0000   1.0000   1.0000   1.0000   1.0000   1.0000   1.0000
     1.0000   1.0000   1.0000   1.0000   1.0000   1.0000   1.0000   1.0000
     1.0000   1.0000   1.0000   1.0000   1.0000   1.0000   1.0000   1.0000
     1.0000   1.0000   1.0000   1.0000   1.0000   1.0000   1.0000   1.0000
     1.0000   1.0000   1.0000   1.0000   1.0000   1.0000   1.0000   1.0000
     1.0000   1.0000   1.0000   1.0000   1.0000   1.0000   1.0000   1.0000
     1.0000   1.0000   1.0000   1.0000   1.0000   1.0000   1.0000   1.0000
     1.0000   1.0000   0.0000

          k =-0.4000 0.4619 0.0000 (112237 PWs)   bands (ev):

   -73.8127 -73.8090 -73.8060 -73.8038 -73.8013 -73.8006 -73.7975 -73.7951
   -73.7930 -73.7882 -73.7870 -73.7854 -73.7813 -73.7404 -73.7308 -73.7278
   -38.1948 -38.1887 -38.1789 -38.1763 -38.1687 -38.1648 -38.1568 -38.1418
   -38.1381 -38.1219 -38.0855 -38.0824 -38.0764 -38.0435 -38.0400 -38.0343
   -38.0271 -38.0233 -38.0146 -38.0065 -38.0038 -37.9991 -37.9970 -37.9949
   -37.9930 -37.9918 -37.9884 -37.9839 -37.9806 -37.9753 -37.9680 -37.9647
   -37.9592 -37.9544 -37.9515 -37.9499 -37.9483 -37.9415 -37.9370 -37.9352
   -37.9295 -37.9229 -37.9185 -37.9151 -37.9044 -37.8859 -37.8732 -37.8654
   -21.5187 -15.4369 -14.3323 -14.2862 -14.1112 -13.5916 -13.2929 -13.2901
   -12.9542 -12.9437 -12.8812 -12.8526 -12.8234 -12.7979 -12.7926 -12.6597
   -12.6306 -12.5920 -12.4893 -12.4796 -12.3830 -12.3706 -12.3430 -12.3215
   -12.3068 -12.2949 -12.2570 -12.2315 -12.2263 -12.1299 -12.1170 -12.1113
   -12.0768 -12.0135  -7.9219  -7.5861  -6.1687  -6.0441  -6.0108  -5.9640
    -5.9087  -5.8847  -5.8714  -5.8529  -5.8040  -5.7395  -5.6806  -5.6198
    -5.6044  -5.5364  -5.3526  -5.2770  -5.2415  -5.2110  -5.1953  -5.1628
    -5.1516  -4.8473  -4.8266  -4.7362  -4.6149  -4.5790  -4.5372  -4.5163
    -4.4833  -4.4180  -4.3761  -4.3181  -4.3009  -4.2365  -4.2218  -4.2022
    -4.1876  -4.1580  -4.1162  -4.0895  -3.9504  -3.9424  -3.7831  -3.6605
    -3.6088  -3.5816  -3.4206  -3.3844  -3.3489  -3.3162  -3.2970  -3.2733
    -3.2681  -3.2597  -3.2360  -3.2245  -3.2143  -3.2063  -3.1386  -3.1148
    -3.0893  -3.0725  -3.0523  -3.0341  -2.9798  -2.9170  -2.8357  -2.7951
    -2.7281  -2.7003  -2.6836  -2.6599  -2.6033  -2.5770  -2.4828  -2.4025
    -2.3871  -2.3186  -2.3145  -2.3080  -2.2576  -2.1785  -2.1642  -2.1481
    -2.1270  -2.0817  -2.0669  -2.0383  -2.0161  -1.9627  -1.9494  -1.9334
    -1.9207  -1.9071  -1.8836  -1.8696  -1.8563  -1.8456  -1.8385  -1.8311
    -1.8044  -1.7832  -1.7508  -1.7180  -1.6895  -1.6784  -1.6535  -1.6373
    -1.6113  -1.5700  -1.5173  -1.4924  -1.4725  -1.4505  -1.4010  -1.2994
    -1.2648  -1.2244  -1.1570  -1.1076  -1.0848  -1.0643  -1.0316  -0.9502
    -0.8071  -0.7791  -0.6931  -0.6823  -0.6485  -0.6355  -0.5923  -0.5730
    -0.5563  -0.3909  -0.2705  -0.2657  -0.1674  -0.1112  -0.0686   0.1232
     0.1964   1.3776   1.7003

     occupation numbers 
     1.0000   1.0000   1.0000   1.0000   1.0000   1.0000   1.0000   1.0000
     1.0000   1.0000   1.0000   1.0000   1.0000   1.0000   1.0000   1.0000
     1.0000   1.0000   1.0000   1.0000   1.0000   1.0000   1.0000   1.0000
     1.0000   1.0000   1.0000   1.0000   1.0000   1.0000   1.0000   1.0000
     1.0000   1.0000   1.0000   1.0000   1.0000   1.0000   1.0000   1.0000
     1.0000   1.0000   1.0000   1.0000   1.0000   1.0000   1.0000   1.0000
     1.0000   1.0000   1.0000   1.0000   1.0000   1.0000   1.0000   1.0000
     1.0000   1.0000   1.0000   1.0000   1.0000   1.0000   1.0000   1.0000
     1.0000   1.0000   1.0000   1.0000   1.0000   1.0000   1.0000   1.0000
     1.0000   1.0000   1.0000   1.0000   1.0000   1.0000   1.0000   1.0000
     1.0000   1.0000   1.0000   1.0000   1.0000   1.0000   1.0000   1.0000
     1.0000   1.0000   1.0000   1.0000   1.0000   1.0000   1.0000   1.0000
     1.0000   1.0000   1.0000   1.0000   1.0000   1.0000   1.0000   1.0000
     1.0000   1.0000   1.0000   1.0000   1.0000   1.0000   1.0000   1.0000
     1.0000   1.0000   1.0000   1.0000   1.0000   1.0000   1.0000   1.0000
     1.0000   1.0000   1.0000   1.0000   1.0000   1.0000   1.0000   1.0000
     1.0000   1.0000   1.0000   1.0000   1.0000   1.0000   1.0000   1.0000
     1.0000   1.0000   1.0000   1.0000   1.0000   1.0000   1.0000   1.0000
     1.0000   1.0000   1.0000   1.0000   1.0000   1.0000   1.0000   1.0000
     1.0000   1.0000   1.0000   1.0000   1.0000   1.0000   1.0000   1.0000
     1.0000   1.0000   1.0000   1.0000   1.0000   1.0000   1.0000   1.0000
     1.0000   1.0000   1.0000   1.0000   1.0000   1.0000   1.0000   1.0000
     1.0000   1.0000   1.0000   1.0000   1.0000   1.0000   1.0000   1.0000
     1.0000   1.0000   1.0000   1.0000   1.0000   1.0000   1.0000   1.0000
     1.0000   1.0000   1.0000   1.0000   1.0000   1.0000   1.0000   1.0000
     1.0000   1.0000   1.0000   1.0000   1.0000   1.0000   1.0000   1.0000
     1.0000   1.0000   1.0000   1.0000   1.0000   1.0000   1.0000   1.0000
     1.0000   1.0000   1.0000   1.0000   1.0000   1.0000   1.0000   1.0000
     1.0000   1.0000   1.0000   1.0000   1.0000   1.0000   1.0000   1.0000
     1.0000   1.0000   1.0000   1.0000   1.0000   1.0000   1.0000   1.0000
     1.0000   1.0000   0.0000

          k = 0.6000 0.1155 0.0000 (112237 PWs)   bands (ev):

   -73.8127 -73.8091 -73.8059 -73.8038 -73.8013 -73.8003 -73.7977 -73.7952
   -73.7929 -73.7882 -73.7869 -73.7854 -73.7813 -73.7404 -73.7308 -73.7278
   -38.1938 -38.1895 -38.1797 -38.1765 -38.1681 -38.1644 -38.1566 -38.1419
   -38.1386 -38.1216 -38.0855 -38.0829 -38.0770 -38.0422 -38.0401 -38.0345
   -38.0269 -38.0237 -38.0136 -38.0070 -38.0044 -37.9987 -37.9974 -37.9955
   -37.9931 -37.9906 -37.9883 -37.9844 -37.9807 -37.9753 -37.9681 -37.9642
   -37.9605 -37.9542 -37.9514 -37.9501 -37.9476 -37.9421 -37.9366 -37.9339
   -37.9285 -37.9233 -37.9184 -37.9164 -37.9039 -37.8868 -37.8755 -37.8630
   -21.5187 -15.4369 -14.3318 -14.2868 -14.1111 -13.5916 -13.3003 -13.2826
   -12.9606 -12.9370 -12.8763 -12.8564 -12.8235 -12.7980 -12.7934 -12.6627
   -12.6292 -12.5903 -12.4994 -12.4692 -12.3898 -12.3668 -12.3392 -12.3178
   -12.3071 -12.2969 -12.2603 -12.2319 -12.2272 -12.1278 -12.1177 -12.1116
   -12.0763 -12.0138  -7.9219  -7.5861  -6.1687  -6.0407  -6.0074  -5.9620
    -5.9193  -5.9014  -5.8723  -5.8300  -5.8028  -5.7445  -5.6828  -5.6174
    -5.6067  -5.5328  -5.3510  -5.2742  -5.2500  -5.2181  -5.1921  -5.1658
    -5.1428  -4.8495  -4.8333  -4.6861  -4.6392  -4.6011  -4.5440  -4.5074
    -4.4837  -4.4282  -4.3758  -4.3155  -4.2935  -4.2368  -4.2270  -4.1935
    -4.1847  -4.1621  -4.1156  -4.0914  -3.9522  -3.9415  -3.7799  -3.6583
    -3.6106  -3.5731  -3.4217  -3.3620  -3.3525  -3.3241  -3.2897  -3.2803
    -3.2772  -3.2531  -3.2378  -3.2268  -3.2149  -3.1948  -3.1691  -3.1346
    -3.0802  -3.0714  -3.0484  -3.0127  -2.9838  -2.9286  -2.8319  -2.7946
    -2.7334  -2.7108  -2.6892  -2.6338  -2.6157  -2.5395  -2.4933  -2.4488
    -2.3829  -2.3250  -2.3097  -2.2871  -2.2382  -2.1902  -2.1663  -2.1346
    -2.1116  -2.0920  -2.0694  -2.0292  -2.0046  -1.9719  -1.9565  -1.9440
    -1.9243  -1.8947  -1.8905  -1.8732  -1.8629  -1.8539  -1.8464  -1.8310
    -1.7978  -1.7864  -1.7444  -1.7209  -1.6904  -1.6779  -1.6475  -1.6278
    -1.6104  -1.5908  -1.5222  -1.5087  -1.4639  -1.4234  -1.3868  -1.3112
    -1.2734  -1.2167  -1.1501  -1.1293  -1.0893  -1.0439  -1.0083  -0.9697
    -0.8037  -0.7832  -0.6896  -0.6872  -0.6491  -0.6431  -0.5916  -0.5853
    -0.5422  -0.3923  -0.2732  -0.2594  -0.1650  -0.1145  -0.0679   0.1236
     0.1968   1.3681   1.7120

     occupation numbers 
     1.0000   1.0000   1.0000   1.0000   1.0000   1.0000   1.0000   1.0000
     1.0000   1.0000   1.0000   1.0000   1.0000   1.0000   1.0000   1.0000
     1.0000   1.0000   1.0000   1.0000   1.0000   1.0000   1.0000   1.0000
     1.0000   1.0000   1.0000   1.0000   1.0000   1.0000   1.0000   1.0000
     1.0000   1.0000   1.0000   1.0000   1.0000   1.0000   1.0000   1.0000
     1.0000   1.0000   1.0000   1.0000   1.0000   1.0000   1.0000   1.0000
     1.0000   1.0000   1.0000   1.0000   1.0000   1.0000   1.0000   1.0000
     1.0000   1.0000   1.0000   1.0000   1.0000   1.0000   1.0000   1.0000
     1.0000   1.0000   1.0000   1.0000   1.0000   1.0000   1.0000   1.0000
     1.0000   1.0000   1.0000   1.0000   1.0000   1.0000   1.0000   1.0000
     1.0000   1.0000   1.0000   1.0000   1.0000   1.0000   1.0000   1.0000
     1.0000   1.0000   1.0000   1.0000   1.0000   1.0000   1.0000   1.0000
     1.0000   1.0000   1.0000   1.0000   1.0000   1.0000   1.0000   1.0000
     1.0000   1.0000   1.0000   1.0000   1.0000   1.0000   1.0000   1.0000
     1.0000   1.0000   1.0000   1.0000   1.0000   1.0000   1.0000   1.0000
     1.0000   1.0000   1.0000   1.0000   1.0000   1.0000   1.0000   1.0000
     1.0000   1.0000   1.0000   1.0000   1.0000   1.0000   1.0000   1.0000
     1.0000   1.0000   1.0000   1.0000   1.0000   1.0000   1.0000   1.0000
     1.0000   1.0000   1.0000   1.0000   1.0000   1.0000   1.0000   1.0000
     1.0000   1.0000   1.0000   1.0000   1.0000   1.0000   1.0000   1.0000
     1.0000   1.0000   1.0000   1.0000   1.0000   1.0000   1.0000   1.0000
     1.0000   1.0000   1.0000   1.0000   1.0000   1.0000   1.0000   1.0000
     1.0000   1.0000   1.0000   1.0000   1.0000   1.0000   1.0000   1.0000
     1.0000   1.0000   1.0000   1.0000   1.0000   1.0000   1.0000   1.0000
     1.0000   1.0000   1.0000   1.0000   1.0000   1.0000   1.0000   1.0000
     1.0000   1.0000   1.0000   1.0000   1.0000   1.0000   1.0000   1.0000
     1.0000   1.0000   1.0000   1.0000   1.0000   1.0000   1.0000   1.0000
     1.0000   1.0000   1.0000   1.0000   1.0000   1.0000   1.0000   1.0000
     1.0000   1.0000   1.0000   1.0000   1.0000   1.0000   1.0000   1.0000
     1.0000   1.0000   1.0000   1.0000   1.0000   1.0000   1.0000   1.0000
     1.0000   1.0000   0.0000

     highest occupied, lowest unoccupied level (ev):     1.6176    1.6764

!    total energy              =  -16138.55554223 Ry
     total all-electron energy =   -595550.628748 Ry
     estimated scf accuracy    <          8.7E-11 Ry

     The total energy is the sum of the following terms:
     one-electron contribution =  -18311.89330375 Ry
     hartree contribution      =    9259.74463610 Ry
     xc contribution           =    -931.73717792 Ry
     ewald contribution        =    6415.32007157 Ry
     DFT-D3 Dispersion         =      -0.65559260 Ry
     one-center paw contrib.   =  -12569.33417563 Ry
      -> PAW hartree energy AE =      92.00291430 Ry
      -> PAW hartree energy PS =     -91.51086006 Ry
      -> PAW xc energy AE      =    -644.66492284 Ry
      -> PAW xc energy PS      =      38.62152287 Ry
      -> total E_H with PAW    =    9260.23669034 Ry
      -> total E_XC with PAW   =   -1537.78057790 Ry

     total magnetization       =     1.00 Bohr mag/cell
     absolute magnetization    =     1.12 Bohr mag/cell

     convergence has been achieved in  31 iterations

     negative rho (up, down):  4.796E-03 5.163E-03

     Forces acting on atoms (cartesian axes, Ry/au):

     atom    1 type  2   force =    -0.00000596   -0.00008734   -0.00015268
     atom    2 type  2   force =    -0.00018929    0.00001872    0.00012581
     atom    3 type  2   force =    -0.00026652   -0.00016387   -0.00000916
     atom    4 type  2   force =     0.00028296    0.00027849    0.00004811
     atom    5 type  2   force =    -0.00001858   -0.00024062   -0.00000451
     atom    6 type  2   force =    -0.00002462    0.00009813    0.00000434
     atom    7 type  2   force =     0.00008136   -0.00003391    0.00006162
     atom    8 type  2   force =     0.00013229    0.00008468    0.00006786
     atom    9 type  2   force =    -0.00020603   -0.00007778    0.00005889
     atom   10 type  2   force =     0.00009310    0.00010970    0.00008152
     atom   11 type  2   force =    -0.00009293    0.00018979    0.00000441
     atom   12 type  2   force =    -0.00001132    0.00006710   -0.00013913
     atom   13 type  2   force =    -0.00013460    0.00015509    0.00008163
     atom   14 type  2   force =     0.00011751    0.00001778    0.00000553
     atom   15 type  2   force =     0.00001593   -0.00017255   -0.00007538
     atom   16 type  2   force =    -0.00024132   -0.00015470   -0.00004749
     atom   17 type  1   force =    -0.00008726    0.00017224   -0.00002314
     atom   18 type  1   force =    -0.00005859   -0.00018471   -0.00006086
     atom   19 type  1   force =    -0.00010820    0.00010767   -0.00002790
     atom   20 type  1   force =     0.00012309   -0.00001857   -0.00006772
     atom   21 type  1   force =    -0.00008852    0.00000645    0.00005395
     atom   22 type  1   force =    -0.00002439   -0.00001602   -0.00035203
     atom   23 type  1   force =    -0.00006907    0.00003387    0.00001136
     atom   24 type  1   force =     0.00012534    0.00000285    0.00002031
     atom   25 type  1   force =    -0.00001881   -0.00003963    0.00001639
     atom   26 type  1   force =     0.00005248   -0.00007354   -0.00008442
     atom   27 type  1   force =     0.00010795    0.00005949   -0.00002173
     atom   28 type  1   force =    -0.00028292    0.00003198   -0.00036100
     atom   29 type  1   force =    -0.00002131   -0.00012567   -0.00012784
     atom   30 type  1   force =    -0.00007510   -0.00000656    0.00008247
     atom   31 type  1   force =    -0.00021752   -0.00006600   -0.00004112
     atom   32 type  1   force =     0.00026199    0.00008311   -0.00017680
     atom   33 type  1   force =     0.00002495    0.00005046   -0.00015310
     atom   34 type  1   force =     0.00001201    0.00006326    0.00004331
     atom   35 type  1   force =     0.00002289   -0.00000044   -0.00003378
     atom   36 type  1   force =    -0.00003667   -0.00004534    0.00004879
     atom   37 type  1   force =    -0.00011298    0.00001435   -0.00012210
     atom   38 type  1   force =     0.00008651   -0.00016184    0.00001297
     atom   39 type  1   force =     0.00014869    0.00003359    0.00001729
     atom   40 type  1   force =     0.00011116   -0.00003210    0.00007276
     atom   41 type  1   force =    -0.00011670    0.00004969    0.00006793
     atom   42 type  1   force =     0.00004451    0.00005806    0.00000304
     atom   43 type  1   force =    -0.00025135    0.00001130    0.00015151
     atom   44 type  1   force =    -0.00007617    0.00009814   -0.00036815
     atom   45 type  1   force =    -0.00009831   -0.00004454    0.00005525
     atom   46 type  1   force =     0.00000995    0.00003920   -0.00015277
     atom   47 type  1   force =    -0.00004777   -0.00017200   -0.00016373
     atom   48 type  1   force =    -0.00002840    0.00005073    0.00015691
     atom   49 type  3   force =     0.00101777   -0.00010733   -0.00041205
     atom   50 type  3   force =    -0.00041834   -0.00074951    0.00060896
     atom   51 type  3   force =    -0.00034651   -0.00007387   -0.00013511
     atom   52 type  3   force =     0.00047652    0.00033520    0.00050852
     atom   53 type  3   force =    -0.00019881    0.00038400    0.00022540
     atom   54 type  4   force =     0.00006267   -0.00050702   -0.00024793
     atom   55 type  5   force =     0.00022260   -0.00064762    0.00448299
     atom   56 type  6   force =    -0.00006515    0.00027765   -0.00049319
     atom   57 type  6   force =     0.00044426    0.00116067   -0.00355824
     atom   58 type  6   force =    -0.00003845   -0.00014035    0.00043319
     The non-local contrib.  to forces
     atom    1 type  2   force =    -0.00047805    0.00023410   -0.00009426
     atom    2 type  2   force =     0.00035467   -0.00015365   -0.00019586
     atom    3 type  2   force =    -0.00390377   -0.00385814    0.00603474
     atom    4 type  2   force =    -0.00237053   -0.00004729    0.00309576
     atom    5 type  2   force =    -0.00055223    0.00925771    0.00835369
     atom    6 type  2   force =     0.00405343   -0.00045556    0.01269563
     atom    7 type  2   force =     0.00358759   -0.00281458    0.00569836
     atom    8 type  2   force =     0.00048144    0.00022502    0.00051748
     atom    9 type  2   force =     0.00018831    0.00103445    0.00332053
     atom   10 type  2   force =    -0.00362460    0.00166098    0.01381210
     atom   11 type  2   force =    -0.00039374   -0.00030103    0.01550334
     atom   12 type  2   force =     0.00589361   -0.00340461    0.00757286
     atom   13 type  2   force =    -0.00013474    0.00028724   -0.00031574
     atom   14 type  2   force =     0.00074569    0.00161619    0.00307957
     atom   15 type  2   force =    -0.00071699   -0.00209536    0.00704125
     atom   16 type  2   force =    -0.00286166   -0.00023318    0.00573737
     atom   17 type  1   force =     0.00084360    0.00127061   -0.27570437
     atom   18 type  1   force =     0.00430038    0.00241281   -0.27656634
     atom   19 type  1   force =     0.00094884    0.00009071   -0.27533751
     atom   20 type  1   force =    -0.00088213   -0.00063958   -0.27640748
     atom   21 type  1   force =    -0.00026613    0.00141346   -0.27544349
     atom   22 type  1   force =     0.01176427    0.02358253   -0.15685678
     atom   23 type  1   force =    -0.00167056   -0.00217539   -0.18684804
     atom   24 type  1   force =     0.00274171   -0.00128418   -0.27538597
     atom   25 type  1   force =     0.00010514   -0.00085855   -0.27674088
     atom   26 type  1   force =     0.00291017    0.00951413   -0.25644929
     atom   27 type  1   force =     0.01816491    0.00624160   -0.22551955
     atom   28 type  1   force =     0.01934594   -0.01747202   -0.19304406
     atom   29 type  1   force =     0.00088514   -0.00184003   -0.27490109
     atom   30 type  1   force =    -0.00196438    0.00125306   -0.27603621
     atom   31 type  1   force =    -0.02391921   -0.01163936   -0.21280317
     atom   32 type  1   force =    -0.00973644   -0.00786536   -0.24423051
     atom   33 type  1   force =    -0.00022872    0.00031113    0.27622321
     atom   34 type  1   force =     0.00171869    0.00243802    0.27672851
     atom   35 type  1   force =     0.00154272   -0.00049977    0.27627723
     atom   36 type  1   force =    -0.00083353   -0.00082535    0.27580984
     atom   37 type  1   force =     0.00033280    0.00196740    0.27561348
     atom   38 type  1   force =     0.00295137    0.00259050    0.27715576
     atom   39 type  1   force =     0.00248758    0.00067525    0.27701598
     atom   40 type  1   force =     0.00206011   -0.00164311    0.27530289
     atom   41 type  1   force =     0.00021952    0.00048474    0.27664759
     atom   42 type  1   force =    -0.00263788    0.00246852    0.27559775
     atom   43 type  1   force =    -0.00192880   -0.00055752    0.27974682
     atom   44 type  1   force =     0.00088305   -0.00430061    0.27701068
     atom   45 type  1   force =    -0.00063707   -0.00172444    0.27609825
     atom   46 type  1   force =    -0.00124810   -0.00047775    0.27627723
     atom   47 type  1   force =    -0.00342016   -0.00008953    0.27525956
     atom   48 type  1   force =    -0.00234819   -0.00163701    0.27540550
     atom   49 type  3   force =    -0.18453354    0.03227708   -0.05949269
     atom   50 type  3   force =    -0.00767682   -0.13040469   -0.07528290
     atom   51 type  3   force =     0.19371252   -0.01631991   -0.09594000
     atom   52 type  3   force =     0.02014795    0.14048281   -0.09323018
     atom   53 type  3   force =     0.02035450    0.02839619    0.14854227
     atom   54 type  4   force =    -0.86773746   -0.27484790    0.92705638
     atom   55 type  5   force =     1.88616651    0.50327329   -1.52364238
     atom   56 type  6   force =    -0.00675058   -0.07207017   -0.06512368
     atom   57 type  6   force =     0.01190098   -0.01298500    0.10036135
     atom   58 type  6   force =    -0.02965898    0.08341149   -0.04092874
     The ionic contribution  to forces
     atom    1 type  2   force =    -0.93940364   -0.19571885   -8.51244249
     atom    2 type  2   force =    -0.97116442   -1.15690697   -8.88011454
     atom    3 type  2   force =     1.92229032    0.65026326   -9.43969267
     atom    4 type  2   force =     1.76655575    1.72462932   -9.24159910
     atom    5 type  2   force =    -0.76018611   -3.39403224  -10.32571405
     atom    6 type  2   force =    -3.93391562   -3.11163110  -14.38159581
     atom    7 type  2   force =    -3.78905214    1.11557835  -12.06291971
     atom    8 type  2   force =    -0.45945840    0.22249150   -8.34401915
     atom    9 type  2   force =     1.12840261   -2.55061372  -10.29920637
     atom   10 type  2   force =     1.18902146   -3.57190366  -19.43177330
     atom   11 type  2   force =    -2.00137990    2.17465678  -20.50194222
     atom   12 type  2   force =    -1.90159355    2.98558763  -10.56640042
     atom   13 type  2   force =     0.52966893    0.57632657   -8.41985244
     atom   14 type  2   force =     3.83226101   -2.05742005  -11.86154833
     atom   15 type  2   force =     3.84712270    1.90220765  -17.31821680
     atom   16 type  2   force =     0.57154164    4.70749554  -12.98729208
     atom   17 type  1   force =    -0.14015265   -0.66163458   32.26056780
     atom   18 type  1   force =    -2.24133100   -1.69647572   31.29294618
     atom   19 type  1   force =    -1.12780091    0.05286656   31.69856606
     atom   20 type  1   force =     1.01158610    0.86389949   32.41890071
     atom   21 type  1   force =     0.17405868   -1.94610739   32.03449479
     atom   22 type  1   force =    -2.23766573   -5.30480942   25.62131281
     atom   23 type  1   force =    -4.76115059    0.06330858   24.69080087
     atom   24 type  1   force =    -2.11309557    1.73114525   31.40529086
     atom   25 type  1   force =    -0.02601693    0.43223423   32.25592762
     atom   26 type  1   force =     2.91770068   -4.06823060   28.41117037
     atom   27 type  1   force =     1.27430642   -0.00830809   20.49380034
     atom   28 type  1   force =    -2.26286853    5.24396911   26.48554385
     atom   29 type  1   force =     0.01950283    1.75639627   32.08040840
     atom   30 type  1   force =     1.12864238   -0.96856568   32.14830868
     atom   31 type  1   force =     4.85881416    0.33664196   28.22797529
     atom   32 type  1   force =     3.17841256    3.98388930   28.83928897
     atom   33 type  1   force =    -0.05127528   -0.12673162  -39.08010002
     atom   34 type  1   force =    -0.56949670   -0.42786191  -39.19377602
     atom   35 type  1   force =    -0.28918666   -0.04253282  -39.24753539
     atom   36 type  1   force =     0.27302352    0.22242882  -39.08994993
     atom   37 type  1   force =    -0.01840860   -0.48729169  -39.20274233
     atom   38 type  1   force =    -0.41730066   -0.93186958  -40.31575461
     atom   39 type  1   force =    -0.90998303   -0.05702480  -40.68652856
     atom   40 type  1   force =    -0.52223282    0.40400273  -39.34395841
     atom   41 type  1   force =     0.05823638    0.12831801  -39.16752699
     atom   42 type  1   force =     0.64043340   -0.72203602  -40.20944509
     atom   43 type  1   force =     0.29417408    0.05136069  -41.17797135
     atom   44 type  1   force =    -0.25866161    0.97339912  -40.32980793
     atom   45 type  1   force =     0.01551508    0.50321218  -39.10192097
     atom   46 type  1   force =     0.32787379   -0.23271254  -39.01142442
     atom   47 type  1   force =     0.87995788   -0.02483224  -39.93817711
     atom   48 type  1   force =     0.55132336    0.76660857  -40.07737846
     atom   49 type  3   force =   -21.27034828    3.68849631   58.89765948
     atom   50 type  3   force =    -1.57844931  -20.68355334   58.08262853
     atom   51 type  3   force =    21.71764739   -2.58678128   61.19750107
     atom   52 type  3   force =     2.76206031   20.98059632   58.84476750
     atom   53 type  3   force =     7.91866389    2.07461772   63.37169368
     atom   54 type  4   force =     4.41876941    0.02735407   20.57941978
     atom   55 type  5   force =   -13.33366070   -2.84927623   24.88474269
     atom   56 type  6   force =     0.54155620    2.65525353    5.38768988
     atom   57 type  6   force =    -2.24511637    0.08832057    1.31757534
     atom   58 type  6   force =     1.38123281   -3.22269387    4.81934553
     The local contribution  to forces
     atom    1 type  2   force =     0.93947061    0.19585351    8.51235941
     atom    2 type  2   force =     0.97066772    1.15655320    8.88018392
     atom    3 type  2   force =    -1.91899204   -0.64720842    9.43440858
     atom    4 type  2   force =    -1.76430680   -1.72418366    9.23886222
     atom    5 type  2   force =     0.76031949    3.38459227   10.31697729
     atom    6 type  2   force =     3.92910197    3.11071305   14.36651154
     atom    7 type  2   force =     3.78420362   -1.11246928   12.05557389
     atom    8 type  2   force =     0.45906227   -0.22273287    8.34396118
     atom    9 type  2   force =    -1.12854298    2.54900708   10.29543228
     atom   10 type  2   force =    -1.18517903    3.57078116   19.41504405
     atom   11 type  2   force =     2.00242380   -2.17397511   20.48154505
     atom   12 type  2   force =     1.89590552   -2.98197536   10.55843188
     atom   13 type  2   force =    -0.52943817   -0.57617910    8.41997859
     atom   14 type  2   force =    -3.83136739    2.05558468   11.85635160
     atom   15 type  2   force =    -3.84582657   -1.90007352   17.30654926
     atom   16 type  2   force =    -0.56903070   -4.70578839   12.97921745
     atom   17 type  1   force =     0.13918824    0.66029713  -31.98627289
     atom   18 type  1   force =     2.23632911    1.69337954  -31.01827885
     atom   19 type  1   force =     1.12645304   -0.05278665  -31.42488704
     atom   20 type  1   force =    -1.01021876   -0.86297300  -32.14396439
     atom   21 type  1   force =    -0.17377583    1.94408561  -31.76046173
     atom   22 type  1   force =     2.22579917    5.28047824  -25.46431578
     atom   23 type  1   force =     4.76136039   -0.06115603  -24.50362911
     atom   24 type  1   force =     2.10978315   -1.72929785  -31.13167960
     atom   25 type  1   force =     0.02578800   -0.43127804  -31.98056268
     atom   26 type  1   force =    -2.92072782    4.05912923  -28.15475114
     atom   27 type  1   force =    -1.29099868    0.00176158  -20.26667549
     atom   28 type  1   force =     2.24376166   -5.22584119  -26.29272813
     atom   29 type  1   force =    -0.02033916   -1.75417071  -31.80707107
     atom   30 type  1   force =    -1.12639624    0.96701820  -31.87365432
     atom   31 type  1   force =    -4.83517501   -0.32550047  -28.01472574
     atom   32 type  1   force =    -3.16918147   -3.97556236  -28.59543193
     atom   33 type  1   force =     0.05149351    0.12645866   38.80469850
     atom   34 type  1   force =     0.56779298    0.42553875   38.91809364
     atom   35 type  1   force =     0.28767565    0.04299524   38.97219045
     atom   36 type  1   force =    -0.27225716   -0.22168288   38.81516710
     atom   37 type  1   force =     0.01797576    0.48541728   38.92796585
     atom   38 type  1   force =     0.41442079    0.92909786   40.03938495
     atom   39 type  1   force =     0.90759188    0.05637273   40.41030184
     atom   40 type  1   force =     0.52037964   -0.40241510   39.06967606
     atom   41 type  1   force =    -0.05853045   -0.12872540   38.89193773
     atom   42 type  1   force =    -0.63771771    0.71963446   39.93465789
     atom   43 type  1   force =    -0.29250773   -0.05078647   40.89915123
     atom   44 type  1   force =     0.25771216   -0.96899240   40.05323080
     atom   45 type  1   force =    -0.01499494   -0.50154344   38.82686951
     atom   46 type  1   force =    -0.32665383    0.23320488   38.73599972
     atom   47 type  1   force =    -0.87662419    0.02471685   39.66354732
     atom   48 type  1   force =    -0.54900082   -0.76490212   39.80290956
     atom   49 type  3   force =    21.45250969   -3.71966092  -58.82761185
     atom   50 type  3   force =     1.58956534   20.81291522  -57.99754639
     atom   51 type  3   force =   -21.90845718    2.60159434  -61.09458793
     atom   52 type  3   force =    -2.77900336  -21.11857607  -58.74267758
     atom   53 type  3   force =    -7.93771937   -2.10166389  -63.51440597
     atom   54 type  4   force =    -3.56898544    0.24236240  -21.49378782
     atom   55 type  5   force =    11.46654309    2.34979645  -23.36757637
     atom   56 type  6   force =    -0.53492464   -2.58303539   -5.32326753
     atom   57 type  6   force =     2.23387257   -0.07403145   -1.42158174
     atom   58 type  6   force =    -1.35172798    3.13936416   -4.77812315
     The core correction contribution to forces
     atom    1 type  2   force =     0.00025890   -0.00049008   -0.00037508
     atom    2 type  2   force =    -0.00015622    0.00035565   -0.00024282
     atom    3 type  2   force =     0.00079698    0.00078245   -0.00149970
     atom    4 type  2   force =     0.00075006    0.00026054   -0.00095113
     atom    5 type  2   force =     0.00021070   -0.00077944   -0.00060723
     atom    6 type  2   force =    -0.00028698    0.00076774   -0.00009520
     atom    7 type  2   force =     0.00050814   -0.00013591    0.00031907
     atom    8 type  2   force =    -0.00002366    0.00012255   -0.00061764
     atom    9 type  2   force =     0.00000896   -0.00005567   -0.00027215
     atom   10 type  2   force =    -0.00007121   -0.00142593    0.00039500
     atom   11 type  2   force =    -0.00121130    0.00051130    0.00110245
     atom   12 type  2   force =    -0.00068028    0.00050245   -0.00079332
     atom   13 type  2   force =    -0.00018217   -0.00017976   -0.00006087
     atom   14 type  2   force =    -0.00063574   -0.00026392    0.00047238
     atom   15 type  2   force =     0.00047377    0.00032332    0.00113463
     atom   16 type  2   force =     0.00025941   -0.00056047    0.00045818
     atom   17 type  1   force =    -0.00005255   -0.00000723    0.00196456
     atom   18 type  1   force =    -0.00015932   -0.00008417    0.00203933
     atom   19 type  1   force =    -0.00004831   -0.00005469    0.00197241
     atom   20 type  1   force =    -0.00000399    0.00000148    0.00199023
     atom   21 type  1   force =    -0.00003863   -0.00003560    0.00197223
     atom   22 type  1   force =    -0.00009113   -0.00041971   -0.00039887
     atom   23 type  1   force =     0.00004664    0.00007043   -0.00003863
     atom   24 type  1   force =    -0.00006722    0.00004262    0.00198162
     atom   25 type  1   force =     0.00005184    0.00002241    0.00198612
     atom   26 type  1   force =    -0.00002282   -0.00024176    0.00142848
     atom   27 type  1   force =    -0.00045957   -0.00006061    0.00111639
     atom   28 type  1   force =    -0.00030202    0.00037905    0.00019923
     atom   29 type  1   force =    -0.00002104    0.00009982    0.00197902
     atom   30 type  1   force =     0.00007988   -0.00003687    0.00200931
     atom   31 type  1   force =     0.00052014    0.00026280    0.00063783
     atom   32 type  1   force =     0.00016313    0.00019617    0.00123072
     atom   33 type  1   force =     0.00001671   -0.00000380   -0.00193198
     atom   34 type  1   force =    -0.00003152   -0.00005399   -0.00198899
     atom   35 type  1   force =     0.00000250    0.00003619   -0.00193380
     atom   36 type  1   force =     0.00001929    0.00002512   -0.00191721
     atom   37 type  1   force =     0.00000513   -0.00004325   -0.00192635
     atom   38 type  1   force =     0.00001047    0.00001081   -0.00197454
     atom   39 type  1   force =     0.00002944    0.00002680   -0.00198032
     atom   40 type  1   force =    -0.00005833    0.00000906   -0.00192224
     atom   41 type  1   force =    -0.00003617   -0.00001296   -0.00194780
     atom   42 type  1   force =    -0.00002458   -0.00003870   -0.00193340
     atom   43 type  1   force =     0.00000281   -0.00001123   -0.00220884
     atom   44 type  1   force =    -0.00002566    0.00001956   -0.00198794
     atom   45 type  1   force =     0.00001195    0.00001598   -0.00195956
     atom   46 type  1   force =     0.00003336    0.00000917   -0.00196693
     atom   47 type  1   force =     0.00004963    0.00003144   -0.00190570
     atom   48 type  1   force =     0.00002352    0.00000565   -0.00189409
     atom   49 type  3   force =     0.00425015   -0.00133997   -0.00311181
     atom   50 type  3   force =    -0.00144704    0.00369776   -0.00370973
     atom   51 type  3   force =    -0.00463960    0.00092458   -0.00153704
     atom   52 type  3   force =    -0.00175379   -0.00488745   -0.00188333
     atom   53 type  3   force =    -0.00267872   -0.00115200   -0.00364234
     atom   54 type  4   force =     0.01791220    0.00454719   -0.01219256
     atom   55 type  5   force =    -0.01852238   -0.00449653    0.01194606
     atom   56 type  6   force =     0.00000000    0.00000000    0.00000000
     atom   57 type  6   force =     0.00000000    0.00000000    0.00000000
     atom   58 type  6   force =     0.00000000    0.00000000    0.00000000
     The Hubbard contrib.    to forces
     atom    1 type  2   force =     0.00000000    0.00000000    0.00000000
     atom    2 type  2   force =     0.00000000    0.00000000    0.00000000
     atom    3 type  2   force =     0.00000000    0.00000000    0.00000000
     atom    4 type  2   force =     0.00000000    0.00000000    0.00000000
     atom    5 type  2   force =     0.00000000    0.00000000    0.00000000
     atom    6 type  2   force =     0.00000000    0.00000000    0.00000000
     atom    7 type  2   force =     0.00000000    0.00000000    0.00000000
     atom    8 type  2   force =     0.00000000    0.00000000    0.00000000
     atom    9 type  2   force =     0.00000000    0.00000000    0.00000000
     atom   10 type  2   force =     0.00000000    0.00000000    0.00000000
     atom   11 type  2   force =     0.00000000    0.00000000    0.00000000
     atom   12 type  2   force =     0.00000000    0.00000000    0.00000000
     atom   13 type  2   force =     0.00000000    0.00000000    0.00000000
     atom   14 type  2   force =     0.00000000    0.00000000    0.00000000
     atom   15 type  2   force =     0.00000000    0.00000000    0.00000000
     atom   16 type  2   force =     0.00000000    0.00000000    0.00000000
     atom   17 type  1   force =     0.00000000    0.00000000    0.00000000
     atom   18 type  1   force =     0.00000000    0.00000000    0.00000000
     atom   19 type  1   force =     0.00000000    0.00000000    0.00000000
     atom   20 type  1   force =     0.00000000    0.00000000    0.00000000
     atom   21 type  1   force =     0.00000000    0.00000000    0.00000000
     atom   22 type  1   force =     0.00000000    0.00000000    0.00000000
     atom   23 type  1   force =     0.00000000    0.00000000    0.00000000
     atom   24 type  1   force =     0.00000000    0.00000000    0.00000000
     atom   25 type  1   force =     0.00000000    0.00000000    0.00000000
     atom   26 type  1   force =     0.00000000    0.00000000    0.00000000
     atom   27 type  1   force =     0.00000000    0.00000000    0.00000000
     atom   28 type  1   force =     0.00000000    0.00000000    0.00000000
     atom   29 type  1   force =     0.00000000    0.00000000    0.00000000
     atom   30 type  1   force =     0.00000000    0.00000000    0.00000000
     atom   31 type  1   force =     0.00000000    0.00000000    0.00000000
     atom   32 type  1   force =     0.00000000    0.00000000    0.00000000
     atom   33 type  1   force =     0.00000000    0.00000000    0.00000000
     atom   34 type  1   force =     0.00000000    0.00000000    0.00000000
     atom   35 type  1   force =     0.00000000    0.00000000    0.00000000
     atom   36 type  1   force =     0.00000000    0.00000000    0.00000000
     atom   37 type  1   force =     0.00000000    0.00000000    0.00000000
     atom   38 type  1   force =     0.00000000    0.00000000    0.00000000
     atom   39 type  1   force =     0.00000000    0.00000000    0.00000000
     atom   40 type  1   force =     0.00000000    0.00000000    0.00000000
     atom   41 type  1   force =     0.00000000    0.00000000    0.00000000
     atom   42 type  1   force =     0.00000000    0.00000000    0.00000000
     atom   43 type  1   force =     0.00000000    0.00000000    0.00000000
     atom   44 type  1   force =     0.00000000    0.00000000    0.00000000
     atom   45 type  1   force =     0.00000000    0.00000000    0.00000000
     atom   46 type  1   force =     0.00000000    0.00000000    0.00000000
     atom   47 type  1   force =     0.00000000    0.00000000    0.00000000
     atom   48 type  1   force =     0.00000000    0.00000000    0.00000000
     atom   49 type  3   force =     0.00000000    0.00000000    0.00000000
     atom   50 type  3   force =     0.00000000    0.00000000    0.00000000
     atom   51 type  3   force =     0.00000000    0.00000000    0.00000000
     atom   52 type  3   force =     0.00000000    0.00000000    0.00000000
     atom   53 type  3   force =     0.00000000    0.00000000    0.00000000
     atom   54 type  4   force =     0.00000000    0.00000000    0.00000000
     atom   55 type  5   force =     0.00000000    0.00000000    0.00000000
     atom   56 type  6   force =     0.00000000    0.00000000    0.00000000
     atom   57 type  6   force =     0.00000000    0.00000000    0.00000000
     atom   58 type  6   force =     0.00000000    0.00000000    0.00000000
     The SCF correction term to forces
     atom    1 type  2   force =     0.00000577    0.00000349    0.00000224
     atom    2 type  2   force =    -0.00000379    0.00000194    0.00000174
     atom    3 type  2   force =    -0.00000041   -0.00000169    0.00000300
     atom    4 type  2   force =     0.00000730    0.00000159    0.00000277
     atom    5 type  2   force =     0.00000486    0.00000286    0.00000273
     atom    6 type  2   force =     0.00000608   -0.00000314    0.00000291
     atom    7 type  2   force =    -0.00000303   -0.00000164    0.00000165
     atom    8 type  2   force =    -0.00000403    0.00000413    0.00000165
     atom    9 type  2   force =    -0.00000655    0.00000678    0.00000269
     atom   10 type  2   force =     0.00000149   -0.00000562    0.00000504
     atom   11 type  2   force =     0.00000120   -0.00000849    0.00000413
     atom   12 type  2   force =    -0.00000573    0.00000237    0.00000160
     atom   13 type  2   force =    -0.00000523    0.00000837    0.00000258
     atom   14 type  2   force =    -0.00000383   -0.00000145    0.00000366
     atom   15 type  2   force =     0.00000314   -0.00000831    0.00000480
     atom   16 type  2   force =     0.00000246   -0.00000012    0.00000265
     atom   17 type  1   force =     0.00000315    0.00000135    0.00000192
     atom   18 type  1   force =     0.00000134    0.00000045    0.00000306
     atom   19 type  1   force =    -0.00000171    0.00000018    0.00000268
     atom   20 type  1   force =     0.00000032   -0.00000021    0.00000208
     atom   21 type  1   force =    -0.00000082    0.00000276    0.00000042
     atom   22 type  1   force =     0.00000232   -0.00000084    0.00000043
     atom   23 type  1   force =     0.00000178   -0.00000150    0.00000321
     atom   24 type  1   force =    -0.00000214    0.00000017    0.00000414
     atom   25 type  1   force =    -0.00000313    0.00000307    0.00000336
     atom   26 type  1   force =    -0.00000136    0.00000019   -0.00000023
     atom   27 type  1   force =    -0.00000066   -0.00000361    0.00000229
     atom   28 type  1   force =    -0.00000038   -0.00000300    0.00000523
     atom   29 type  1   force =     0.00000076    0.00000194    0.00000501
     atom   30 type  1   force =    -0.00000229    0.00000196    0.00000220
     atom   31 type  1   force =     0.00000060   -0.00000210    0.00000189
     atom   32 type  1   force =     0.00000221   -0.00000113    0.00000518
     atom   33 type  1   force =     0.00000315    0.00000134   -0.00000050
     atom   34 type  1   force =     0.00000100    0.00000034   -0.00000160
     atom   35 type  1   force =    -0.00000165    0.00000021   -0.00000136
     atom   36 type  1   force =     0.00000073   -0.00000004   -0.00000076
     atom   37 type  1   force =    -0.00000072    0.00000221    0.00000097
     atom   38 type  1   force =     0.00000187   -0.00000129    0.00000170
     atom   39 type  1   force =     0.00000107   -0.00000126   -0.00000123
     atom   40 type  1   force =    -0.00000229    0.00000037   -0.00000291
     atom   41 type  1   force =    -0.00000305    0.00000283   -0.00000211
     atom   42 type  1   force =    -0.00000098   -0.00000042    0.00000220
     atom   43 type  1   force =    -0.00000085   -0.00000336    0.00000012
     atom   44 type  1   force =    -0.00000093   -0.00000229   -0.00000360
     atom   45 type  1   force =     0.00000062    0.00000223   -0.00000363
     atom   46 type  1   force =    -0.00000191    0.00000172   -0.00000085
     atom   47 type  1   force =     0.00000143   -0.00000201   -0.00000006
     atom   48 type  1   force =     0.00000245   -0.00000044   -0.00000329
     atom   49 type  3   force =     0.00000070   -0.00000139    0.00000252
     atom   50 type  3   force =     0.00000098   -0.00000054   -0.00000025
     atom   51 type  3   force =    -0.00000153   -0.00000120    0.00000014
     atom   52 type  3   force =     0.00000036   -0.00000282    0.00000341
     atom   53 type  3   force =    -0.00000026   -0.00000041   -0.00000124
     atom   54 type  4   force =    -0.00000012   -0.00000000   -0.00000089
     atom   55 type  5   force =     0.00000035    0.00000012   -0.00000116
     atom   56 type  6   force =    -0.00000001   -0.00000001   -0.00000015
     atom   57 type  6   force =     0.00000007    0.00000001   -0.00000014
     atom   58 type  6   force =    -0.00000001    0.00000002   -0.00000015

     DFT-D3 dispersion contribution to forces:
     atom    1 type  2   force =     0.00014031    0.00003169    0.00039726
     atom    2 type  2   force =     0.00011260    0.00016975    0.00049313
     atom    3 type  2   force =    -0.00045774   -0.00014014    0.00073664
     atom    4 type  2   force =    -0.00035297   -0.00038081    0.00063735
     atom    5 type  2   force =     0.00018455    0.00071942    0.00098282
     atom    6 type  2   force =     0.00101636    0.00070833    0.00248503
     atom    7 type  2   force =     0.00083704   -0.00018965    0.00138812
     atom    8 type  2   force =     0.00007452   -0.00002446    0.00022409
     atom    9 type  2   force =    -0.00025653    0.00054452    0.00078166
     atom   10 type  2   force =    -0.00005516    0.00100397    0.00259839
     atom   11 type  2   force =     0.00046686   -0.00069245    0.00379142
     atom   12 type  2   force =     0.00046896   -0.00064418    0.00104803
     atom   13 type  2   force =    -0.00004337   -0.00010703    0.00032927
     atom   14 type  2   force =    -0.00088237    0.00050355    0.00164642
     atom   15 type  2   force =    -0.00104027   -0.00052512    0.00341125
     atom   16 type  2   force =    -0.00015261   -0.00106690    0.00182870
     atom   17 type  1   force =     0.00008280    0.00024616   -0.00058041
     atom   18 type  1   force =     0.00080076    0.00058358   -0.00020448
     atom   19 type  1   force =     0.00034070   -0.00000723   -0.00034475
     atom   20 type  1   force =    -0.00035860   -0.00030555   -0.00058910
     atom   21 type  1   force =    -0.00006594    0.00064882   -0.00050850
     atom   22 type  1   force =     0.00016656    0.00115438   -0.00009408
     atom   23 type  1   force =     0.00134311   -0.00001100   -0.00027718
     atom   24 type  1   force =     0.00076527   -0.00060196   -0.00019098
     atom   25 type  1   force =     0.00005611   -0.00016155   -0.00059739
     atom   26 type  1   force =     0.00019349   -0.00024353   -0.00148286
     atom   27 type  1   force =    -0.00090461    0.00042982   -0.00274595
     atom   28 type  1   force =    -0.00021974   -0.00099877   -0.00033736
     atom   29 type  1   force =    -0.00004999   -0.00061175   -0.00054835
     atom   30 type  1   force =    -0.00043460    0.00032398   -0.00054744
     atom   31 type  1   force =    -0.00045834    0.00017237   -0.00112746
     atom   32 type  1   force =     0.00060185   -0.00057232   -0.00103947
     atom   33 type  1   force =     0.00001542    0.00001595    0.00095745
     atom   34 type  1   force =     0.00002742    0.00000324    0.00098754
     atom   35 type  1   force =    -0.00000981    0.00000171    0.00096885
     atom   36 type  1   force =     0.00001032    0.00001019    0.00093951
     atom   37 type  1   force =    -0.00001751   -0.00003640    0.00096603
     atom   38 type  1   force =     0.00000252    0.00001106    0.00119946
     atom   39 type  1   force =     0.00002160   -0.00001394    0.00120935
     atom   40 type  1   force =    -0.00003531    0.00001516    0.00097712
     atom   41 type  1   force =    -0.00000308   -0.00001634    0.00095927
     atom   42 type  1   force =    -0.00000790    0.00003142    0.00112347
     atom   43 type  1   force =     0.00000900    0.00001039    0.00143329
     atom   44 type  1   force =     0.00001666   -0.00002404    0.00118959
     atom   45 type  1   force =     0.00000591   -0.00000586    0.00097140
     atom   46 type  1   force =     0.00000648    0.00001492    0.00096223
     atom   47 type  1   force =    -0.00001251    0.00000469    0.00111201
     atom   48 type  1   force =    -0.00002887   -0.00002272    0.00111744
     atom   49 type  3   force =    -0.00086110    0.00012276   -0.00785793
     atom   50 type  3   force =    -0.00241163   -0.00340271   -0.00548053
     atom   51 type  3   force =     0.00139174    0.00051080   -0.00557159
     atom   52 type  3   force =    -0.00097509    0.00272361   -0.00647155
     atom   53 type  3   force =     0.00118101    0.00018758   -0.00196124
     atom   54 type  4   force =     0.00010393    0.00007843   -0.00074305
     atom   55 type  5   force =    -0.00030442    0.00005648   -0.00098609
     atom   56 type  6   force =     0.00005373    0.00013091    0.00020805
     atom   57 type  6   force =    -0.00021313   -0.00014226    0.00008670
     atom   58 type  6   force =     0.00011557   -0.00022095    0.00013946

     Total force =     0.006401     Total SCF correction =     0.000036

     DFT-D3 dispersion Force =     0.017434


     Computing stress (Cartesian axis) and pressure


     negative rho (up, down):  4.796E-03 5.163E-03
          total   stress  (Ry/bohr**3)                   (kbar)     P=       -1.47
  -0.00001048  -0.00000092   0.00000052           -1.54       -0.14        0.08
  -0.00000092  -0.00000941  -0.00000002           -0.14       -1.38       -0.00
   0.00000052  -0.00000002  -0.00001018            0.08       -0.00       -1.50

     kinetic stress (kbar)   7256.36     -1.19     -9.36
                               -1.19   7273.04     -0.62
                               -9.36     -0.62   7301.45

     local   stress (kbar)-135461.30    -64.67    518.84
                              -64.67-134008.24    219.52
                              518.84    219.52 134099.51

     nonloc. stress (kbar)  -1419.21     -0.11      0.32
                               -0.11  -1420.42      0.30
                                0.32      0.30  -1427.31

     hartree stress (kbar)  68217.41     29.79   -249.06
                               29.79  67561.61   -102.81
                             -249.06   -102.81 -63301.09

     exc-cor stress (kbar)   2000.76      0.01      0.00
                                0.01   2000.33     -0.04
                                0.00     -0.04   2000.29

     corecor stress (kbar)  -3626.55      0.04      0.05
                                0.04  -3626.83      0.01
                                0.05      0.01  -3627.24

     ewald   stress (kbar)  63035.26     35.98   -260.67
                               35.98  62223.34   -116.37
                             -260.67   -116.37 -75044.57

     hubbard stress (kbar)      0.00      0.00      0.00
                                0.00      0.00      0.00
                                0.00      0.00      0.00

     DFT-D   stress (kbar)     -4.26      0.02     -0.04
                                0.02     -4.22      0.01
                               -0.04      0.01     -2.55

     XDM     stress (kbar)      0.00      0.00      0.00
                                0.00      0.00      0.00
                                0.00      0.00      0.00

     dft-nl  stress (kbar)      0.00      0.00      0.00
                                0.00      0.00      0.00
                                0.00      0.00      0.00

     TS-vdW  stress (kbar)      0.00      0.00      0.00
                                0.00      0.00      0.00
                                0.00      0.00      0.00

     MDB     stress (kbar)      0.00      0.00      0.00
                                0.00      0.00      0.00
                                0.00      0.00      0.00

     3D-RISM stress (kbar)      0.00      0.00      0.00
                                0.00      0.00      0.00
                                0.00      0.00      0.00


     Writing all to output data dir ./Ag-WS2-H2NOH.save/ :
     XML data file, charge density, pseudopotentials, collected wavefunctions

     init_run     :    162.46s CPU    165.77s WALL (       1 calls)
     electrons    :  10588.14s CPU  10774.33s WALL (       1 calls)
     forces       :     43.14s CPU     44.53s WALL (       1 calls)
     force_dftd3  :      0.13s CPU      0.15s WALL (       1 calls)
     stress       :    155.27s CPU    159.17s WALL (       1 calls)
     stres_dftd3  :      0.14s CPU      0.15s WALL (       1 calls)

     Called by init_run:
     wfcinit      :    154.84s CPU    157.52s WALL (       1 calls)
     wfcinit:atom :      0.66s CPU      0.67s WALL (      26 calls)
     wfcinit:wfcr :    150.82s CPU    153.38s WALL (      26 calls)
     potinit      :      2.61s CPU      2.73s WALL (       1 calls)
     hinit0       :      1.38s CPU      1.46s WALL (       1 calls)

     Called by electrons:
     c_bands      :   9173.73s CPU   9319.92s WALL (      32 calls)
     sum_band     :   1308.10s CPU   1336.78s WALL (      32 calls)
     v_of_rho     :     17.00s CPU     17.99s WALL (      32 calls)
     v_h          :      0.84s CPU      0.95s WALL (      32 calls)
     v_xc         :     17.16s CPU     18.09s WALL (      34 calls)
     newd         :     52.00s CPU     61.40s WALL (      32 calls)
     PAW_pot      :     33.50s CPU     33.87s WALL (      32 calls)
     mix_rho      :      4.47s CPU      4.75s WALL (      32 calls)
     energy_dftd3 :      0.05s CPU      0.05s WALL (       1 calls)

     Called by c_bands:
     init_us_2    :    108.77s CPU    110.92s WALL (    1742 calls)
     cegterg      :   9030.03s CPU   9173.83s WALL (     832 calls)

     Called by sum_band:
     sum_band:wei :      0.01s CPU      0.01s WALL (      32 calls)
     sum_band:loo :   1210.18s CPU   1227.71s WALL (      32 calls)
     sum_band:buf :      9.46s CPU      9.62s WALL (     832 calls)
     sum_band:ini :     52.18s CPU     53.17s WALL (     832 calls)
     sum_band:cal :    262.76s CPU    269.80s WALL (     832 calls)
     sum_band:bec :      3.14s CPU      3.20s WALL (     832 calls)
     addusdens    :     88.67s CPU     99.61s WALL (      32 calls)
                                        0.00s GPU  (      32 calls)
     addusd:skk   :      1.34s CPU      1.44s WALL (     192 calls)
                                        0.00s GPU  (     192 calls)

     Called by *egterg:
     cdiaghg      :    493.44s CPU    511.22s WALL (    5845 calls)
     cegterg:over :    510.67s CPU    522.41s WALL (    5039 calls)
     cegterg:upda :    233.29s CPU    236.98s WALL (    5039 calls)
     cegterg:last :    418.30s CPU    425.07s WALL (    1693 calls)
     cdiaghg:chol :     41.92s CPU     42.24s WALL (    5845 calls)
     cdiaghg:inve :      7.10s CPU      7.17s WALL (    5845 calls)
     cdiaghg:para :    140.29s CPU    150.39s WALL (   11690 calls)
     h_psi        :   6738.79s CPU   6828.22s WALL (    5897 calls)
     s_psi        :    615.27s CPU    621.30s WALL (    5897 calls)
     g_psi        :      8.75s CPU      8.99s WALL (    5039 calls)

     Called by h_psi:
     h_psi:calbec :    842.77s CPU    863.69s WALL (    5897 calls)
     vloc_psi     :   5249.01s CPU   5308.39s WALL (    5897 calls)
     add_vuspsi   :    622.32s CPU    629.51s WALL (    5897 calls)

     General routines
     calbec       :   1247.65s CPU   1279.37s WALL (    7171 calls)
     fft          :     24.24s CPU     25.77s WALL (     840 calls)
     ffts         :      1.60s CPU      1.71s WALL (     128 calls)
     fftw         :   5641.38s CPU   5698.38s WALL ( 1241752 calls)
     interpolate  :      2.51s CPU      2.71s WALL (      64 calls)

     Parallel routines

     PAW routines
     PAW_pot      :     33.50s CPU     33.87s WALL (      32 calls)

     PWSCF        :  10958.99s CPU  11187.06s WALL


   This run was terminated on:  22:51:46   1Aug2026            

=------------------------------------------------------------------------------=
   JOB DONE.
=------------------------------------------------------------------------------=
