
     Program PWSCF v.7.4.1 starts on  1Aug2026 at 13:46:24 

     This program is part of the open-source Quantum ESPRESSO suite
     for quantum simulation of materials; please cite
         "P. Giannozzi et al., J. Phys.:Condens. Matter 21 395502 (2009);
         "P. Giannozzi et al., J. Phys.:Condens. Matter 29 465901 (2017);
         "P. Giannozzi et al., J. Chem. Phys. 152 154105 (2020);
          URL http://www.quantum-espresso.org", 
     in publications or presentations arising from this work. More details at
     http://www.quantum-espresso.org/quote

     Parallel version (MPI & OpenMP), running on      64 processor cores
     Number of MPI processes:                64
     Threads/MPI process:                     1

     MPI processes distributed on     1 nodes
     97011 MiB available memory on the printing compute node when the environment starts

     Reading input from disp_018_atom56_-1z.in

     Current dimensions of program PWSCF are:
     Max number of different atomic species (ntypx) = 10
     Max number of k-points (npk) =  40000
     Max angular momentum in pseudopotentials (lmaxx) =  4
     file S.pbe-n-kjpaw_psl.1.0.0.UPF: wavefunction(s)  3S 3P renormalized
     file W.pbe-spn-kjpaw_psl.1.0.0.UPF: wavefunction(s)  6S 5P 5D renormalized
     file Ag.pbe-n-kjpaw_psl.1.0.0.UPF: wavefunction(s)  5S 5P renormalized
     file N.pbe-n-kjpaw_psl.1.0.0.UPF: wavefunction(s)  2S renormalized
     file O.pbe-n-kjpaw_psl.1.0.0.UPF: wavefunction(s)  2S 2P renormalized
     file H.pbe-kjpaw_psl.1.0.0.UPF: wavefunction(s)  1S renormalized
     Message from routine setup:
     the system is metallic, specify occupations

     R & G space division:  proc/nbgrp/npool/nimage =      64
     Subspace diagonalization in iterative solution of the eigenvalue problem:
     one sub-group per band group will be used
     ELPA distributed-memory algorithm (size of sub-group:  2*  2 procs)


     Parallelization info
     --------------------
     sticks:   dense  smooth     PW     G-vecs:    dense   smooth      PW
     Min         247     123     32                39673    14017    1874
     Max         248     124     33                39680    14030    1885
     Sum       15841    7909   2065              2539249   897387  120111

     Using Slab Decomposition



     bravais-lattice index     =            0
     lattice parameter (alat)  =      23.9624  a.u.
     unit-cell volume          =   18794.0729 (a.u.)^3
     number of atoms/cell      =           58
     number of atomic types    =            6
     number of electrons       =       485.00 (up: 243.00, down: 242.00)
     number of Kohn-Sham states=          243
     kinetic-energy cutoff     =      50.0000  Ry
     charge density cutoff     =     400.0000  Ry
     scf convergence threshold =      1.0E-10
     mixing beta               =       0.4000
     number of iterations used =            8  plain     mixing
     Exchange-correlation= SLA  PW   PBX  PBC
                           (   1   4   3   4   0   0   0)

     celldm(1)=  23.962422  celldm(2)=   0.000000  celldm(3)=   0.000000
     celldm(4)=   0.000000  celldm(5)=   0.000000  celldm(6)=   0.000000

     crystal axes: (cart. coord. in units of alat)
               a(1) = (   1.000000   0.000000   0.000000 )  
               a(2) = (  -0.500000   0.866025   0.000000 )  
               a(3) = (   0.000000   0.000000   1.577241 )  

     reciprocal axes: (cart. coord. in units 2 pi/alat)
               b(1) = (  1.000000  0.577350 -0.000000 )  
               b(2) = (  0.000000  1.154701  0.000000 )  
               b(3) = (  0.000000 -0.000000  0.634018 )  


     PseudoPot. # 1 for S  read from file:
     /share/work_r640/fmigm008/pseudo/S.pbe-n-kjpaw_psl.1.0.0.UPF
     MD5 check sum: fb45dfebcf3e72a4e1bd4a866ec2e262
     Pseudo is Projector augmented-wave + core cor, Zval =  6.0
     Generated using &quot;atomic&quot; code by A. Dal Corso  v.6.3
     Shape of augmentation charge: PSQ
     Using radial grid of 1151 points,  6 beta functions with: 
                l(1) =   0
                l(2) =   0
                l(3) =   1
                l(4) =   1
                l(5) =   2
                l(6) =   2
     Q(r) pseudized with 0 coefficients 


     PseudoPot. # 2 for W  read from file:
     /share/work_r640/fmigm008/pseudo/W.pbe-spn-kjpaw_psl.1.0.0.UPF
     MD5 check sum: 03c3df5b60893f488392c7401945500a
     Pseudo is Projector augmented-wave + core cor, Zval = 14.0
     Generated using &quot;atomic&quot; code by A. Dal Corso  v.6.2.2
     Shape of augmentation charge: PSQ
     Using radial grid of 1273 points,  6 beta functions with: 
                l(1) =   0
                l(2) =   0
                l(3) =   1
                l(4) =   1
                l(5) =   2
                l(6) =   2
     Q(r) pseudized with 0 coefficients 


     PseudoPot. # 3 for Ag read from file:
     /share/work_r640/fmigm008/pseudo/Ag.pbe-n-kjpaw_psl.1.0.0.UPF
     MD5 check sum: 51099775af2a3182a6a1caffb86952a3
     Pseudo is Projector augmented-wave + core cor, Zval = 11.0
     Generated using &quot;atomic&quot; code by A. Dal Corso  v.6.2.2
     Shape of augmentation charge: PSQ
     Using radial grid of 1237 points,  6 beta functions with: 
                l(1) =   0
                l(2) =   0
                l(3) =   1
                l(4) =   1
                l(5) =   2
                l(6) =   2
     Q(r) pseudized with 0 coefficients 


     PseudoPot. # 4 for N  read from file:
     /share/work_r640/fmigm008/pseudo/N.pbe-n-kjpaw_psl.1.0.0.UPF
     MD5 check sum: 14c48229446f9f2d411169a3abcbc3fa
     Pseudo is Projector augmented-wave + core cor, Zval =  5.0
     Generated using &quot;atomic&quot; code by A. Dal Corso  v.6.3
     Shape of augmentation charge: PSQ
     Using radial grid of 1085 points,  4 beta functions with: 
                l(1) =   0
                l(2) =   0
                l(3) =   1
                l(4) =   1
     Q(r) pseudized with 0 coefficients 


     PseudoPot. # 5 for O  read from file:
     /share/work_r640/fmigm008/pseudo/O.pbe-n-kjpaw_psl.1.0.0.UPF
     MD5 check sum: e99d9cef9b487d1ca56f5b95ecd0fd7a
     Pseudo is Projector augmented-wave + core cor, Zval =  6.0
     Generated using &quot;atomic&quot; code by A. Dal Corso  v.6.3
     Shape of augmentation charge: PSQ
     Using radial grid of 1095 points,  4 beta functions with: 
                l(1) =   0
                l(2) =   0
                l(3) =   1
                l(4) =   1
     Q(r) pseudized with 0 coefficients 


     PseudoPot. # 6 for H  read from file:
     /share/work_r640/fmigm008/pseudo/H.pbe-kjpaw_psl.1.0.0.UPF
     MD5 check sum: d81a744832360e4a8af0b0b5b123bc2a
     Pseudo is Projector augmented-wave, Zval =  1.0
     Generated using &quot;atomic&quot; code by A. Dal Corso  v.6.3MaX
     Shape of augmentation charge: PSQ
     Using radial grid of  929 points,  2 beta functions with: 
                l(1) =   0
                l(2) =   0
     Q(r) pseudized with 0 coefficients 


     atomic species   valence    mass     pseudopotential
     S                 6.00    32.06500     S ( 1.00)
     W                14.00   183.84000     W ( 1.00)
     Ag               11.00   107.87000     Ag( 1.00)
     N                 5.00    14.00700     N ( 1.00)
     O                 6.00    15.99900     O ( 1.00)
     H                 1.00     1.00800     H ( 1.00)

     Starting magnetic structure 
     atomic species   magnetization
     S               0.000
     W               0.000
     Ag              0.000
     N               0.000
     O               0.000
     H               0.000

     No symmetry found


                                    s                        frac. trans.

      isym =  1     identity                                     

 cryst.   s( 1) = (     1          0          0      )
                  (     0          1          0      )
                  (     0          0          1      )

 cart.    s( 1) = (  1.0000000  0.0000000  0.0000000 )
                  (  0.0000000  1.0000000  0.0000000 )
                  (  0.0000000  0.0000000  1.0000000 )


   Cartesian axes

     site n.     atom                  positions (alat units)
         1        W      tau(   1) = (  -0.0028587   0.1395947   0.2444812  )
         2        W      tau(   2) = (  -0.1282026   0.3564836   0.2443568  )
         3        W      tau(   3) = (  -0.2537731   0.5727289   0.2442261  )
         4        W      tau(   4) = (  -0.3783723   0.7888166   0.2441498  )
         5        W      tau(   5) = (   0.2469096   0.1395426   0.2440120  )
         6        W      tau(   6) = (   0.1225026   0.3570726   0.2432304  )
         7        W      tau(   7) = (  -0.0034888   0.5727502   0.2429844  )
         8        W      tau(   8) = (  -0.1283671   0.7891505   0.2439766  )
         9        W      tau(   9) = (   0.4969194   0.1397378   0.2430413  )
        10        W      tau(  10) = (   0.3721499   0.3552416   0.2405337  )
        11        W      tau(  11) = (   0.2452295   0.5727639   0.2402480  )
        12        W      tau(  12) = (   0.1220165   0.7890246   0.2436243  )
        13        W      tau(  13) = (   0.7467445   0.1394449   0.2440642  )
        14        W      tau(  14) = (   0.6211264   0.3563823   0.2436826  )
        15        W      tau(  15) = (   0.4971469   0.5732720   0.2421413  )
        16        W      tau(  16) = (   0.3721785   0.7886524   0.2428338  )
        17        S      tau(  17) = (   0.1219502   0.0672380   0.3684592  )
        18        S      tau(  18) = (  -0.0024014   0.2846735   0.3681910  )
        19        S      tau(  19) = (  -0.1281525   0.5008469   0.3682441  )
        20        S      tau(  20) = (  -0.2533258   0.7170167   0.3685687  )
        21        S      tau(  21) = (   0.3722606   0.0676427   0.3679766  )
        22        S      tau(  22) = (   0.2484890   0.2849851   0.3676532  )
        23        S      tau(  23) = (   0.1218721   0.5017515   0.3660861  )
        24        S      tau(  24) = (  -0.0030403   0.7167922   0.3679041  )
        25        S      tau(  25) = (   0.6215745   0.0674060   0.3678624  )
        26        S      tau(  26) = (   0.4959803   0.2843589   0.3667029  )
        27        S      tau(  27) = (   0.3710177   0.5007270   0.3638206  )
        28        S      tau(  28) = (   0.2481984   0.7153351   0.3669892  )
        29        S      tau(  29) = (   0.8717811   0.0668114   0.3679626  )
        30        S      tau(  30) = (   0.7463862   0.2840842   0.3681041  )
        31        S      tau(  31) = (   0.6195449   0.5004430   0.3687043  )
        32        S      tau(  32) = (   0.4956231   0.7159829   0.3681683  )
        33        S      tau(  33) = (   0.1218639   0.0672424   0.1203644  )
        34        S      tau(  34) = (  -0.0031686   0.2839920   0.1203246  )
        35        S      tau(  35) = (  -0.1290559   0.5005458   0.1199474  )
        36        S      tau(  36) = (  -0.2533637   0.7168463   0.1201865  )
        37        S      tau(  37) = (   0.3715067   0.0672515   0.1197328  )
        38        S      tau(  38) = (   0.2459712   0.2831895   0.1185177  )
        39        S      tau(  39) = (   0.1200987   0.4999851   0.1172124  )
        40        S      tau(  40) = (  -0.0034124   0.7174366   0.1195727  )
        41        S      tau(  41) = (   0.6220409   0.0671938   0.1195919  )
        42        S      tau(  42) = (   0.4978914   0.2834015   0.1177695  )
        43        S      tau(  43) = (   0.3720771   0.5008174   0.1169455  )
        44        S      tau(  44) = (   0.2466393   0.7180153   0.1180007  )
        45        S      tau(  45) = (   0.8722199   0.0680125   0.1199081  )
        46        S      tau(  46) = (   0.7469729   0.2840633   0.1202901  )
        47        S      tau(  47) = (   0.6222799   0.5003741   0.1191499  )
        48        S      tau(  48) = (   0.4972527   0.7176301   0.1185580  )
        49        Ag     tau(  49) = (   0.1547683   0.5150674   0.5753024  )
        50        Ag     tau(  50) = (   0.3069329   0.3595674   0.5464056  )
        51        Ag     tau(  51) = (   0.5024756   0.4743393   0.5615070  )
        52        Ag     tau(  52) = (   0.3399570   0.6321033   0.5430870  )
        53        Ag     tau(  53) = (   0.3428646   0.4953663   0.7084671  )
        54        N      tau(  54) = (   0.2596825   0.4648737   0.8674395  )
        55        O      tau(  55) = (   0.1477385   0.4509631   0.8500100  )
        56        H      tau(  56) = (   0.2650389   0.5234661   0.9214203  )
        57        H      tau(  57) = (   0.1408570   0.4629232   0.7729758  )
        58        H      tau(  58) = (   0.2837088   0.3964009   0.9032094  )

     --------------------------------------------
     DFT-D3 Dispersion Correction (3-body terms):
     --------------------------------------------
       Reference C6 values for interpolation: 

         atom   Coordination number   C6
         H          0.912             6.05
         H          0.000            15.18
         N          0.000            50.54
         N          0.994            44.25
         N          2.014            39.35
         N          2.990            31.16
         O          0.000            31.01
         O          0.993            25.63
         O          1.989            20.74
         S          0.000           268.01
         S          0.995           261.99
         S          1.990           251.62
         Ag         0.000           853.49
         Ag         0.968           537.23
         W          0.000          1628.72
         W          1.929          1086.81
         W         10.915           796.19

       Values used:

         atom   Coordination number  R0_AB[au]  C6      C8
         W          9.805            3.766    796.19 128250.55
         W          9.806            3.766    796.19 128250.55
         W          9.854            3.766    796.19 128250.55
         W          9.866            3.766    796.19 128250.55
         W          9.842            3.766    796.19 128250.55
         W          9.851            3.766    796.19 128250.55
         W          9.870            3.766    796.19 128250.55
         W          9.833            3.766    796.19 128250.55
         W          9.854            3.766    796.19 128250.55
         W          9.880            3.766    796.19 128250.55
         W          9.879            3.766    796.19 128250.55
         W          9.846            3.766    796.19 128250.55
         W          9.811            3.766    796.19 128250.55
         W          9.849            3.766    796.19 128250.55
         W          9.870            3.766    796.19 128250.55
         W          9.855            3.766    796.19 128250.55
         S          3.670            3.128    251.62  12327.25
         S          3.672            3.128    251.62  12327.25
         S          3.679            3.128    251.62  12327.25
         S          3.675            3.128    251.62  12327.25
         S          3.690            3.128    251.62  12327.25
         S          4.579            3.128    251.62  12327.25
         S          4.512            3.128    251.62  12327.25
         S          3.693            3.128    251.62  12327.25
         S          3.676            3.128    251.62  12327.25
         S          3.843            3.128    251.62  12327.25
         S          4.976            3.128    251.62  12327.25
         S          4.443            3.128    251.62  12327.25
         S          3.677            3.128    251.62  12327.25
         S          3.672            3.128    251.62  12327.25
         S          4.198            3.128    251.62  12327.25
         S          3.918            3.128    251.62  12327.25
         S          3.700            3.128    251.62  12327.25
         S          3.699            3.128    251.62  12327.25
         S          3.697            3.128    251.62  12327.25
         S          3.697            3.128    251.62  12327.25
         S          3.689            3.128    251.62  12327.25
         S          3.673            3.128    251.62  12327.25
         S          3.669            3.128    251.62  12327.25
         S          3.689            3.128    251.62  12327.25
         S          3.693            3.128    251.62  12327.25
         S          3.672            3.128    251.62  12327.25
         S          3.662            3.128    251.62  12327.25
         S          3.672            3.128    251.62  12327.25
         S          3.693            3.128    251.62  12327.25
         S          3.697            3.128    251.62  12327.25
         S          3.686            3.128    251.62  12327.25
         S          3.680            3.128    251.62  12327.25
         Ag         3.221            3.147    537.23  47741.54
         Ag         3.973            3.147    537.23  47741.54
         Ag         3.317            3.147    537.23  47741.54
         Ag         4.158            3.147    537.23  47741.54
         Ag         4.123            3.147    537.23  47741.54
         N          3.753            2.478     31.16    687.50
         O          2.001            2.345     20.82    420.12
         H          1.007            2.062      6.17     74.64
         H          1.030            2.062      6.16     74.42
         H          1.007            2.062      6.18     74.65

         Molecular C6 ( Ry / a.u.^6 ) =   1190030.96


   Crystallographic axes

     site n.     atom                  positions (cryst. coord.)
         1        W      tau(   1) = (  0.0777364  0.1611901  0.1550056  )
         2        W      tau(   2) = (  0.0776133  0.4116318  0.1549267  )
         3        W      tau(   3) = (  0.0768921  0.6613303  0.1548438  )
         4        W      tau(   4) = (  0.0770512  0.9108469  0.1547955  )
         5        W      tau(   5) = (  0.3274746  0.1611299  0.1547081  )
         6        W      tau(   6) = (  0.3286586  0.4123119  0.1542125  )
         7        W      tau(   7) = (  0.3271886  0.6613549  0.1540566  )
         8        W      tau(   8) = (  0.3272492  0.9112326  0.1546856  )
         9        W      tau(   9) = (  0.5775970  0.1613553  0.1540926  )
        10        W      tau(  10) = (  0.5772488  0.4101977  0.1525028  )
        11        W      tau(  11) = (  0.5759149  0.6613708  0.1523217  )
        12        W      tau(  12) = (  0.5775601  0.9110871  0.1544623  )
        13        W      tau(  13) = (  0.8272530  0.1610171  0.1547412  )
        14        W      tau(  14) = (  0.8268839  0.4115149  0.1544993  )
        15        W      tau(  15) = (  0.8281256  0.6619575  0.1535220  )
        16        W      tau(  16) = (  0.8275072  0.9106573  0.1539611  )
        17        S      tau(  17) = (  0.1607701  0.0776397  0.2336099  )
        18        S      tau(  18) = (  0.1619549  0.3287126  0.2334399  )
        19        S      tau(  19) = (  0.1610116  0.5783281  0.2334735  )
        20        S      tau(  20) = (  0.1606439  0.8279395  0.2336794  )
        21        S      tau(  21) = (  0.4113141  0.0781070  0.2333040  )
        22        S      tau(  22) = (  0.4130252  0.3290725  0.2330989  )
        23        S      tau(  23) = (  0.4115585  0.5793727  0.2321053  )
        24        S      tau(  24) = (  0.4107998  0.8276803  0.2332579  )
        25        S      tau(  25) = (  0.6604913  0.0778337  0.2332315  )
        26        S      tau(  26) = (  0.6601550  0.3283494  0.2324963  )
        27        S      tau(  27) = (  0.6601125  0.5781897  0.2306689  )
        28        S      tau(  28) = (  0.6611973  0.8259978  0.2326779  )
        29        S      tau(  29) = (  0.9103547  0.0771472  0.2332950  )
        30        S      tau(  30) = (  0.9104023  0.3280322  0.2333848  )
        31        S      tau(  31) = (  0.9084758  0.5778618  0.2337653  )
        32        S      tau(  32) = (  0.9089960  0.8267459  0.2334255  )
        33        S      tau(  33) = (  0.1606863  0.0776448  0.0763132  )
        34        S      tau(  34) = (  0.1607942  0.3279257  0.0762880  )
        35        S      tau(  35) = (  0.1599344  0.5779805  0.0760488  )
        36        S      tau(  36) = (  0.1605077  0.8277428  0.0762004  )
        37        S      tau(  37) = (  0.4103343  0.0776554  0.0759128  )
        38        S      tau(  38) = (  0.4094707  0.3269991  0.0751424  )
        39        S      tau(  39) = (  0.4087652  0.5773330  0.0743148  )
        40        S      tau(  40) = (  0.4107999  0.8284245  0.0758113  )
        41        S      tau(  41) = (  0.6608352  0.0775887  0.0758235  )
        42        S      tau(  42) = (  0.6615133  0.3272438  0.0746680  )
        43        S      tau(  43) = (  0.6612241  0.5782941  0.0741456  )
        44        S      tau(  44) = (  0.6611856  0.8290927  0.0748146  )
        45        S      tau(  45) = (  0.9114869  0.0785340  0.0760239  )
        46        S      tau(  46) = (  0.9109769  0.3280081  0.0762661  )
        47        S      tau(  47) = (  0.9111710  0.5777822  0.0755432  )
        48        S      tau(  48) = (  0.9115766  0.8286478  0.0751680  )
        49        Ag     tau(  49) = (  0.4521427  0.5947486  0.3647523  )
        50        Ag     tau(  50) = (  0.5145293  0.4151927  0.3464312  )
        51        Ag     tau(  51) = (  0.7763355  0.5477198  0.3560058  )
        52        Ag     tau(  52) = (  0.7049020  0.7298900  0.3443271  )
        53        Ag     tau(  53) = (  0.6288645  0.5719998  0.4491812  )
        54        N      tau(  54) = (  0.5280775  0.5367899  0.5499726  )
        55        O      tau(  55) = (  0.4081021  0.5207274  0.5389220  )
        56        H      tau(  56) = (  0.5672622  0.6044466  0.5841974  )
        57        H      tau(  57) = (  0.4081259  0.5345377  0.4900809  )
        58        H      tau(  58) = (  0.5125710  0.4577243  0.5726514  )

     number of k points=    13
                       cart. coord. in units 2pi/alat
        k(    1) = (   0.0000000   0.0000000   0.0000000), wk =   0.0400000
        k(    2) = (   0.0000000   0.2309401   0.0000000), wk =   0.0800000
        k(    3) = (   0.0000000   0.4618802   0.0000000), wk =   0.0800000
        k(    4) = (   0.2000000   0.3464102   0.0000000), wk =   0.0800000
        k(    5) = (   0.2000000   0.5773503   0.0000000), wk =   0.0800000
        k(    6) = (  -0.2000000   0.1154701   0.0000000), wk =   0.0800000
        k(    7) = (   0.2000000   0.1154701   0.0000000), wk =   0.0800000
        k(    8) = (  -0.4000000   0.2309401   0.0000000), wk =   0.0800000
        k(    9) = (   0.4000000   0.2309401   0.0000000), wk =   0.0800000
        k(   10) = (  -0.2000000   0.3464102   0.0000000), wk =   0.0800000
        k(   11) = (   0.4000000  -0.0000000   0.0000000), wk =   0.0800000
        k(   12) = (  -0.4000000   0.4618802   0.0000000), wk =   0.0800000
        k(   13) = (   0.6000000   0.1154701   0.0000000), wk =   0.0800000

                       cryst. coord.
        k(    1) = (   0.0000000   0.0000000   0.0000000), wk =   0.0400000
        k(    2) = (   0.0000000   0.2000000   0.0000000), wk =   0.0800000
        k(    3) = (   0.0000000   0.4000000   0.0000000), wk =   0.0800000
        k(    4) = (   0.2000000   0.2000000   0.0000000), wk =   0.0800000
        k(    5) = (   0.2000000   0.4000000   0.0000000), wk =   0.0800000
        k(    6) = (  -0.2000000   0.2000000   0.0000000), wk =   0.0800000
        k(    7) = (   0.2000000   0.0000000   0.0000000), wk =   0.0800000
        k(    8) = (  -0.4000000   0.4000000   0.0000000), wk =   0.0800000
        k(    9) = (   0.4000000   0.0000000   0.0000000), wk =   0.0800000
        k(   10) = (  -0.2000000   0.4000000   0.0000000), wk =   0.0800000
        k(   11) = (   0.4000000  -0.2000000   0.0000000), wk =   0.0800000
        k(   12) = (  -0.4000000   0.6000000   0.0000000), wk =   0.0800000
        k(   13) = (   0.6000000  -0.2000000   0.0000000), wk =   0.0800000

     Dense  grid:  2539249 G-vectors     FFT dimensions: ( 160, 160, 243)

     Smooth grid:   897387 G-vectors     FFT dimensions: ( 108, 108, 180)

     Dynamical RAM for                 wfc:       6.50 MB

     Dynamical RAM for     wfc (w. buffer):     175.50 MB

     Dynamical RAM for           str. fact:       3.63 MB

     Dynamical RAM for           local pot:       0.00 MB

     Dynamical RAM for          nlocal pot:      26.11 MB

     Dynamical RAM for                qrad:       9.63 MB

     Dynamical RAM for          rho,v,vnew:       8.32 MB

     Dynamical RAM for               rhoin:       2.77 MB

     Dynamical RAM for            rho*nmix:      19.38 MB

     Dynamical RAM for           G-vectors:       2.38 MB

     Dynamical RAM for          h,s,v(r/c):       2.70 MB

     Dynamical RAM for          <psi|beta>:       3.62 MB

     Dynamical RAM for                 psi:      13.00 MB

     Dynamical RAM for                hpsi:      13.00 MB

     Dynamical RAM for                spsi:      13.00 MB

     Dynamical RAM for      wfcinit/wfcrot:      14.35 MB

     Dynamical RAM for           addusdens:     132.60 MB

     Dynamical RAM for          addusforce:     170.39 MB

     Dynamical RAM for         addusstress:     122.61 MB

     Estimated static dynamical RAM per process >     237.27 MB

     Estimated max dynamical RAM per process >     427.03 MB

     Estimated total dynamical RAM >      26.69 GB
     Generating pointlists ...
     new r_m :   0.0782 (alat units)  1.8731 (a.u.) for type    1
     new r_m :   0.0782 (alat units)  1.8731 (a.u.) for type    2
     new r_m :   0.0751 (alat units)  1.7989 (a.u.) for type    3
     new r_m :   0.0329 (alat units)  0.7893 (a.u.) for type    4
     new r_m :   0.0323 (alat units)  0.7736 (a.u.) for type    5
     new r_m :   0.0323 (alat units)  0.7736 (a.u.) for type    6

     Initial potential from superposition of free atoms

     starting charge     484.9880, renormalised to     485.0000

     negative rho (up, down):  1.011E-03 1.011E-03
     Starting wfcs are  392 randomized atomic wfcs
     Checking if some PAW data can be deallocated... 
       PAW data deallocated on   32 nodes for type:  1
       PAW data deallocated on   42 nodes for type:  2
       PAW data deallocated on   59 nodes for type:  3
       PAW data deallocated on   63 nodes for type:  4
       PAW data deallocated on   63 nodes for type:  5
       PAW data deallocated on   61 nodes for type:  6

     total cpu time spent up to now is      185.6 secs

     per-process dynamical memory:   308.6 Mb

     Self-consistent Calculation

     iteration #  1     ecut=    50.00 Ry     beta= 0.40
     Davidson diagonalization with overlap

---- Real-time Memory Report at c_bands before calling an iterative solver
           367 MiB given to the printing process from OS
           301 MiB allocation reported by mallinfo(arena+hblkhd)
         78652 MiB available memory on the node where the printing process lives
------------------
     ethr =  1.00E-02,  avg # of iterations =  2.0

     Threshold (ethr) on eigenvalues was too large:
     Diagonalizing with lowered threshold

     Davidson diagonalization with overlap

---- Real-time Memory Report at c_bands before calling an iterative solver
           471 MiB given to the printing process from OS
           304 MiB allocation reported by mallinfo(arena+hblkhd)
         77222 MiB available memory on the node where the printing process lives
------------------
     ethr =  4.34E-04,  avg # of iterations =  4.8

     negative rho (up, down):  1.026E-02 6.712E-03

     total cpu time spent up to now is      925.2 secs

     total energy              =  -16138.22503394 Ry
     estimated scf accuracy    <       2.44486760 Ry

     total magnetization       =     1.00 Bohr mag/cell
     absolute magnetization    =     4.14 Bohr mag/cell

     iteration #  2     ecut=    50.00 Ry     beta= 0.40
     Davidson diagonalization with overlap

---- Real-time Memory Report at c_bands before calling an iterative solver
           479 MiB given to the printing process from OS
           311 MiB allocation reported by mallinfo(arena+hblkhd)
         75286 MiB available memory on the node where the printing process lives
------------------
     ethr =  5.04E-04,  avg # of iterations =  7.3

     negative rho (up, down):  3.204E-02 2.291E-02

     total cpu time spent up to now is     1318.0 secs

     total energy              =  -16138.44643042 Ry
     estimated scf accuracy    <       0.41448786 Ry

     total magnetization       =     1.00 Bohr mag/cell
     absolute magnetization    =     3.05 Bohr mag/cell

     iteration #  3     ecut=    50.00 Ry     beta= 0.40
     Davidson diagonalization with overlap

---- Real-time Memory Report at c_bands before calling an iterative solver
           481 MiB given to the printing process from OS
           313 MiB allocation reported by mallinfo(arena+hblkhd)
         75292 MiB available memory on the node where the printing process lives
------------------
     ethr =  8.55E-05,  avg # of iterations =  8.5

     negative rho (up, down):  3.688E-02 2.756E-02

     total cpu time spent up to now is     1722.7 secs

     total energy              =  -16138.51328202 Ry
     estimated scf accuracy    <       0.22734873 Ry

     total magnetization       =     1.00 Bohr mag/cell
     absolute magnetization    =     2.37 Bohr mag/cell

     iteration #  4     ecut=    50.00 Ry     beta= 0.40
     Davidson diagonalization with overlap

---- Real-time Memory Report at c_bands before calling an iterative solver
           482 MiB given to the printing process from OS
           314 MiB allocation reported by mallinfo(arena+hblkhd)
         75015 MiB available memory on the node where the printing process lives
------------------
     ethr =  4.69E-05,  avg # of iterations =  9.7

     negative rho (up, down):  3.095E-02 2.407E-02

     total cpu time spent up to now is     2097.5 secs

     total energy              =  -16138.54468505 Ry
     estimated scf accuracy    <       0.05198499 Ry

     total magnetization       =     1.00 Bohr mag/cell
     absolute magnetization    =     1.99 Bohr mag/cell

     iteration #  5     ecut=    50.00 Ry     beta= 0.40
     Davidson diagonalization with overlap

---- Real-time Memory Report at c_bands before calling an iterative solver
           510 MiB given to the printing process from OS
           346 MiB allocation reported by mallinfo(arena+hblkhd)
         74520 MiB available memory on the node where the printing process lives
------------------
     ethr =  1.07E-05,  avg # of iterations =  7.2

     negative rho (up, down):  2.136E-02 1.698E-02

     total cpu time spent up to now is     2482.9 secs

     total energy              =  -16138.54974865 Ry
     estimated scf accuracy    <       0.03190354 Ry

     total magnetization       =     1.00 Bohr mag/cell
     absolute magnetization    =     1.71 Bohr mag/cell

     iteration #  6     ecut=    50.00 Ry     beta= 0.40
     Davidson diagonalization with overlap

---- Real-time Memory Report at c_bands before calling an iterative solver
           516 MiB given to the printing process from OS
           348 MiB allocation reported by mallinfo(arena+hblkhd)
         73923 MiB available memory on the node where the printing process lives
------------------
     ethr =  6.58E-06,  avg # of iterations =  7.2

     negative rho (up, down):  1.388E-02 1.144E-02

     total cpu time spent up to now is     2837.0 secs

     total energy              =  -16138.55296172 Ry
     estimated scf accuracy    <       0.01702655 Ry

     total magnetization       =     1.00 Bohr mag/cell
     absolute magnetization    =     1.49 Bohr mag/cell

     iteration #  7     ecut=    50.00 Ry     beta= 0.40
     Davidson diagonalization with overlap

---- Real-time Memory Report at c_bands before calling an iterative solver
           516 MiB given to the printing process from OS
           350 MiB allocation reported by mallinfo(arena+hblkhd)
         73886 MiB available memory on the node where the printing process lives
------------------
     ethr =  3.51E-06,  avg # of iterations =  5.3

     negative rho (up, down):  1.989E-02 2.042E-02

     total cpu time spent up to now is     3168.7 secs

     total energy              =  -16138.55164360 Ry
     estimated scf accuracy    <       0.00837475 Ry

     total magnetization       =     1.00 Bohr mag/cell
     absolute magnetization    =     1.34 Bohr mag/cell

     iteration #  8     ecut=    50.00 Ry     beta= 0.40
     Davidson diagonalization with overlap

---- Real-time Memory Report at c_bands before calling an iterative solver
           518 MiB given to the printing process from OS
           350 MiB allocation reported by mallinfo(arena+hblkhd)
         73788 MiB available memory on the node where the printing process lives
------------------
     ethr =  1.73E-06,  avg # of iterations =  8.2

     negative rho (up, down):  2.112E-02 2.226E-02

     total cpu time spent up to now is     3512.2 secs

     total energy              =  -16138.55123290 Ry
     estimated scf accuracy    <       0.00243363 Ry

     total magnetization       =     1.00 Bohr mag/cell
     absolute magnetization    =     1.22 Bohr mag/cell

     iteration #  9     ecut=    50.00 Ry     beta= 0.40
     Davidson diagonalization with overlap

---- Real-time Memory Report at c_bands before calling an iterative solver
           518 MiB given to the printing process from OS
           351 MiB allocation reported by mallinfo(arena+hblkhd)
         73976 MiB available memory on the node where the printing process lives
------------------
     ethr =  5.02E-07,  avg # of iterations =  8.0

     negative rho (up, down):  1.526E-02 1.618E-02

     total cpu time spent up to now is     3904.1 secs

     total energy              =  -16138.55318474 Ry
     estimated scf accuracy    <       0.00051318 Ry

     total magnetization       =     1.00 Bohr mag/cell
     absolute magnetization    =     1.17 Bohr mag/cell

     iteration # 10     ecut=    50.00 Ry     beta= 0.40
     Davidson diagonalization with overlap

---- Real-time Memory Report at c_bands before calling an iterative solver
           519 MiB given to the printing process from OS
           352 MiB allocation reported by mallinfo(arena+hblkhd)
         73951 MiB available memory on the node where the printing process lives
------------------
     ethr =  1.06E-07,  avg # of iterations =  6.8

     negative rho (up, down):  1.095E-02 1.170E-02

     total cpu time spent up to now is     4317.3 secs

     total energy              =  -16138.55428297 Ry
     estimated scf accuracy    <       0.00016506 Ry

     total magnetization       =     1.00 Bohr mag/cell
     absolute magnetization    =     1.15 Bohr mag/cell

     iteration # 11     ecut=    50.00 Ry     beta= 0.40
     Davidson diagonalization with overlap

---- Real-time Memory Report at c_bands before calling an iterative solver
           522 MiB given to the printing process from OS
           354 MiB allocation reported by mallinfo(arena+hblkhd)
         73979 MiB available memory on the node where the printing process lives
------------------
     ethr =  3.40E-08,  avg # of iterations =  7.6

     negative rho (up, down):  7.972E-03 8.582E-03

     total cpu time spent up to now is     4753.0 secs

     total energy              =  -16138.55486193 Ry
     estimated scf accuracy    <       0.00012553 Ry

     total magnetization       =     1.00 Bohr mag/cell
     absolute magnetization    =     1.14 Bohr mag/cell

     iteration # 12     ecut=    50.00 Ry     beta= 0.40
     Davidson diagonalization with overlap

---- Real-time Memory Report at c_bands before calling an iterative solver
           522 MiB given to the printing process from OS
           354 MiB allocation reported by mallinfo(arena+hblkhd)
         73799 MiB available memory on the node where the printing process lives
------------------
     ethr =  2.59E-08,  avg # of iterations =  6.7

     negative rho (up, down):  6.049E-03 6.512E-03

     total cpu time spent up to now is     5140.1 secs

     total energy              =  -16138.55513956 Ry
     estimated scf accuracy    <       0.00003205 Ry

     total magnetization       =     1.00 Bohr mag/cell
     absolute magnetization    =     1.13 Bohr mag/cell

     iteration # 13     ecut=    50.00 Ry     beta= 0.40
     Davidson diagonalization with overlap

---- Real-time Memory Report at c_bands before calling an iterative solver
           522 MiB given to the printing process from OS
           354 MiB allocation reported by mallinfo(arena+hblkhd)
         73816 MiB available memory on the node where the printing process lives
------------------
     ethr =  6.61E-09,  avg # of iterations =  7.0

     negative rho (up, down):  5.181E-03 5.583E-03

     total cpu time spent up to now is     5565.8 secs

     total energy              =  -16138.55523951 Ry
     estimated scf accuracy    <       0.00001850 Ry

     total magnetization       =     1.00 Bohr mag/cell
     absolute magnetization    =     1.12 Bohr mag/cell

     iteration # 14     ecut=    50.00 Ry     beta= 0.40
     Davidson diagonalization with overlap

---- Real-time Memory Report at c_bands before calling an iterative solver
           522 MiB given to the printing process from OS
           354 MiB allocation reported by mallinfo(arena+hblkhd)
         73692 MiB available memory on the node where the printing process lives
------------------
     ethr =  3.81E-09,  avg # of iterations =  2.0

     negative rho (up, down):  4.855E-03 5.231E-03

     total cpu time spent up to now is     5870.5 secs

     total energy              =  -16138.55527678 Ry
     estimated scf accuracy    <       0.00001302 Ry

     total magnetization       =     1.00 Bohr mag/cell
     absolute magnetization    =     1.12 Bohr mag/cell

     iteration # 15     ecut=    50.00 Ry     beta= 0.40
     Davidson diagonalization with overlap

---- Real-time Memory Report at c_bands before calling an iterative solver
           522 MiB given to the printing process from OS
           354 MiB allocation reported by mallinfo(arena+hblkhd)
         73672 MiB available memory on the node where the printing process lives
------------------
     ethr =  2.68E-09,  avg # of iterations =  2.0

     negative rho (up, down):  4.903E-03 5.275E-03

     total cpu time spent up to now is     6161.3 secs

     total energy              =  -16138.55527207 Ry
     estimated scf accuracy    <       0.00001174 Ry

     total magnetization       =     1.00 Bohr mag/cell
     absolute magnetization    =     1.12 Bohr mag/cell

     iteration # 16     ecut=    50.00 Ry     beta= 0.40
     Davidson diagonalization with overlap

---- Real-time Memory Report at c_bands before calling an iterative solver
           522 MiB given to the printing process from OS
           354 MiB allocation reported by mallinfo(arena+hblkhd)
         72218 MiB available memory on the node where the printing process lives
------------------
     ethr =  2.42E-09,  avg # of iterations =  2.0

     negative rho (up, down):  4.838E-03 5.210E-03

     total cpu time spent up to now is     6451.1 secs

     total energy              =  -16138.55527668 Ry
     estimated scf accuracy    <       0.00001426 Ry

     total magnetization       =     1.00 Bohr mag/cell
     absolute magnetization    =     1.12 Bohr mag/cell

     iteration # 17     ecut=    50.00 Ry     beta= 0.40
     Davidson diagonalization with overlap

---- Real-time Memory Report at c_bands before calling an iterative solver
           522 MiB given to the printing process from OS
           354 MiB allocation reported by mallinfo(arena+hblkhd)
         73807 MiB available memory on the node where the printing process lives
------------------
     ethr =  2.42E-09,  avg # of iterations =  7.7

     negative rho (up, down):  4.871E-03 5.244E-03

     total cpu time spent up to now is     6895.5 secs

     total energy              =  -16138.55527363 Ry
     estimated scf accuracy    <       0.00002149 Ry

     total magnetization       =     1.00 Bohr mag/cell
     absolute magnetization    =     1.12 Bohr mag/cell

     iteration # 18     ecut=    50.00 Ry     beta= 0.40
     Davidson diagonalization with overlap

---- Real-time Memory Report at c_bands before calling an iterative solver
           523 MiB given to the printing process from OS
           355 MiB allocation reported by mallinfo(arena+hblkhd)
         73608 MiB available memory on the node where the printing process lives
------------------
     ethr =  2.42E-09,  avg # of iterations =  7.1

     negative rho (up, down):  4.958E-03 5.333E-03

     total cpu time spent up to now is     7235.0 secs

     total energy              =  -16138.55526381 Ry
     estimated scf accuracy    <       0.00000819 Ry

     total magnetization       =     1.00 Bohr mag/cell
     absolute magnetization    =     1.12 Bohr mag/cell

     iteration # 19     ecut=    50.00 Ry     beta= 0.40
     Davidson diagonalization with overlap

---- Real-time Memory Report at c_bands before calling an iterative solver
           523 MiB given to the printing process from OS
           355 MiB allocation reported by mallinfo(arena+hblkhd)
         73672 MiB available memory on the node where the printing process lives
------------------
     ethr =  1.69E-09,  avg # of iterations =  6.5

     negative rho (up, down):  4.923E-03 5.297E-03

     total cpu time spent up to now is     7643.3 secs

     total energy              =  -16138.55526851 Ry
     estimated scf accuracy    <       0.00000662 Ry

     total magnetization       =     1.00 Bohr mag/cell
     absolute magnetization    =     1.12 Bohr mag/cell

     iteration # 20     ecut=    50.00 Ry     beta= 0.40
     Davidson diagonalization with overlap

---- Real-time Memory Report at c_bands before calling an iterative solver
           523 MiB given to the printing process from OS
           355 MiB allocation reported by mallinfo(arena+hblkhd)
         73705 MiB available memory on the node where the printing process lives
------------------
     ethr =  1.37E-09,  avg # of iterations =  1.0

     negative rho (up, down):  4.859E-03 5.231E-03

     total cpu time spent up to now is     7921.1 secs

     total energy              =  -16138.55527514 Ry
     estimated scf accuracy    <       0.00000423 Ry

     total magnetization       =     1.00 Bohr mag/cell
     absolute magnetization    =     1.12 Bohr mag/cell

     iteration # 21     ecut=    50.00 Ry     beta= 0.40
     Davidson diagonalization with overlap

---- Real-time Memory Report at c_bands before calling an iterative solver
           523 MiB given to the printing process from OS
           355 MiB allocation reported by mallinfo(arena+hblkhd)
         73658 MiB available memory on the node where the printing process lives
------------------
     ethr =  8.71E-10,  avg # of iterations =  3.0

     negative rho (up, down):  4.817E-03 5.187E-03

     total cpu time spent up to now is     8224.9 secs

     total energy              =  -16138.55528028 Ry
     estimated scf accuracy    <       0.00000116 Ry

     total magnetization       =     1.00 Bohr mag/cell
     absolute magnetization    =     1.12 Bohr mag/cell

     iteration # 22     ecut=    50.00 Ry     beta= 0.40
     Davidson diagonalization with overlap

---- Real-time Memory Report at c_bands before calling an iterative solver
           523 MiB given to the printing process from OS
           355 MiB allocation reported by mallinfo(arena+hblkhd)
         73515 MiB available memory on the node where the printing process lives
------------------
     ethr =  2.40E-10,  avg # of iterations =  7.5

     negative rho (up, down):  4.819E-03 5.189E-03

     total cpu time spent up to now is     8627.4 secs

     total energy              =  -16138.55528025 Ry
     estimated scf accuracy    <       0.00000101 Ry

     total magnetization       =     1.00 Bohr mag/cell
     absolute magnetization    =     1.12 Bohr mag/cell

     iteration # 23     ecut=    50.00 Ry     beta= 0.40
     Davidson diagonalization with overlap

---- Real-time Memory Report at c_bands before calling an iterative solver
           523 MiB given to the printing process from OS
           355 MiB allocation reported by mallinfo(arena+hblkhd)
         73666 MiB available memory on the node where the printing process lives
------------------
     ethr =  2.08E-10,  avg # of iterations =  1.6

     negative rho (up, down):  4.824E-03 5.194E-03

     total cpu time spent up to now is     8912.5 secs

     total energy              =  -16138.55527941 Ry
     estimated scf accuracy    <       0.00000074 Ry

     total magnetization       =     1.00 Bohr mag/cell
     absolute magnetization    =     1.12 Bohr mag/cell

     iteration # 24     ecut=    50.00 Ry     beta= 0.40
     Davidson diagonalization with overlap

---- Real-time Memory Report at c_bands before calling an iterative solver
           523 MiB given to the printing process from OS
           355 MiB allocation reported by mallinfo(arena+hblkhd)
         73425 MiB available memory on the node where the printing process lives
------------------
     ethr =  1.52E-10,  avg # of iterations =  7.9

     negative rho (up, down):  4.797E-03 5.166E-03

     total cpu time spent up to now is     9339.1 secs

     total energy              =  -16138.55528292 Ry
     estimated scf accuracy    <       0.00000079 Ry

     total magnetization       =     1.00 Bohr mag/cell
     absolute magnetization    =     1.12 Bohr mag/cell

     iteration # 25     ecut=    50.00 Ry     beta= 0.40
     Davidson diagonalization with overlap

---- Real-time Memory Report at c_bands before calling an iterative solver
           523 MiB given to the printing process from OS
           355 MiB allocation reported by mallinfo(arena+hblkhd)
         73585 MiB available memory on the node where the printing process lives
------------------
     ethr =  1.52E-10,  avg # of iterations =  2.8

     negative rho (up, down):  4.797E-03 5.165E-03

     total cpu time spent up to now is     9638.8 secs

     total energy              =  -16138.55528300 Ry
     estimated scf accuracy    <       0.00000019 Ry

     total magnetization       =     1.00 Bohr mag/cell
     absolute magnetization    =     1.12 Bohr mag/cell

     iteration # 26     ecut=    50.00 Ry     beta= 0.40
     Davidson diagonalization with overlap

---- Real-time Memory Report at c_bands before calling an iterative solver
           523 MiB given to the printing process from OS
           355 MiB allocation reported by mallinfo(arena+hblkhd)
         73469 MiB available memory on the node where the printing process lives
------------------
     ethr =  3.84E-11,  avg # of iterations =  8.3

     negative rho (up, down):  4.797E-03 5.165E-03

     total cpu time spent up to now is    10022.6 secs

     total energy              =  -16138.55528303 Ry
     estimated scf accuracy    <       0.00000003 Ry

     total magnetization       =     1.00 Bohr mag/cell
     absolute magnetization    =     1.12 Bohr mag/cell

     iteration # 27     ecut=    50.00 Ry     beta= 0.40
     Davidson diagonalization with overlap

---- Real-time Memory Report at c_bands before calling an iterative solver
           523 MiB given to the printing process from OS
           355 MiB allocation reported by mallinfo(arena+hblkhd)
         73592 MiB available memory on the node where the printing process lives
------------------
     ethr =  5.36E-12,  avg # of iterations =  5.9

     negative rho (up, down):  4.797E-03 5.165E-03

     total cpu time spent up to now is    10490.2 secs

     total energy              =  -16138.55528303 Ry
     estimated scf accuracy    <       0.00000011 Ry

     total magnetization       =     1.00 Bohr mag/cell
     absolute magnetization    =     1.12 Bohr mag/cell

     iteration # 28     ecut=    50.00 Ry     beta= 0.40
     Davidson diagonalization with overlap

---- Real-time Memory Report at c_bands before calling an iterative solver
           523 MiB given to the printing process from OS
           355 MiB allocation reported by mallinfo(arena+hblkhd)
         73666 MiB available memory on the node where the printing process lives
------------------
     ethr =  5.36E-12,  avg # of iterations =  7.2

     negative rho (up, down):  4.797E-03 5.165E-03

     total cpu time spent up to now is    10911.5 secs

     total energy              =  -16138.55528304 Ry
     estimated scf accuracy    <          8.2E-09 Ry

     total magnetization       =     1.00 Bohr mag/cell
     absolute magnetization    =     1.12 Bohr mag/cell

     iteration # 29     ecut=    50.00 Ry     beta= 0.40
     Davidson diagonalization with overlap

---- Real-time Memory Report at c_bands before calling an iterative solver
           523 MiB given to the printing process from OS
           355 MiB allocation reported by mallinfo(arena+hblkhd)
         73633 MiB available memory on the node where the printing process lives
------------------
     ethr =  1.70E-12,  avg # of iterations =  7.0

     negative rho (up, down):  4.797E-03 5.165E-03

     total cpu time spent up to now is    11348.4 secs

     total energy              =  -16138.55528304 Ry
     estimated scf accuracy    <          3.9E-09 Ry

     total magnetization       =     1.00 Bohr mag/cell
     absolute magnetization    =     1.12 Bohr mag/cell

     iteration # 30     ecut=    50.00 Ry     beta= 0.40
     Davidson diagonalization with overlap

---- Real-time Memory Report at c_bands before calling an iterative solver
           523 MiB given to the printing process from OS
           355 MiB allocation reported by mallinfo(arena+hblkhd)
         67537 MiB available memory on the node where the printing process lives
------------------
     ethr =  8.11E-13,  avg # of iterations =  2.8

     negative rho (up, down):  4.797E-03 5.165E-03

     total cpu time spent up to now is    11680.1 secs

     total energy              =  -16138.55528304 Ry
     estimated scf accuracy    <          4.9E-09 Ry

     total magnetization       =     1.00 Bohr mag/cell
     absolute magnetization    =     1.12 Bohr mag/cell

     iteration # 31     ecut=    50.00 Ry     beta= 0.40
     Davidson diagonalization with overlap

---- Real-time Memory Report at c_bands before calling an iterative solver
           523 MiB given to the printing process from OS
           355 MiB allocation reported by mallinfo(arena+hblkhd)
         73523 MiB available memory on the node where the printing process lives
------------------
     ethr =  8.11E-13,  avg # of iterations =  4.6

     negative rho (up, down):  4.797E-03 5.165E-03

     total cpu time spent up to now is    12012.0 secs

     total energy              =  -16138.55528305 Ry
     estimated scf accuracy    <          1.3E-09 Ry

     total magnetization       =     1.00 Bohr mag/cell
     absolute magnetization    =     1.12 Bohr mag/cell

     iteration # 32     ecut=    50.00 Ry     beta= 0.40
     Davidson diagonalization with overlap

---- Real-time Memory Report at c_bands before calling an iterative solver
           523 MiB given to the printing process from OS
           355 MiB allocation reported by mallinfo(arena+hblkhd)
         73412 MiB available memory on the node where the printing process lives
------------------
     ethr =  2.72E-13,  avg # of iterations =  7.7

     negative rho (up, down):  4.797E-03 5.165E-03

     total cpu time spent up to now is    12426.0 secs

     total energy              =  -16138.55528305 Ry
     estimated scf accuracy    <          3.7E-10 Ry

     total magnetization       =     1.00 Bohr mag/cell
     absolute magnetization    =     1.12 Bohr mag/cell

     iteration # 33     ecut=    50.00 Ry     beta= 0.40
     Davidson diagonalization with overlap

---- Real-time Memory Report at c_bands before calling an iterative solver
           523 MiB given to the printing process from OS
           355 MiB allocation reported by mallinfo(arena+hblkhd)
         75842 MiB available memory on the node where the printing process lives
------------------
     ethr =  1.00E-13,  avg # of iterations =  5.2

     negative rho (up, down):  4.797E-03 5.165E-03

     total cpu time spent up to now is    12738.3 secs

     total energy              =  -16138.55528305 Ry
     estimated scf accuracy    <          1.1E-10 Ry

     total magnetization       =     1.00 Bohr mag/cell
     absolute magnetization    =     1.12 Bohr mag/cell

     iteration # 34     ecut=    50.00 Ry     beta= 0.40
     Davidson diagonalization with overlap

---- Real-time Memory Report at c_bands before calling an iterative solver
           523 MiB given to the printing process from OS
           355 MiB allocation reported by mallinfo(arena+hblkhd)
         77314 MiB available memory on the node where the printing process lives
------------------
     ethr =  1.00E-13,  avg # of iterations =  7.1

     negative rho (up, down):  4.797E-03 5.165E-03

     total cpu time spent up to now is    13152.7 secs

     total energy              =  -16138.55528305 Ry
     estimated scf accuracy    <          5.6E-10 Ry

     total magnetization       =     1.00 Bohr mag/cell
     absolute magnetization    =     1.12 Bohr mag/cell

     iteration # 35     ecut=    50.00 Ry     beta= 0.40
     Davidson diagonalization with overlap

---- Real-time Memory Report at c_bands before calling an iterative solver
           523 MiB given to the printing process from OS
           355 MiB allocation reported by mallinfo(arena+hblkhd)
         75178 MiB available memory on the node where the printing process lives
------------------
     ethr =  1.00E-13,  avg # of iterations =  2.0

     negative rho (up, down):  4.797E-03 5.165E-03

     total cpu time spent up to now is    13448.1 secs

     total energy              =  -16138.55528305 Ry
     estimated scf accuracy    <          2.9E-10 Ry

     total magnetization       =     1.00 Bohr mag/cell
     absolute magnetization    =     1.12 Bohr mag/cell

     iteration # 36     ecut=    50.00 Ry     beta= 0.40
     Davidson diagonalization with overlap

---- Real-time Memory Report at c_bands before calling an iterative solver
           523 MiB given to the printing process from OS
           355 MiB allocation reported by mallinfo(arena+hblkhd)
         75335 MiB available memory on the node where the printing process lives
------------------
     ethr =  1.00E-13,  avg # of iterations =  7.5

     negative rho (up, down):  4.797E-03 5.165E-03

     total cpu time spent up to now is    13837.4 secs

     total energy              =  -16138.55528305 Ry
     estimated scf accuracy    <          1.4E-10 Ry

     total magnetization       =     1.00 Bohr mag/cell
     absolute magnetization    =     1.12 Bohr mag/cell

     iteration # 37     ecut=    50.00 Ry     beta= 0.40
     Davidson diagonalization with overlap

---- Real-time Memory Report at c_bands before calling an iterative solver
           523 MiB given to the printing process from OS
           355 MiB allocation reported by mallinfo(arena+hblkhd)
         74210 MiB available memory on the node where the printing process lives
------------------
     ethr =  1.00E-13,  avg # of iterations =  1.0

     negative rho (up, down):  4.797E-03 5.165E-03

     Magnetic moment per site  (integrated on atomic sphere of radius R)
     atom   1 (R=0.078)  charge= 10.3731  magn=  0.0015
     atom   2 (R=0.078)  charge= 10.3732  magn=  0.0080
     atom   3 (R=0.078)  charge= 10.3740  magn= -0.0007
     atom   4 (R=0.078)  charge= 10.3743  magn=  0.0147
     atom   5 (R=0.078)  charge= 10.3763  magn=  0.0111
     atom   6 (R=0.078)  charge= 10.3757  magn=  0.0063
     atom   7 (R=0.078)  charge= 10.3783  magn=  0.0052
     atom   8 (R=0.078)  charge= 10.3749  magn=  0.0108
     atom   9 (R=0.078)  charge= 10.3753  magn=  0.0033
     atom  10 (R=0.078)  charge= 10.3820  magn=  0.0364
     atom  11 (R=0.078)  charge= 10.3836  magn=  0.0167
     atom  12 (R=0.078)  charge= 10.3743  magn=  0.0164
     atom  13 (R=0.078)  charge= 10.3732  magn=  0.0029
     atom  14 (R=0.078)  charge= 10.3740  magn= -0.0006
     atom  15 (R=0.078)  charge= 10.3816  magn=  0.0171
     atom  16 (R=0.078)  charge= 10.3760  magn=  0.0042
     atom  17 (R=0.078)  charge=  4.1591  magn=  0.0027
     atom  18 (R=0.078)  charge=  4.1558  magn=  0.0017
     atom  19 (R=0.078)  charge=  4.1586  magn= -0.0000
     atom  20 (R=0.078)  charge=  4.1590  magn=  0.0027
     atom  21 (R=0.078)  charge=  4.1594  magn=  0.0025
     atom  22 (R=0.078)  charge=  4.1750  magn=  0.0122
     atom  23 (R=0.078)  charge=  4.1787  magn=  0.0050
     atom  24 (R=0.078)  charge=  4.1586  magn=  0.0036
     atom  25 (R=0.078)  charge=  4.1591  magn=  0.0022
     atom  26 (R=0.078)  charge=  4.1626  magn=  0.0026
     atom  27 (R=0.078)  charge=  4.1805  magn=  0.0068
     atom  28 (R=0.078)  charge=  4.1668  magn=  0.0125
     atom  29 (R=0.078)  charge=  4.1578  magn=  0.0030
     atom  30 (R=0.078)  charge=  4.1574  magn=  0.0007
     atom  31 (R=0.078)  charge=  4.1566  magn=  0.0017
     atom  32 (R=0.078)  charge=  4.1575  magn=  0.0062
     atom  33 (R=0.078)  charge=  4.1610  magn=  0.0008
     atom  34 (R=0.078)  charge=  4.1591  magn=  0.0009
     atom  35 (R=0.078)  charge=  4.1606  magn= -0.0002
     atom  36 (R=0.078)  charge=  4.1609  magn=  0.0001
     atom  37 (R=0.078)  charge=  4.1601  magn=  0.0005
     atom  38 (R=0.078)  charge=  4.1589  magn=  0.0036
     atom  39 (R=0.078)  charge=  4.1568  magn=  0.0010
     atom  40 (R=0.078)  charge=  4.1595  magn= -0.0001
     atom  41 (R=0.078)  charge=  4.1602  magn=  0.0005
     atom  42 (R=0.078)  charge=  4.1579  magn=  0.0018
     atom  43 (R=0.078)  charge=  4.1526  magn=  0.0025
     atom  44 (R=0.078)  charge=  4.1584  magn=  0.0032
     atom  45 (R=0.078)  charge=  4.1594  magn=  0.0015
     atom  46 (R=0.078)  charge=  4.1597  magn=  0.0002
     atom  47 (R=0.078)  charge=  4.1603  magn=  0.0006
     atom  48 (R=0.078)  charge=  4.1598  magn=  0.0022
     atom  49 (R=0.075)  charge=  8.3762  magn=  0.0118
     atom  50 (R=0.075)  charge=  8.3724  magn=  0.0310
     atom  51 (R=0.075)  charge=  8.3760  magn=  0.0134
     atom  52 (R=0.075)  charge=  8.3726  magn=  0.0330
     atom  53 (R=0.075)  charge=  8.3617  magn=  0.0185
     atom  54 (R=0.033)  charge=  1.2866  magn= -0.0002
     atom  55 (R=0.032)  charge=  2.0230  magn=  0.0004
     atom  56 (R=0.032)  charge=  0.4277  magn=  0.0002
     atom  57 (R=0.032)  charge=  0.4030  magn=  0.0001
     atom  58 (R=0.032)  charge=  0.4171  magn=  0.0001

     total cpu time spent up to now is    14117.1 secs

     End of self-consistent calculation

 ------ SPIN UP ------------


          k = 0.0000 0.0000 0.0000 (112117 PWs)   bands (ev):

   -73.8174 -73.8140 -73.8110 -73.8084 -73.8065 -73.8056 -73.8030 -73.8010
   -73.7962 -73.7943 -73.7915 -73.7894 -73.7876 -73.7548 -73.7501 -73.7406
   -38.2254 -38.2204 -38.2192 -38.1643 -38.1635 -38.1587 -38.1582 -38.1518
   -38.1440 -38.0603 -38.0574 -38.0547 -38.0541 -38.0490 -38.0470 -38.0451
   -38.0317 -38.0299 -38.0274 -38.0268 -38.0229 -38.0223 -38.0200 -38.0179
   -38.0173 -38.0144 -38.0128 -38.0049 -37.9961 -37.9930 -37.9918 -37.9888
   -37.9871 -37.9830 -37.9692 -37.9591 -37.9577 -37.9548 -37.9523 -37.9469
   -37.9257 -37.9189 -37.9144 -37.9137 -37.9100 -37.9050 -37.8708 -37.8674
   -21.5175 -15.4646 -14.5994 -13.7127 -13.6995 -13.6755 -13.6450 -13.6318
   -13.6216 -12.9840 -12.7143 -12.6787 -12.6564 -12.6406 -12.6042 -12.5824
   -12.5409 -12.5081 -12.4742 -12.4578 -12.4466 -12.4446 -12.4232 -12.4219
   -12.4171 -12.2246 -12.2026 -12.1914 -12.1756 -12.1587 -12.1548 -12.1510
   -12.1479 -12.1454  -8.0038  -7.5743  -6.3443  -6.3287  -6.3106  -6.2856
    -6.1557  -5.6166  -5.5752  -5.5532  -5.5349  -5.5297  -5.4959  -5.4473
    -5.4166  -5.3939  -5.3161  -5.2861  -5.2640  -5.1081  -5.0960  -5.0668
    -5.0618  -5.0573  -5.0562  -5.0017  -5.0003  -4.9913  -4.5268  -4.4438
    -4.4045  -4.3496  -4.2965  -4.2867  -4.2707  -4.2497  -4.2354  -4.1853
    -4.0832  -4.0132  -3.9813  -3.9651  -3.9390  -3.7982  -3.7631  -3.7611
    -3.7062  -3.6807  -3.6772  -3.6166  -3.5179  -3.4771  -3.4100  -3.4056
    -3.3763  -3.3687  -3.3017  -3.2283  -3.1997  -3.1858  -3.1670  -3.1458
    -3.1364  -3.1283  -3.1142  -3.1108  -3.0662  -2.9643  -2.8246  -2.7724
    -2.7259  -2.6809  -2.6516  -2.5946  -2.5861  -2.5253  -2.5162  -2.4687
    -2.4638  -2.4371  -2.4356  -2.4299  -2.4032  -2.3457  -2.2962  -2.2129
    -2.1354  -2.0884  -1.9834  -1.9803  -1.9576  -1.9357  -1.8728  -1.8410
    -1.8183  -1.7859  -1.7717  -1.7692  -1.7563  -1.7545  -1.7462  -1.7458
    -1.7405  -1.7121  -1.7047  -1.6698  -1.6628  -1.6482  -1.6386  -1.6127
    -1.5850  -1.5346  -1.5265  -1.5089  -1.4560  -1.4209  -1.3762  -1.3597
    -1.3140  -1.2781  -1.2081  -1.1009  -1.0596  -1.0324  -1.0170  -0.9983
    -0.7312  -0.6961  -0.6918  -0.6896  -0.6803  -0.6764  -0.6513  -0.6482
    -0.6320  -0.3991  -0.3905  -0.3790  -0.3639  -0.3516  -0.3433  -0.3242
     0.1957   1.2535   1.5334

     occupation numbers 
     1.0000   1.0000   1.0000   1.0000   1.0000   1.0000   1.0000   1.0000
     1.0000   1.0000   1.0000   1.0000   1.0000   1.0000   1.0000   1.0000
     1.0000   1.0000   1.0000   1.0000   1.0000   1.0000   1.0000   1.0000
     1.0000   1.0000   1.0000   1.0000   1.0000   1.0000   1.0000   1.0000
     1.0000   1.0000   1.0000   1.0000   1.0000   1.0000   1.0000   1.0000
     1.0000   1.0000   1.0000   1.0000   1.0000   1.0000   1.0000   1.0000
     1.0000   1.0000   1.0000   1.0000   1.0000   1.0000   1.0000   1.0000
     1.0000   1.0000   1.0000   1.0000   1.0000   1.0000   1.0000   1.0000
     1.0000   1.0000   1.0000   1.0000   1.0000   1.0000   1.0000   1.0000
     1.0000   1.0000   1.0000   1.0000   1.0000   1.0000   1.0000   1.0000
     1.0000   1.0000   1.0000   1.0000   1.0000   1.0000   1.0000   1.0000
     1.0000   1.0000   1.0000   1.0000   1.0000   1.0000   1.0000   1.0000
     1.0000   1.0000   1.0000   1.0000   1.0000   1.0000   1.0000   1.0000
     1.0000   1.0000   1.0000   1.0000   1.0000   1.0000   1.0000   1.0000
     1.0000   1.0000   1.0000   1.0000   1.0000   1.0000   1.0000   1.0000
     1.0000   1.0000   1.0000   1.0000   1.0000   1.0000   1.0000   1.0000
     1.0000   1.0000   1.0000   1.0000   1.0000   1.0000   1.0000   1.0000
     1.0000   1.0000   1.0000   1.0000   1.0000   1.0000   1.0000   1.0000
     1.0000   1.0000   1.0000   1.0000   1.0000   1.0000   1.0000   1.0000
     1.0000   1.0000   1.0000   1.0000   1.0000   1.0000   1.0000   1.0000
     1.0000   1.0000   1.0000   1.0000   1.0000   1.0000   1.0000   1.0000
     1.0000   1.0000   1.0000   1.0000   1.0000   1.0000   1.0000   1.0000
     1.0000   1.0000   1.0000   1.0000   1.0000   1.0000   1.0000   1.0000
     1.0000   1.0000   1.0000   1.0000   1.0000   1.0000   1.0000   1.0000
     1.0000   1.0000   1.0000   1.0000   1.0000   1.0000   1.0000   1.0000
     1.0000   1.0000   1.0000   1.0000   1.0000   1.0000   1.0000   1.0000
     1.0000   1.0000   1.0000   1.0000   1.0000   1.0000   1.0000   1.0000
     1.0000   1.0000   1.0000   1.0000   1.0000   1.0000   1.0000   1.0000
     1.0000   1.0000   1.0000   1.0000   1.0000   1.0000   1.0000   1.0000
     1.0000   1.0000   1.0000   1.0000   1.0000   1.0000   1.0000   1.0000
     1.0000   1.0000   1.0000

          k = 0.0000 0.2309 0.0000 (112171 PWs)   bands (ev):

   -73.8173 -73.8142 -73.8110 -73.8086 -73.8063 -73.8055 -73.8030 -73.8009
   -73.7963 -73.7943 -73.7914 -73.7895 -73.7876 -73.7548 -73.7501 -73.7406
   -38.2201 -38.2151 -38.2129 -38.1708 -38.1661 -38.1628 -38.1559 -38.1484
   -38.1414 -38.1041 -38.0794 -38.0772 -38.0532 -38.0496 -38.0460 -38.0332
   -38.0297 -38.0270 -38.0247 -38.0220 -38.0188 -38.0167 -38.0139 -38.0120
   -38.0049 -37.9996 -37.9978 -37.9964 -37.9945 -37.9926 -37.9891 -37.9877
   -37.9862 -37.9829 -37.9695 -37.9623 -37.9602 -37.9552 -37.9523 -37.9470
   -37.9330 -37.9233 -37.9224 -37.9119 -37.9087 -37.9014 -37.8782 -37.8690
   -21.5175 -15.4646 -14.5578 -13.9782 -13.8034 -13.7863 -13.4952 -13.4623
   -13.3256 -12.9680 -12.8079 -12.7362 -12.6984 -12.6885 -12.6560 -12.5886
   -12.5560 -12.5440 -12.4953 -12.4777 -12.4580 -12.4382 -12.4244 -12.3178
   -12.2860 -12.2642 -12.2450 -12.2151 -12.1863 -12.1753 -12.1689 -12.1535
   -12.0962 -12.0810  -8.0038  -7.5743  -6.2828  -6.2714  -6.2392  -6.2376
    -6.1542  -5.6719  -5.6487  -5.6315  -5.5610  -5.5199  -5.4906  -5.4725
    -5.4315  -5.4193  -5.3972  -5.3224  -5.3181  -5.2888  -5.2716  -5.0747
    -5.0676  -5.0194  -5.0034  -4.9575  -4.7408  -4.7356  -4.5931  -4.4867
    -4.4552  -4.3875  -4.3244  -4.2902  -4.2115  -4.1626  -4.1482  -4.1219
    -4.1011  -4.0642  -4.0449  -4.0027  -3.9864  -3.9142  -3.9111  -3.9025
    -3.6764  -3.5771  -3.5444  -3.5107  -3.4708  -3.4453  -3.4400  -3.3855
    -3.3655  -3.3171  -3.2989  -3.2821  -3.2775  -3.2107  -3.1964  -3.1508
    -3.1061  -2.9987  -2.9670  -2.9362  -2.8608  -2.7959  -2.7783  -2.7505
    -2.7261  -2.7196  -2.7009  -2.6884  -2.6603  -2.6376  -2.6120  -2.5463
    -2.5237  -2.5070  -2.4793  -2.4444  -2.3656  -2.3177  -2.2070  -2.1661
    -2.1264  -2.0893  -2.0201  -2.0059  -1.9869  -1.9705  -1.9392  -1.9127
    -1.8931  -1.8655  -1.8548  -1.8209  -1.7946  -1.7660  -1.7492  -1.7386
    -1.7266  -1.7063  -1.6919  -1.6684  -1.6525  -1.6113  -1.5875  -1.5545
    -1.5382  -1.4969  -1.4862  -1.4633  -1.4354  -1.3745  -1.3386  -1.3289
    -1.2987  -1.2832  -1.2488  -1.2275  -1.1699  -1.0739  -1.0494  -1.0284
    -0.8986  -0.7817  -0.7640  -0.7515  -0.5743  -0.5663  -0.5543  -0.5361
    -0.5232  -0.5133  -0.4144  -0.3788  -0.3674  -0.2677  -0.1721  -0.1471
     0.1766   1.2600   1.5648

     occupation numbers 
     1.0000   1.0000   1.0000   1.0000   1.0000   1.0000   1.0000   1.0000
     1.0000   1.0000   1.0000   1.0000   1.0000   1.0000   1.0000   1.0000
     1.0000   1.0000   1.0000   1.0000   1.0000   1.0000   1.0000   1.0000
     1.0000   1.0000   1.0000   1.0000   1.0000   1.0000   1.0000   1.0000
     1.0000   1.0000   1.0000   1.0000   1.0000   1.0000   1.0000   1.0000
     1.0000   1.0000   1.0000   1.0000   1.0000   1.0000   1.0000   1.0000
     1.0000   1.0000   1.0000   1.0000   1.0000   1.0000   1.0000   1.0000
     1.0000   1.0000   1.0000   1.0000   1.0000   1.0000   1.0000   1.0000
     1.0000   1.0000   1.0000   1.0000   1.0000   1.0000   1.0000   1.0000
     1.0000   1.0000   1.0000   1.0000   1.0000   1.0000   1.0000   1.0000
     1.0000   1.0000   1.0000   1.0000   1.0000   1.0000   1.0000   1.0000
     1.0000   1.0000   1.0000   1.0000   1.0000   1.0000   1.0000   1.0000
     1.0000   1.0000   1.0000   1.0000   1.0000   1.0000   1.0000   1.0000
     1.0000   1.0000   1.0000   1.0000   1.0000   1.0000   1.0000   1.0000
     1.0000   1.0000   1.0000   1.0000   1.0000   1.0000   1.0000   1.0000
     1.0000   1.0000   1.0000   1.0000   1.0000   1.0000   1.0000   1.0000
     1.0000   1.0000   1.0000   1.0000   1.0000   1.0000   1.0000   1.0000
     1.0000   1.0000   1.0000   1.0000   1.0000   1.0000   1.0000   1.0000
     1.0000   1.0000   1.0000   1.0000   1.0000   1.0000   1.0000   1.0000
     1.0000   1.0000   1.0000   1.0000   1.0000   1.0000   1.0000   1.0000
     1.0000   1.0000   1.0000   1.0000   1.0000   1.0000   1.0000   1.0000
     1.0000   1.0000   1.0000   1.0000   1.0000   1.0000   1.0000   1.0000
     1.0000   1.0000   1.0000   1.0000   1.0000   1.0000   1.0000   1.0000
     1.0000   1.0000   1.0000   1.0000   1.0000   1.0000   1.0000   1.0000
     1.0000   1.0000   1.0000   1.0000   1.0000   1.0000   1.0000   1.0000
     1.0000   1.0000   1.0000   1.0000   1.0000   1.0000   1.0000   1.0000
     1.0000   1.0000   1.0000   1.0000   1.0000   1.0000   1.0000   1.0000
     1.0000   1.0000   1.0000   1.0000   1.0000   1.0000   1.0000   1.0000
     1.0000   1.0000   1.0000   1.0000   1.0000   1.0000   1.0000   1.0000
     1.0000   1.0000   1.0000   1.0000   1.0000   1.0000   1.0000   1.0000
     1.0000   1.0000   1.0000

          k = 0.0000 0.4619 0.0000 (112236 PWs)   bands (ev):

   -73.8170 -73.8146 -73.8110 -73.8088 -73.8060 -73.8054 -73.8030 -73.8008
   -73.7965 -73.7943 -73.7912 -73.7897 -73.7876 -73.7549 -73.7501 -73.7406
   -38.2069 -38.2044 -38.1909 -38.1884 -38.1764 -38.1667 -38.1604 -38.1474
   -38.1314 -38.1267 -38.1060 -38.1016 -38.0643 -38.0590 -38.0478 -38.0389
   -38.0318 -38.0210 -38.0173 -38.0131 -38.0098 -38.0071 -38.0034 -38.0011
   -37.9991 -37.9978 -37.9973 -37.9916 -37.9889 -37.9860 -37.9828 -37.9792
   -37.9741 -37.9706 -37.9673 -37.9659 -37.9536 -37.9519 -37.9499 -37.9482
   -37.9434 -37.9368 -37.9321 -37.9164 -37.9116 -37.8956 -37.8940 -37.8719
   -21.5175 -15.4646 -14.4362 -14.2347 -13.8731 -13.8543 -13.2663 -13.2310
   -13.0213 -13.0004 -12.9711 -12.9183 -12.8339 -12.7319 -12.7055 -12.6898
   -12.5226 -12.5154 -12.4638 -12.4507 -12.4377 -12.4255 -12.3832 -12.3699
   -12.3513 -12.2850 -12.2173 -12.2025 -12.1781 -12.1598 -12.1579 -12.1535
   -12.0570 -12.0401  -8.0038  -7.5743  -6.1693  -6.1262  -6.1145  -6.0924
    -6.0283  -5.8743  -5.8620  -5.8395  -5.7156  -5.5358  -5.5011  -5.4897
    -5.4615  -5.4470  -5.4386  -5.3949  -5.3752  -5.3274  -5.3029  -5.0680
    -5.0646  -5.0319  -5.0104  -4.8122  -4.6337  -4.5308  -4.4881  -4.4417
    -4.3957  -4.3768  -4.3506  -4.3150  -4.2465  -4.2334  -4.1929  -4.1620
    -4.1309  -4.1203  -4.1043  -4.0782  -4.0667  -4.0534  -4.0438  -3.6995
    -3.5771  -3.5127  -3.4838  -3.4453  -3.4225  -3.3938  -3.3719  -3.3122
    -3.2985  -3.2837  -3.2644  -3.2418  -3.2227  -3.1904  -3.1656  -3.1092
    -3.0689  -3.0627  -3.0118  -2.9736  -2.9551  -2.9174  -2.8661  -2.7782
    -2.7544  -2.7102  -2.6702  -2.6412  -2.6129  -2.5745  -2.5417  -2.4984
    -2.4534  -2.4342  -2.3993  -2.3210  -2.2814  -2.2568  -2.2437  -2.1888
    -2.1295  -2.1001  -2.0480  -2.0218  -2.0122  -2.0020  -1.9849  -1.9563
    -1.9345  -1.9105  -1.8820  -1.8754  -1.8577  -1.8454  -1.8411  -1.8291
    -1.7778  -1.7706  -1.7281  -1.7204  -1.7003  -1.6719  -1.6354  -1.6223
    -1.5957  -1.5565  -1.5356  -1.5065  -1.4365  -1.3921  -1.3035  -1.2914
    -1.2383  -1.2052  -1.1931  -1.1524  -1.1220  -1.0998  -1.0508  -1.0101
    -0.9794  -0.8963  -0.7354  -0.7242  -0.6427  -0.6265  -0.4964  -0.4589
    -0.4454  -0.4351  -0.3996  -0.3821  -0.3149  -0.0958   0.0004   0.0235
     0.1271   1.2697   1.6173

     occupation numbers 
     1.0000   1.0000   1.0000   1.0000   1.0000   1.0000   1.0000   1.0000
     1.0000   1.0000   1.0000   1.0000   1.0000   1.0000   1.0000   1.0000
     1.0000   1.0000   1.0000   1.0000   1.0000   1.0000   1.0000   1.0000
     1.0000   1.0000   1.0000   1.0000   1.0000   1.0000   1.0000   1.0000
     1.0000   1.0000   1.0000   1.0000   1.0000   1.0000   1.0000   1.0000
     1.0000   1.0000   1.0000   1.0000   1.0000   1.0000   1.0000   1.0000
     1.0000   1.0000   1.0000   1.0000   1.0000   1.0000   1.0000   1.0000
     1.0000   1.0000   1.0000   1.0000   1.0000   1.0000   1.0000   1.0000
     1.0000   1.0000   1.0000   1.0000   1.0000   1.0000   1.0000   1.0000
     1.0000   1.0000   1.0000   1.0000   1.0000   1.0000   1.0000   1.0000
     1.0000   1.0000   1.0000   1.0000   1.0000   1.0000   1.0000   1.0000
     1.0000   1.0000   1.0000   1.0000   1.0000   1.0000   1.0000   1.0000
     1.0000   1.0000   1.0000   1.0000   1.0000   1.0000   1.0000   1.0000
     1.0000   1.0000   1.0000   1.0000   1.0000   1.0000   1.0000   1.0000
     1.0000   1.0000   1.0000   1.0000   1.0000   1.0000   1.0000   1.0000
     1.0000   1.0000   1.0000   1.0000   1.0000   1.0000   1.0000   1.0000
     1.0000   1.0000   1.0000   1.0000   1.0000   1.0000   1.0000   1.0000
     1.0000   1.0000   1.0000   1.0000   1.0000   1.0000   1.0000   1.0000
     1.0000   1.0000   1.0000   1.0000   1.0000   1.0000   1.0000   1.0000
     1.0000   1.0000   1.0000   1.0000   1.0000   1.0000   1.0000   1.0000
     1.0000   1.0000   1.0000   1.0000   1.0000   1.0000   1.0000   1.0000
     1.0000   1.0000   1.0000   1.0000   1.0000   1.0000   1.0000   1.0000
     1.0000   1.0000   1.0000   1.0000   1.0000   1.0000   1.0000   1.0000
     1.0000   1.0000   1.0000   1.0000   1.0000   1.0000   1.0000   1.0000
     1.0000   1.0000   1.0000   1.0000   1.0000   1.0000   1.0000   1.0000
     1.0000   1.0000   1.0000   1.0000   1.0000   1.0000   1.0000   1.0000
     1.0000   1.0000   1.0000   1.0000   1.0000   1.0000   1.0000   1.0000
     1.0000   1.0000   1.0000   1.0000   1.0000   1.0000   1.0000   1.0000
     1.0000   1.0000   1.0000   1.0000   1.0000   1.0000   1.0000   1.0000
     1.0000   1.0000   1.0000   1.0000   1.0000   1.0000   1.0000   1.0000
     1.0000   1.0000   1.0000

          k = 0.2000 0.3464 0.0000 (112231 PWs)   bands (ev):

   -73.8169 -73.8147 -73.8110 -73.8086 -73.8062 -73.8053 -73.8031 -73.8010
   -73.7963 -73.7944 -73.7912 -73.7897 -73.7876 -73.7549 -73.7501 -73.7406
   -38.2124 -38.2036 -38.2004 -38.1796 -38.1765 -38.1648 -38.1560 -38.1486
   -38.1327 -38.1242 -38.1169 -38.0780 -38.0600 -38.0564 -38.0480 -38.0377
   -38.0325 -38.0294 -38.0257 -38.0201 -38.0163 -38.0098 -38.0034 -38.0005
   -37.9958 -37.9931 -37.9913 -37.9896 -37.9872 -37.9846 -37.9831 -37.9817
   -37.9767 -37.9731 -37.9696 -37.9663 -37.9594 -37.9555 -37.9523 -37.9477
   -37.9415 -37.9324 -37.9265 -37.9215 -37.9054 -37.9003 -37.8870 -37.8725
   -21.5175 -15.4646 -14.4760 -14.1044 -14.0597 -13.5679 -13.5651 -13.1756
   -13.1193 -13.0103 -12.9362 -12.8109 -12.7905 -12.7114 -12.6723 -12.6063
   -12.5958 -12.5773 -12.5724 -12.4584 -12.4255 -12.3920 -12.3776 -12.3141
   -12.2909 -12.2738 -12.2528 -12.2331 -12.2213 -12.1556 -12.1510 -12.1086
   -12.0959 -12.0364  -8.0038  -7.5743  -6.1839  -6.1737  -6.1436  -6.1278
    -6.1060  -5.7672  -5.7383  -5.7219  -5.6823  -5.6451  -5.6027  -5.5674
    -5.5062  -5.4746  -5.3565  -5.3355  -5.2852  -5.2769  -5.2442  -5.2297
    -5.0963  -4.9064  -4.8909  -4.8169  -4.7520  -4.6075  -4.4924  -4.4716
    -4.3991  -4.3681  -4.3388  -4.3055  -4.2769  -4.2641  -4.2358  -4.2277
    -4.1740  -4.1237  -4.1084  -4.0930  -4.0564  -3.7675  -3.7375  -3.7276
    -3.7197  -3.6949  -3.6148  -3.4991  -3.4323  -3.4025  -3.3533  -3.3238
    -3.3002  -3.2472  -3.2274  -3.2080  -3.1704  -3.1516  -3.1095  -3.0925
    -3.0427  -3.0168  -2.9917  -2.9528  -2.9451  -2.9273  -2.9171  -2.9016
    -2.8200  -2.7447  -2.7237  -2.6553  -2.6372  -2.5637  -2.5233  -2.4806
    -2.4673  -2.4403  -2.3883  -2.3636  -2.3168  -2.2223  -2.1863  -2.1662
    -2.1327  -2.1260  -2.0978  -2.0895  -2.0196  -2.0004  -1.9827  -1.9529
    -1.9297  -1.9076  -1.8846  -1.8589  -1.8390  -1.8301  -1.8014  -1.7548
    -1.7394  -1.7207  -1.7162  -1.6806  -1.6729  -1.6241  -1.5971  -1.5763
    -1.5676  -1.5427  -1.5388  -1.5096  -1.4295  -1.3944  -1.3821  -1.3670
    -1.2930  -1.2273  -1.2092  -1.1868  -1.1578  -1.1199  -1.0351  -1.0178
    -0.8758  -0.8492  -0.6825  -0.6732  -0.6397  -0.6324  -0.6169  -0.5427
    -0.5338  -0.4395  -0.3769  -0.2565  -0.2121  -0.2009  -0.1600   0.0706
     0.1398   1.2826   1.5895

     occupation numbers 
     1.0000   1.0000   1.0000   1.0000   1.0000   1.0000   1.0000   1.0000
     1.0000   1.0000   1.0000   1.0000   1.0000   1.0000   1.0000   1.0000
     1.0000   1.0000   1.0000   1.0000   1.0000   1.0000   1.0000   1.0000
     1.0000   1.0000   1.0000   1.0000   1.0000   1.0000   1.0000   1.0000
     1.0000   1.0000   1.0000   1.0000   1.0000   1.0000   1.0000   1.0000
     1.0000   1.0000   1.0000   1.0000   1.0000   1.0000   1.0000   1.0000
     1.0000   1.0000   1.0000   1.0000   1.0000   1.0000   1.0000   1.0000
     1.0000   1.0000   1.0000   1.0000   1.0000   1.0000   1.0000   1.0000
     1.0000   1.0000   1.0000   1.0000   1.0000   1.0000   1.0000   1.0000
     1.0000   1.0000   1.0000   1.0000   1.0000   1.0000   1.0000   1.0000
     1.0000   1.0000   1.0000   1.0000   1.0000   1.0000   1.0000   1.0000
     1.0000   1.0000   1.0000   1.0000   1.0000   1.0000   1.0000   1.0000
     1.0000   1.0000   1.0000   1.0000   1.0000   1.0000   1.0000   1.0000
     1.0000   1.0000   1.0000   1.0000   1.0000   1.0000   1.0000   1.0000
     1.0000   1.0000   1.0000   1.0000   1.0000   1.0000   1.0000   1.0000
     1.0000   1.0000   1.0000   1.0000   1.0000   1.0000   1.0000   1.0000
     1.0000   1.0000   1.0000   1.0000   1.0000   1.0000   1.0000   1.0000
     1.0000   1.0000   1.0000   1.0000   1.0000   1.0000   1.0000   1.0000
     1.0000   1.0000   1.0000   1.0000   1.0000   1.0000   1.0000   1.0000
     1.0000   1.0000   1.0000   1.0000   1.0000   1.0000   1.0000   1.0000
     1.0000   1.0000   1.0000   1.0000   1.0000   1.0000   1.0000   1.0000
     1.0000   1.0000   1.0000   1.0000   1.0000   1.0000   1.0000   1.0000
     1.0000   1.0000   1.0000   1.0000   1.0000   1.0000   1.0000   1.0000
     1.0000   1.0000   1.0000   1.0000   1.0000   1.0000   1.0000   1.0000
     1.0000   1.0000   1.0000   1.0000   1.0000   1.0000   1.0000   1.0000
     1.0000   1.0000   1.0000   1.0000   1.0000   1.0000   1.0000   1.0000
     1.0000   1.0000   1.0000   1.0000   1.0000   1.0000   1.0000   1.0000
     1.0000   1.0000   1.0000   1.0000   1.0000   1.0000   1.0000   1.0000
     1.0000   1.0000   1.0000   1.0000   1.0000   1.0000   1.0000   1.0000
     1.0000   1.0000   1.0000   1.0000   1.0000   1.0000   1.0000   1.0000
     1.0000   1.0000   1.0000

          k = 0.2000 0.5774 0.0000 (112237 PWs)   bands (ev):

   -73.8168 -73.8147 -73.8111 -73.8089 -73.8060 -73.8052 -73.8031 -73.8009
   -73.7964 -73.7944 -73.7912 -73.7897 -73.7876 -73.7549 -73.7501 -73.7406
   -38.2013 -38.1974 -38.1871 -38.1839 -38.1771 -38.1716 -38.1657 -38.1510
   -38.1477 -38.1333 -38.0931 -38.0916 -38.0875 -38.0514 -38.0459 -38.0404
   -38.0342 -38.0310 -38.0180 -38.0176 -38.0078 -38.0054 -38.0031 -38.0014
   -38.0003 -37.9975 -37.9926 -37.9889 -37.9862 -37.9825 -37.9755 -37.9711
   -37.9697 -37.9671 -37.9621 -37.9595 -37.9567 -37.9534 -37.9508 -37.9465
   -37.9429 -37.9382 -37.9323 -37.9295 -37.9180 -37.8978 -37.8889 -37.8756
   -21.5175 -15.4646 -14.3371 -14.2936 -14.1153 -13.5962 -13.3026 -13.2942
   -12.9550 -12.9493 -12.8892 -12.8542 -12.8426 -12.8028 -12.7934 -12.6589
   -12.6316 -12.6038 -12.4929 -12.4849 -12.3847 -12.3730 -12.3595 -12.3241
   -12.3102 -12.2976 -12.2594 -12.2340 -12.2329 -12.1313 -12.1212 -12.1189
   -12.0792 -12.0168  -8.0038  -7.5743  -6.1637  -6.0583  -6.0102  -5.9870
    -5.9221  -5.8970  -5.8768  -5.8507  -5.8100  -5.7442  -5.6878  -5.6250
    -5.6138  -5.5416  -5.3644  -5.2675  -5.2558  -5.2202  -5.2050  -5.1717
    -5.1557  -4.8571  -4.8328  -4.7544  -4.6348  -4.5794  -4.5489  -4.5222
    -4.4754  -4.4192  -4.3997  -4.3200  -4.3127  -4.2400  -4.2334  -4.2135
    -4.1897  -4.1659  -4.1231  -4.0961  -3.9544  -3.9508  -3.7936  -3.6642
    -3.6528  -3.5682  -3.4430  -3.3940  -3.3626  -3.3302  -3.3103  -3.2870
    -3.2736  -3.2624  -3.2455  -3.2352  -3.2166  -3.2020  -3.1444  -3.1262
    -3.1028  -3.0813  -3.0629  -3.0364  -3.0089  -2.9601  -2.8797  -2.8319
    -2.7544  -2.7287  -2.6988  -2.6733  -2.6340  -2.5573  -2.5201  -2.4584
    -2.3993  -2.3344  -2.3210  -2.3092  -2.2556  -2.2077  -2.1805  -2.1363
    -2.1217  -2.1111  -2.0806  -2.0626  -2.0185  -1.9880  -1.9679  -1.9567
    -1.9396  -1.9191  -1.8983  -1.8817  -1.8708  -1.8571  -1.8443  -1.8362
    -1.8249  -1.7836  -1.7686  -1.7409  -1.7105  -1.6899  -1.6817  -1.6521
    -1.6193  -1.5739  -1.5623  -1.5091  -1.4795  -1.4673  -1.4154  -1.3349
    -1.2860  -1.1965  -1.1615  -1.1452  -1.0984  -1.0819  -1.0090  -0.9994
    -0.8146  -0.8001  -0.7029  -0.6920  -0.6608  -0.6463  -0.5935  -0.5839
    -0.5671  -0.4156  -0.2798  -0.2711  -0.1897  -0.1260  -0.0676   0.0899
     0.1875   1.2917   1.6058

     occupation numbers 
     1.0000   1.0000   1.0000   1.0000   1.0000   1.0000   1.0000   1.0000
     1.0000   1.0000   1.0000   1.0000   1.0000   1.0000   1.0000   1.0000
     1.0000   1.0000   1.0000   1.0000   1.0000   1.0000   1.0000   1.0000
     1.0000   1.0000   1.0000   1.0000   1.0000   1.0000   1.0000   1.0000
     1.0000   1.0000   1.0000   1.0000   1.0000   1.0000   1.0000   1.0000
     1.0000   1.0000   1.0000   1.0000   1.0000   1.0000   1.0000   1.0000
     1.0000   1.0000   1.0000   1.0000   1.0000   1.0000   1.0000   1.0000
     1.0000   1.0000   1.0000   1.0000   1.0000   1.0000   1.0000   1.0000
     1.0000   1.0000   1.0000   1.0000   1.0000   1.0000   1.0000   1.0000
     1.0000   1.0000   1.0000   1.0000   1.0000   1.0000   1.0000   1.0000
     1.0000   1.0000   1.0000   1.0000   1.0000   1.0000   1.0000   1.0000
     1.0000   1.0000   1.0000   1.0000   1.0000   1.0000   1.0000   1.0000
     1.0000   1.0000   1.0000   1.0000   1.0000   1.0000   1.0000   1.0000
     1.0000   1.0000   1.0000   1.0000   1.0000   1.0000   1.0000   1.0000
     1.0000   1.0000   1.0000   1.0000   1.0000   1.0000   1.0000   1.0000
     1.0000   1.0000   1.0000   1.0000   1.0000   1.0000   1.0000   1.0000
     1.0000   1.0000   1.0000   1.0000   1.0000   1.0000   1.0000   1.0000
     1.0000   1.0000   1.0000   1.0000   1.0000   1.0000   1.0000   1.0000
     1.0000   1.0000   1.0000   1.0000   1.0000   1.0000   1.0000   1.0000
     1.0000   1.0000   1.0000   1.0000   1.0000   1.0000   1.0000   1.0000
     1.0000   1.0000   1.0000   1.0000   1.0000   1.0000   1.0000   1.0000
     1.0000   1.0000   1.0000   1.0000   1.0000   1.0000   1.0000   1.0000
     1.0000   1.0000   1.0000   1.0000   1.0000   1.0000   1.0000   1.0000
     1.0000   1.0000   1.0000   1.0000   1.0000   1.0000   1.0000   1.0000
     1.0000   1.0000   1.0000   1.0000   1.0000   1.0000   1.0000   1.0000
     1.0000   1.0000   1.0000   1.0000   1.0000   1.0000   1.0000   1.0000
     1.0000   1.0000   1.0000   1.0000   1.0000   1.0000   1.0000   1.0000
     1.0000   1.0000   1.0000   1.0000   1.0000   1.0000   1.0000   1.0000
     1.0000   1.0000   1.0000   1.0000   1.0000   1.0000   1.0000   1.0000
     1.0000   1.0000   1.0000   1.0000   1.0000   1.0000   1.0000   1.0000
     1.0000   1.0000   1.0000

          k =-0.2000 0.1155 0.0000 (112171 PWs)   bands (ev):

   -73.8173 -73.8141 -73.8110 -73.8088 -73.8063 -73.8053 -73.8031 -73.8010
   -73.7962 -73.7944 -73.7915 -73.7894 -73.7876 -73.7548 -73.7501 -73.7406
   -38.2202 -38.2154 -38.2126 -38.1693 -38.1655 -38.1644 -38.1594 -38.1467
   -38.1402 -38.1034 -38.0806 -38.0765 -38.0517 -38.0491 -38.0451 -38.0348
   -38.0287 -38.0281 -38.0255 -38.0243 -38.0172 -38.0164 -38.0141 -38.0128
   -38.0046 -38.0012 -37.9981 -37.9967 -37.9938 -37.9923 -37.9887 -37.9868
   -37.9860 -37.9828 -37.9695 -37.9628 -37.9603 -37.9547 -37.9523 -37.9470
   -37.9333 -37.9252 -37.9213 -37.9110 -37.9090 -37.9009 -37.8753 -37.8721
   -21.5175 -15.4646 -14.5578 -13.9769 -13.8034 -13.7890 -13.4801 -13.4754
   -13.3262 -12.9684 -12.7930 -12.7603 -12.6929 -12.6831 -12.6583 -12.5883
   -12.5660 -12.5226 -12.4987 -12.4798 -12.4709 -12.4333 -12.4227 -12.3090
   -12.2955 -12.2625 -12.2451 -12.2143 -12.1876 -12.1766 -12.1686 -12.1514
   -12.0959 -12.0817  -8.0038  -7.5743  -6.2868  -6.2660  -6.2455  -6.2326
    -6.1542  -5.6802  -5.6409  -5.6265  -5.5508  -5.5331  -5.4939  -5.4703
    -5.4401  -5.4215  -5.3854  -5.3295  -5.3120  -5.2838  -5.2779  -5.0833
    -5.0641  -5.0171  -5.0010  -4.9529  -4.7417  -4.7367  -4.5749  -4.5167
    -4.4519  -4.3739  -4.3417  -4.2819  -4.2097  -4.1635  -4.1490  -4.1241
    -4.1013  -4.0676  -4.0417  -3.9977  -3.9853  -3.9167  -3.9069  -3.8983
    -3.6714  -3.5918  -3.5378  -3.5048  -3.4801  -3.4625  -3.4465  -3.3768
    -3.3676  -3.3210  -3.2970  -3.2807  -3.2668  -3.2078  -3.1963  -3.1563
    -3.1053  -2.9880  -2.9667  -2.9320  -2.8359  -2.8043  -2.7783  -2.7517
    -2.7329  -2.7164  -2.7002  -2.6920  -2.6780  -2.6547  -2.6081  -2.5487
    -2.5215  -2.4861  -2.4717  -2.4482  -2.3719  -2.3149  -2.1999  -2.1774
    -2.1361  -2.0910  -2.0236  -2.0074  -1.9815  -1.9681  -1.9467  -1.9095
    -1.8872  -1.8682  -1.8439  -1.8233  -1.8084  -1.7765  -1.7472  -1.7324
    -1.7126  -1.7033  -1.6875  -1.6689  -1.6555  -1.6106  -1.5782  -1.5578
    -1.5307  -1.5074  -1.4972  -1.4374  -1.4282  -1.3750  -1.3534  -1.3316
    -1.3155  -1.2779  -1.2582  -1.2253  -1.1674  -1.0828  -1.0474  -1.0173
    -0.9017  -0.7776  -0.7606  -0.7423  -0.5872  -0.5707  -0.5541  -0.5349
    -0.5203  -0.5119  -0.4166  -0.3847  -0.3606  -0.2657  -0.1738  -0.1469
     0.1754   1.2818   1.5409

     occupation numbers 
     1.0000   1.0000   1.0000   1.0000   1.0000   1.0000   1.0000   1.0000
     1.0000   1.0000   1.0000   1.0000   1.0000   1.0000   1.0000   1.0000
     1.0000   1.0000   1.0000   1.0000   1.0000   1.0000   1.0000   1.0000
     1.0000   1.0000   1.0000   1.0000   1.0000   1.0000   1.0000   1.0000
     1.0000   1.0000   1.0000   1.0000   1.0000   1.0000   1.0000   1.0000
     1.0000   1.0000   1.0000   1.0000   1.0000   1.0000   1.0000   1.0000
     1.0000   1.0000   1.0000   1.0000   1.0000   1.0000   1.0000   1.0000
     1.0000   1.0000   1.0000   1.0000   1.0000   1.0000   1.0000   1.0000
     1.0000   1.0000   1.0000   1.0000   1.0000   1.0000   1.0000   1.0000
     1.0000   1.0000   1.0000   1.0000   1.0000   1.0000   1.0000   1.0000
     1.0000   1.0000   1.0000   1.0000   1.0000   1.0000   1.0000   1.0000
     1.0000   1.0000   1.0000   1.0000   1.0000   1.0000   1.0000   1.0000
     1.0000   1.0000   1.0000   1.0000   1.0000   1.0000   1.0000   1.0000
     1.0000   1.0000   1.0000   1.0000   1.0000   1.0000   1.0000   1.0000
     1.0000   1.0000   1.0000   1.0000   1.0000   1.0000   1.0000   1.0000
     1.0000   1.0000   1.0000   1.0000   1.0000   1.0000   1.0000   1.0000
     1.0000   1.0000   1.0000   1.0000   1.0000   1.0000   1.0000   1.0000
     1.0000   1.0000   1.0000   1.0000   1.0000   1.0000   1.0000   1.0000
     1.0000   1.0000   1.0000   1.0000   1.0000   1.0000   1.0000   1.0000
     1.0000   1.0000   1.0000   1.0000   1.0000   1.0000   1.0000   1.0000
     1.0000   1.0000   1.0000   1.0000   1.0000   1.0000   1.0000   1.0000
     1.0000   1.0000   1.0000   1.0000   1.0000   1.0000   1.0000   1.0000
     1.0000   1.0000   1.0000   1.0000   1.0000   1.0000   1.0000   1.0000
     1.0000   1.0000   1.0000   1.0000   1.0000   1.0000   1.0000   1.0000
     1.0000   1.0000   1.0000   1.0000   1.0000   1.0000   1.0000   1.0000
     1.0000   1.0000   1.0000   1.0000   1.0000   1.0000   1.0000   1.0000
     1.0000   1.0000   1.0000   1.0000   1.0000   1.0000   1.0000   1.0000
     1.0000   1.0000   1.0000   1.0000   1.0000   1.0000   1.0000   1.0000
     1.0000   1.0000   1.0000   1.0000   1.0000   1.0000   1.0000   1.0000
     1.0000   1.0000   1.0000   1.0000   1.0000   1.0000   1.0000   1.0000
     1.0000   1.0000   1.0000

          k = 0.2000 0.1155 0.0000 (112171 PWs)   bands (ev):

   -73.8172 -73.8143 -73.8110 -73.8085 -73.8064 -73.8053 -73.8031 -73.8010
   -73.7961 -73.7944 -73.7914 -73.7895 -73.7876 -73.7548 -73.7501 -73.7406
   -38.2199 -38.2160 -38.2122 -38.1701 -38.1665 -38.1632 -38.1582 -38.1470
   -38.1403 -38.1037 -38.0805 -38.0769 -38.0518 -38.0494 -38.0456 -38.0349
   -38.0287 -38.0268 -38.0257 -38.0239 -38.0175 -38.0155 -38.0146 -38.0130
   -38.0049 -38.0003 -37.9981 -37.9966 -37.9941 -37.9919 -37.9899 -37.9869
   -37.9859 -37.9827 -37.9693 -37.9621 -37.9610 -37.9548 -37.9522 -37.9470
   -37.9332 -37.9245 -37.9208 -37.9130 -37.9082 -37.9010 -37.8768 -37.8704
   -21.5175 -15.4646 -14.5578 -13.9771 -13.8025 -13.7896 -13.4793 -13.4771
   -13.3254 -12.9685 -12.7932 -12.7595 -12.6924 -12.6842 -12.6586 -12.5882
   -12.5672 -12.5209 -12.4965 -12.4816 -12.4704 -12.4357 -12.4220 -12.3044
   -12.2953 -12.2656 -12.2482 -12.2095 -12.1932 -12.1735 -12.1717 -12.1489
   -12.0930 -12.0842  -8.0038  -7.5743  -6.2814  -6.2677  -6.2483  -6.2340
    -6.1542  -5.6741  -5.6444  -5.6241  -5.5519  -5.5374  -5.4910  -5.4729
    -5.4458  -5.4252  -5.3724  -5.3290  -5.3155  -5.2844  -5.2768  -5.0791
    -5.0720  -5.0150  -5.0047  -4.9474  -4.7426  -4.7374  -4.5706  -4.5126
    -4.4491  -4.3956  -4.3407  -4.2755  -4.2089  -4.1641  -4.1509  -4.1244
    -4.1009  -4.0578  -4.0416  -4.0047  -3.9836  -3.9142  -3.9111  -3.9007
    -3.6638  -3.5721  -3.5531  -3.5118  -3.4701  -3.4589  -3.4428  -3.3856
    -3.3736  -3.3133  -3.3033  -3.2842  -3.2613  -3.2148  -3.1983  -3.1489
    -3.1116  -3.0039  -2.9619  -2.9143  -2.8321  -2.8103  -2.7855  -2.7543
    -2.7398  -2.7141  -2.7004  -2.6941  -2.6697  -2.6404  -2.6012  -2.5518
    -2.5350  -2.5025  -2.4765  -2.4323  -2.3686  -2.3083  -2.2050  -2.1832
    -2.1252  -2.0930  -2.0211  -2.0022  -1.9743  -1.9708  -1.9327  -1.9104
    -1.9025  -1.8797  -1.8404  -1.8281  -1.8096  -1.7834  -1.7475  -1.7418
    -1.7147  -1.6955  -1.6826  -1.6603  -1.6421  -1.6285  -1.5924  -1.5465
    -1.5346  -1.5066  -1.4615  -1.4472  -1.4266  -1.4064  -1.3583  -1.3131
    -1.3070  -1.2986  -1.2528  -1.2126  -1.1723  -1.0667  -1.0476  -1.0303
    -0.9008  -0.7678  -0.7594  -0.7566  -0.5988  -0.5636  -0.5497  -0.5343
    -0.5226  -0.5169  -0.4119  -0.3854  -0.3569  -0.2665  -0.1700  -0.1509
     0.1761   1.2764   1.5474

     occupation numbers 
     1.0000   1.0000   1.0000   1.0000   1.0000   1.0000   1.0000   1.0000
     1.0000   1.0000   1.0000   1.0000   1.0000   1.0000   1.0000   1.0000
     1.0000   1.0000   1.0000   1.0000   1.0000   1.0000   1.0000   1.0000
     1.0000   1.0000   1.0000   1.0000   1.0000   1.0000   1.0000   1.0000
     1.0000   1.0000   1.0000   1.0000   1.0000   1.0000   1.0000   1.0000
     1.0000   1.0000   1.0000   1.0000   1.0000   1.0000   1.0000   1.0000
     1.0000   1.0000   1.0000   1.0000   1.0000   1.0000   1.0000   1.0000
     1.0000   1.0000   1.0000   1.0000   1.0000   1.0000   1.0000   1.0000
     1.0000   1.0000   1.0000   1.0000   1.0000   1.0000   1.0000   1.0000
     1.0000   1.0000   1.0000   1.0000   1.0000   1.0000   1.0000   1.0000
     1.0000   1.0000   1.0000   1.0000   1.0000   1.0000   1.0000   1.0000
     1.0000   1.0000   1.0000   1.0000   1.0000   1.0000   1.0000   1.0000
     1.0000   1.0000   1.0000   1.0000   1.0000   1.0000   1.0000   1.0000
     1.0000   1.0000   1.0000   1.0000   1.0000   1.0000   1.0000   1.0000
     1.0000   1.0000   1.0000   1.0000   1.0000   1.0000   1.0000   1.0000
     1.0000   1.0000   1.0000   1.0000   1.0000   1.0000   1.0000   1.0000
     1.0000   1.0000   1.0000   1.0000   1.0000   1.0000   1.0000   1.0000
     1.0000   1.0000   1.0000   1.0000   1.0000   1.0000   1.0000   1.0000
     1.0000   1.0000   1.0000   1.0000   1.0000   1.0000   1.0000   1.0000
     1.0000   1.0000   1.0000   1.0000   1.0000   1.0000   1.0000   1.0000
     1.0000   1.0000   1.0000   1.0000   1.0000   1.0000   1.0000   1.0000
     1.0000   1.0000   1.0000   1.0000   1.0000   1.0000   1.0000   1.0000
     1.0000   1.0000   1.0000   1.0000   1.0000   1.0000   1.0000   1.0000
     1.0000   1.0000   1.0000   1.0000   1.0000   1.0000   1.0000   1.0000
     1.0000   1.0000   1.0000   1.0000   1.0000   1.0000   1.0000   1.0000
     1.0000   1.0000   1.0000   1.0000   1.0000   1.0000   1.0000   1.0000
     1.0000   1.0000   1.0000   1.0000   1.0000   1.0000   1.0000   1.0000
     1.0000   1.0000   1.0000   1.0000   1.0000   1.0000   1.0000   1.0000
     1.0000   1.0000   1.0000   1.0000   1.0000   1.0000   1.0000   1.0000
     1.0000   1.0000   1.0000   1.0000   1.0000   1.0000   1.0000   1.0000
     1.0000   1.0000   1.0000

          k =-0.4000 0.2309 0.0000 (112236 PWs)   bands (ev):

   -73.8170 -73.8143 -73.8111 -73.8093 -73.8061 -73.8047 -73.8033 -73.8009
   -73.7962 -73.7945 -73.7915 -73.7894 -73.7876 -73.7549 -73.7501 -73.7406
   -38.2081 -38.2024 -38.1909 -38.1846 -38.1835 -38.1647 -38.1617 -38.1476
   -38.1308 -38.1244 -38.1063 -38.1015 -38.0636 -38.0584 -38.0476 -38.0404
   -38.0297 -38.0252 -38.0150 -38.0127 -38.0099 -38.0087 -38.0047 -38.0002
   -37.9990 -37.9979 -37.9958 -37.9932 -37.9881 -37.9864 -37.9828 -37.9799
   -37.9757 -37.9699 -37.9665 -37.9658 -37.9538 -37.9518 -37.9499 -37.9473
   -37.9451 -37.9388 -37.9303 -37.9176 -37.9096 -37.8927 -37.8910 -37.8766
   -21.5175 -15.4646 -14.4366 -14.2335 -13.8705 -13.8586 -13.2504 -13.2447
   -13.0258 -12.9985 -12.9760 -12.9116 -12.8333 -12.7340 -12.7046 -12.6858
   -12.5373 -12.5101 -12.4625 -12.4537 -12.4313 -12.4239 -12.3872 -12.3642
   -12.3537 -12.2828 -12.2229 -12.2009 -12.1765 -12.1621 -12.1555 -12.1529
   -12.0569 -12.0408  -8.0038  -7.5743  -6.1689  -6.1330  -6.1142  -6.0901
    -6.0238  -5.8776  -5.8572  -5.8405  -5.7126  -5.5354  -5.5122  -5.4910
    -5.4553  -5.4477  -5.4385  -5.3900  -5.3806  -5.3183  -5.3109  -5.0834
    -5.0591  -5.0248  -5.0066  -4.8058  -4.6105  -4.5581  -4.4833  -4.4433
    -4.4150  -4.3746  -4.3534  -4.3125  -4.2476  -4.2237  -4.1968  -4.1629
    -4.1234  -4.1152  -4.1029  -4.0760  -4.0698  -4.0552  -4.0439  -3.6934
    -3.5731  -3.5261  -3.4800  -3.4608  -3.4272  -3.4003  -3.3601  -3.3201
    -3.3036  -3.2822  -3.2617  -3.2435  -3.2165  -3.2008  -3.1521  -3.1173
    -3.0748  -3.0500  -3.0161  -2.9745  -2.9400  -2.9081  -2.8425  -2.7828
    -2.7452  -2.7167  -2.6684  -2.6351  -2.6170  -2.5895  -2.5584  -2.5010
    -2.4343  -2.4284  -2.4020  -2.3388  -2.2872  -2.2559  -2.2467  -2.1792
    -2.1291  -2.1199  -2.0620  -2.0337  -2.0200  -1.9963  -1.9666  -1.9385
    -1.9198  -1.9028  -1.8922  -1.8718  -1.8669  -1.8539  -1.8405  -1.8260
    -1.7936  -1.7639  -1.7227  -1.7009  -1.6976  -1.6742  -1.6548  -1.6166
    -1.5944  -1.5656  -1.5074  -1.4804  -1.4540  -1.3617  -1.3346  -1.3039
    -1.2679  -1.2237  -1.1754  -1.1308  -1.1235  -1.1051  -1.0793  -0.9911
    -0.9728  -0.8813  -0.7375  -0.7218  -0.6428  -0.6256  -0.5116  -0.4576
    -0.4518  -0.4266  -0.4057  -0.3789  -0.3055  -0.1029  -0.0008   0.0295
     0.1216   1.3278   1.5529

     occupation numbers 
     1.0000   1.0000   1.0000   1.0000   1.0000   1.0000   1.0000   1.0000
     1.0000   1.0000   1.0000   1.0000   1.0000   1.0000   1.0000   1.0000
     1.0000   1.0000   1.0000   1.0000   1.0000   1.0000   1.0000   1.0000
     1.0000   1.0000   1.0000   1.0000   1.0000   1.0000   1.0000   1.0000
     1.0000   1.0000   1.0000   1.0000   1.0000   1.0000   1.0000   1.0000
     1.0000   1.0000   1.0000   1.0000   1.0000   1.0000   1.0000   1.0000
     1.0000   1.0000   1.0000   1.0000   1.0000   1.0000   1.0000   1.0000
     1.0000   1.0000   1.0000   1.0000   1.0000   1.0000   1.0000   1.0000
     1.0000   1.0000   1.0000   1.0000   1.0000   1.0000   1.0000   1.0000
     1.0000   1.0000   1.0000   1.0000   1.0000   1.0000   1.0000   1.0000
     1.0000   1.0000   1.0000   1.0000   1.0000   1.0000   1.0000   1.0000
     1.0000   1.0000   1.0000   1.0000   1.0000   1.0000   1.0000   1.0000
     1.0000   1.0000   1.0000   1.0000   1.0000   1.0000   1.0000   1.0000
     1.0000   1.0000   1.0000   1.0000   1.0000   1.0000   1.0000   1.0000
     1.0000   1.0000   1.0000   1.0000   1.0000   1.0000   1.0000   1.0000
     1.0000   1.0000   1.0000   1.0000   1.0000   1.0000   1.0000   1.0000
     1.0000   1.0000   1.0000   1.0000   1.0000   1.0000   1.0000   1.0000
     1.0000   1.0000   1.0000   1.0000   1.0000   1.0000   1.0000   1.0000
     1.0000   1.0000   1.0000   1.0000   1.0000   1.0000   1.0000   1.0000
     1.0000   1.0000   1.0000   1.0000   1.0000   1.0000   1.0000   1.0000
     1.0000   1.0000   1.0000   1.0000   1.0000   1.0000   1.0000   1.0000
     1.0000   1.0000   1.0000   1.0000   1.0000   1.0000   1.0000   1.0000
     1.0000   1.0000   1.0000   1.0000   1.0000   1.0000   1.0000   1.0000
     1.0000   1.0000   1.0000   1.0000   1.0000   1.0000   1.0000   1.0000
     1.0000   1.0000   1.0000   1.0000   1.0000   1.0000   1.0000   1.0000
     1.0000   1.0000   1.0000   1.0000   1.0000   1.0000   1.0000   1.0000
     1.0000   1.0000   1.0000   1.0000   1.0000   1.0000   1.0000   1.0000
     1.0000   1.0000   1.0000   1.0000   1.0000   1.0000   1.0000   1.0000
     1.0000   1.0000   1.0000   1.0000   1.0000   1.0000   1.0000   1.0000
     1.0000   1.0000   1.0000   1.0000   1.0000   1.0000   1.0000   1.0000
     1.0000   1.0000   1.0000

          k = 0.4000 0.2309 0.0000 (112236 PWs)   bands (ev):

   -73.8168 -73.8149 -73.8110 -73.8086 -73.8063 -73.8050 -73.8033 -73.8011
   -73.7959 -73.7947 -73.7912 -73.7897 -73.7875 -73.7549 -73.7501 -73.7406
   -38.2065 -38.2044 -38.1906 -38.1873 -38.1809 -38.1637 -38.1621 -38.1474
   -38.1304 -38.1249 -38.1070 -38.1018 -38.0631 -38.0595 -38.0474 -38.0406
   -38.0288 -38.0252 -38.0142 -38.0118 -38.0111 -38.0099 -38.0047 -38.0005
   -37.9983 -37.9970 -37.9953 -37.9920 -37.9900 -37.9865 -37.9825 -37.9798
   -37.9771 -37.9698 -37.9672 -37.9646 -37.9532 -37.9508 -37.9503 -37.9470
   -37.9451 -37.9378 -37.9304 -37.9184 -37.9100 -37.8945 -37.8921 -37.8743
   -21.5175 -15.4646 -14.4365 -14.2338 -13.8698 -13.8592 -13.2502 -13.2458
   -13.0225 -12.9984 -12.9780 -12.9109 -12.8342 -12.7317 -12.7065 -12.6866
   -12.5441 -12.5029 -12.4667 -12.4513 -12.4302 -12.4241 -12.3876 -12.3627
   -12.3512 -12.2828 -12.2296 -12.1988 -12.1785 -12.1612 -12.1559 -12.1503
   -12.0539 -12.0433  -8.0038  -7.5743  -6.1686  -6.1250  -6.1146  -6.0900
    -6.0376  -5.8703  -5.8569  -5.8372  -5.7175  -5.5365  -5.5107  -5.4939
    -5.4499  -5.4492  -5.4411  -5.3895  -5.3840  -5.3161  -5.3100  -5.0747
    -5.0707  -5.0230  -5.0113  -4.7780  -4.6239  -4.5621  -4.4917  -4.4535
    -4.4211  -4.3736  -4.3515  -4.3065  -4.2419  -4.2280  -4.1926  -4.1604
    -4.1269  -4.1166  -4.1040  -4.0779  -4.0648  -4.0528  -4.0445  -3.6807
    -3.5656  -3.5273  -3.4706  -3.4532  -3.4330  -3.4039  -3.3627  -3.3297
    -3.2933  -3.2864  -3.2568  -3.2421  -3.2211  -3.2069  -3.1415  -3.1203
    -3.0929  -3.0587  -3.0226  -2.9727  -2.9422  -2.9078  -2.8539  -2.7829
    -2.7489  -2.6934  -2.6593  -2.6352  -2.6226  -2.6068  -2.5234  -2.5068
    -2.4640  -2.4337  -2.3783  -2.3369  -2.2795  -2.2617  -2.2477  -2.1632
    -2.1280  -2.1210  -2.0471  -2.0182  -2.0125  -1.9887  -1.9819  -1.9664
    -1.9424  -1.9073  -1.8967  -1.8711  -1.8589  -1.8495  -1.8407  -1.8254
    -1.8092  -1.7531  -1.7341  -1.7160  -1.6999  -1.6516  -1.6379  -1.6298
    -1.6009  -1.5587  -1.5150  -1.5019  -1.4277  -1.3653  -1.3165  -1.2966
    -1.2634  -1.2403  -1.1948  -1.1366  -1.1206  -1.0671  -1.0579  -1.0063
    -0.9792  -0.8923  -0.7326  -0.7281  -0.6414  -0.6320  -0.5214  -0.4613
    -0.4505  -0.4248  -0.4066  -0.3691  -0.2991  -0.1046   0.0005   0.0255
     0.1247   1.3109   1.5736

     occupation numbers 
     1.0000   1.0000   1.0000   1.0000   1.0000   1.0000   1.0000   1.0000
     1.0000   1.0000   1.0000   1.0000   1.0000   1.0000   1.0000   1.0000
     1.0000   1.0000   1.0000   1.0000   1.0000   1.0000   1.0000   1.0000
     1.0000   1.0000   1.0000   1.0000   1.0000   1.0000   1.0000   1.0000
     1.0000   1.0000   1.0000   1.0000   1.0000   1.0000   1.0000   1.0000
     1.0000   1.0000   1.0000   1.0000   1.0000   1.0000   1.0000   1.0000
     1.0000   1.0000   1.0000   1.0000   1.0000   1.0000   1.0000   1.0000
     1.0000   1.0000   1.0000   1.0000   1.0000   1.0000   1.0000   1.0000
     1.0000   1.0000   1.0000   1.0000   1.0000   1.0000   1.0000   1.0000
     1.0000   1.0000   1.0000   1.0000   1.0000   1.0000   1.0000   1.0000
     1.0000   1.0000   1.0000   1.0000   1.0000   1.0000   1.0000   1.0000
     1.0000   1.0000   1.0000   1.0000   1.0000   1.0000   1.0000   1.0000
     1.0000   1.0000   1.0000   1.0000   1.0000   1.0000   1.0000   1.0000
     1.0000   1.0000   1.0000   1.0000   1.0000   1.0000   1.0000   1.0000
     1.0000   1.0000   1.0000   1.0000   1.0000   1.0000   1.0000   1.0000
     1.0000   1.0000   1.0000   1.0000   1.0000   1.0000   1.0000   1.0000
     1.0000   1.0000   1.0000   1.0000   1.0000   1.0000   1.0000   1.0000
     1.0000   1.0000   1.0000   1.0000   1.0000   1.0000   1.0000   1.0000
     1.0000   1.0000   1.0000   1.0000   1.0000   1.0000   1.0000   1.0000
     1.0000   1.0000   1.0000   1.0000   1.0000   1.0000   1.0000   1.0000
     1.0000   1.0000   1.0000   1.0000   1.0000   1.0000   1.0000   1.0000
     1.0000   1.0000   1.0000   1.0000   1.0000   1.0000   1.0000   1.0000
     1.0000   1.0000   1.0000   1.0000   1.0000   1.0000   1.0000   1.0000
     1.0000   1.0000   1.0000   1.0000   1.0000   1.0000   1.0000   1.0000
     1.0000   1.0000   1.0000   1.0000   1.0000   1.0000   1.0000   1.0000
     1.0000   1.0000   1.0000   1.0000   1.0000   1.0000   1.0000   1.0000
     1.0000   1.0000   1.0000   1.0000   1.0000   1.0000   1.0000   1.0000
     1.0000   1.0000   1.0000   1.0000   1.0000   1.0000   1.0000   1.0000
     1.0000   1.0000   1.0000   1.0000   1.0000   1.0000   1.0000   1.0000
     1.0000   1.0000   1.0000   1.0000   1.0000   1.0000   1.0000   1.0000
     1.0000   1.0000   1.0000

          k =-0.2000 0.3464 0.0000 (112231 PWs)   bands (ev):

   -73.8171 -73.8143 -73.8111 -73.8090 -73.8061 -73.8052 -73.8031 -73.8009
   -73.7964 -73.7943 -73.7914 -73.7895 -73.7876 -73.7549 -73.7501 -73.7406
   -38.2126 -38.2026 -38.2011 -38.1796 -38.1761 -38.1647 -38.1560 -38.1498
   -38.1332 -38.1259 -38.1134 -38.0774 -38.0613 -38.0559 -38.0483 -38.0376
   -38.0326 -38.0289 -38.0256 -38.0208 -38.0165 -38.0086 -38.0040 -38.0001
   -37.9967 -37.9937 -37.9917 -37.9889 -37.9868 -37.9844 -37.9826 -37.9815
   -37.9770 -37.9740 -37.9700 -37.9656 -37.9588 -37.9558 -37.9522 -37.9476
   -37.9420 -37.9329 -37.9271 -37.9220 -37.9039 -37.8990 -37.8871 -37.8736
   -21.5175 -15.4646 -14.4761 -14.1036 -14.0605 -13.5747 -13.5577 -13.1764
   -13.1199 -13.0103 -12.9360 -12.8092 -12.7921 -12.7072 -12.6733 -12.6206
   -12.5859 -12.5776 -12.5696 -12.4558 -12.4269 -12.3945 -12.3801 -12.3111
   -12.2925 -12.2747 -12.2522 -12.2273 -12.2235 -12.1573 -12.1506 -12.1091
   -12.0962 -12.0361  -8.0038  -7.5743  -6.1928  -6.1733  -6.1404  -6.1222
    -6.1041  -5.7699  -5.7390  -5.7179  -5.7006  -5.6273  -5.6033  -5.5649
    -5.5087  -5.4771  -5.3574  -5.3322  -5.3011  -5.2664  -5.2431  -5.2223
    -5.0987  -4.9151  -4.8958  -4.7978  -4.7569  -4.6102  -4.5187  -4.4492
    -4.3967  -4.3457  -4.3364  -4.3106  -4.2816  -4.2619  -4.2468  -4.2287
    -4.1654  -4.1313  -4.1123  -4.0943  -4.0552  -3.7761  -3.7414  -3.7300
    -3.7100  -3.6933  -3.6166  -3.5094  -3.4248  -3.3842  -3.3755  -3.3106
    -3.2961  -3.2444  -3.2346  -3.2053  -3.1681  -3.1487  -3.1290  -3.0852
    -3.0647  -3.0141  -2.9759  -2.9471  -2.9352  -2.9283  -2.9250  -2.9032
    -2.7997  -2.7452  -2.7237  -2.6791  -2.6321  -2.5655  -2.5328  -2.4794
    -2.4653  -2.4117  -2.3918  -2.3668  -2.3243  -2.2233  -2.1994  -2.1596
    -2.1394  -2.1250  -2.1098  -2.0848  -2.0395  -1.9921  -1.9850  -1.9455
    -1.9221  -1.9031  -1.8710  -1.8570  -1.8277  -1.8194  -1.7992  -1.7797
    -1.7490  -1.7158  -1.7062  -1.6824  -1.6574  -1.6403  -1.5911  -1.5850
    -1.5628  -1.5503  -1.5326  -1.5128  -1.4449  -1.3988  -1.3869  -1.3483
    -1.2917  -1.2502  -1.1985  -1.1749  -1.1600  -1.1239  -1.0486  -1.0055
    -0.8779  -0.8391  -0.6889  -0.6727  -0.6394  -0.6294  -0.6117  -0.5444
    -0.5377  -0.4295  -0.3871  -0.2591  -0.2078  -0.2004  -0.1623   0.0712
     0.1382   1.2905   1.5795

     occupation numbers 
     1.0000   1.0000   1.0000   1.0000   1.0000   1.0000   1.0000   1.0000
     1.0000   1.0000   1.0000   1.0000   1.0000   1.0000   1.0000   1.0000
     1.0000   1.0000   1.0000   1.0000   1.0000   1.0000   1.0000   1.0000
     1.0000   1.0000   1.0000   1.0000   1.0000   1.0000   1.0000   1.0000
     1.0000   1.0000   1.0000   1.0000   1.0000   1.0000   1.0000   1.0000
     1.0000   1.0000   1.0000   1.0000   1.0000   1.0000   1.0000   1.0000
     1.0000   1.0000   1.0000   1.0000   1.0000   1.0000   1.0000   1.0000
     1.0000   1.0000   1.0000   1.0000   1.0000   1.0000   1.0000   1.0000
     1.0000   1.0000   1.0000   1.0000   1.0000   1.0000   1.0000   1.0000
     1.0000   1.0000   1.0000   1.0000   1.0000   1.0000   1.0000   1.0000
     1.0000   1.0000   1.0000   1.0000   1.0000   1.0000   1.0000   1.0000
     1.0000   1.0000   1.0000   1.0000   1.0000   1.0000   1.0000   1.0000
     1.0000   1.0000   1.0000   1.0000   1.0000   1.0000   1.0000   1.0000
     1.0000   1.0000   1.0000   1.0000   1.0000   1.0000   1.0000   1.0000
     1.0000   1.0000   1.0000   1.0000   1.0000   1.0000   1.0000   1.0000
     1.0000   1.0000   1.0000   1.0000   1.0000   1.0000   1.0000   1.0000
     1.0000   1.0000   1.0000   1.0000   1.0000   1.0000   1.0000   1.0000
     1.0000   1.0000   1.0000   1.0000   1.0000   1.0000   1.0000   1.0000
     1.0000   1.0000   1.0000   1.0000   1.0000   1.0000   1.0000   1.0000
     1.0000   1.0000   1.0000   1.0000   1.0000   1.0000   1.0000   1.0000
     1.0000   1.0000   1.0000   1.0000   1.0000   1.0000   1.0000   1.0000
     1.0000   1.0000   1.0000   1.0000   1.0000   1.0000   1.0000   1.0000
     1.0000   1.0000   1.0000   1.0000   1.0000   1.0000   1.0000   1.0000
     1.0000   1.0000   1.0000   1.0000   1.0000   1.0000   1.0000   1.0000
     1.0000   1.0000   1.0000   1.0000   1.0000   1.0000   1.0000   1.0000
     1.0000   1.0000   1.0000   1.0000   1.0000   1.0000   1.0000   1.0000
     1.0000   1.0000   1.0000   1.0000   1.0000   1.0000   1.0000   1.0000
     1.0000   1.0000   1.0000   1.0000   1.0000   1.0000   1.0000   1.0000
     1.0000   1.0000   1.0000   1.0000   1.0000   1.0000   1.0000   1.0000
     1.0000   1.0000   1.0000   1.0000   1.0000   1.0000   1.0000   1.0000
     1.0000   1.0000   1.0000

          k = 0.4000-0.0000 0.0000 (112231 PWs)   bands (ev):

   -73.8170 -73.8145 -73.8110 -73.8089 -73.8062 -73.8049 -73.8033 -73.8010
   -73.7960 -73.7946 -73.7914 -73.7895 -73.7876 -73.7549 -73.7501 -73.7406
   -38.2127 -38.2033 -38.2000 -38.1794 -38.1763 -38.1660 -38.1565 -38.1499
   -38.1325 -38.1245 -38.1130 -38.0772 -38.0622 -38.0566 -38.0481 -38.0383
   -38.0311 -38.0292 -38.0257 -38.0223 -38.0144 -38.0097 -38.0044 -37.9990
   -37.9965 -37.9939 -37.9917 -37.9894 -37.9882 -37.9856 -37.9825 -37.9805
   -37.9756 -37.9750 -37.9698 -37.9658 -37.9587 -37.9553 -37.9520 -37.9473
   -37.9426 -37.9322 -37.9283 -37.9225 -37.9020 -37.8986 -37.8859 -37.8756
   -21.5175 -15.4646 -14.4762 -14.1001 -14.0640 -13.5692 -13.5640 -13.1714
   -13.1232 -13.0142 -12.9298 -12.8051 -12.7962 -12.7119 -12.6825 -12.6029
   -12.6000 -12.5746 -12.5616 -12.4574 -12.4241 -12.4134 -12.3653 -12.3082
   -12.2937 -12.2716 -12.2549 -12.2352 -12.2206 -12.1581 -12.1480 -12.1069
   -12.0976 -12.0365  -8.0038  -7.5743  -6.1825  -6.1801  -6.1433  -6.1200
    -6.1091  -5.7595  -5.7438  -5.7219  -5.6888  -5.6377  -5.6097  -5.5625
    -5.5067  -5.4743  -5.3529  -5.3360  -5.2938  -5.2728  -5.2456  -5.2304
    -5.0983  -4.9029  -4.8877  -4.8113  -4.7572  -4.5733  -4.5402  -4.4671
    -4.4109  -4.3479  -4.3391  -4.3144  -4.2766  -4.2655  -4.2447  -4.2119
    -4.1763  -4.1186  -4.1112  -4.0910  -4.0553  -3.7652  -3.7360  -3.7288
    -3.7092  -3.6999  -3.6284  -3.4873  -3.4322  -3.4041  -3.3737  -3.3281
    -3.2893  -3.2478  -3.2379  -3.2040  -3.1785  -3.1461  -3.1286  -3.0837
    -3.0449  -3.0074  -2.9707  -2.9534  -2.9424  -2.9252  -2.9093  -2.9014
    -2.7911  -2.7591  -2.7242  -2.6635  -2.6348  -2.5849  -2.5491  -2.4727
    -2.4690  -2.4223  -2.3895  -2.3483  -2.3223  -2.2287  -2.1821  -2.1640
    -2.1334  -2.1258  -2.1090  -2.1030  -2.0149  -1.9962  -1.9780  -1.9523
    -1.9285  -1.9024  -1.8845  -1.8665  -1.8547  -1.8231  -1.7936  -1.7718
    -1.7397  -1.7161  -1.6964  -1.6764  -1.6628  -1.6311  -1.5968  -1.5742
    -1.5585  -1.5487  -1.5343  -1.5081  -1.4514  -1.4143  -1.3714  -1.3418
    -1.2894  -1.2690  -1.2034  -1.1807  -1.1532  -1.1121  -1.0512  -1.0039
    -0.8690  -0.8511  -0.6832  -0.6760  -0.6404  -0.6243  -0.6161  -0.5426
    -0.5368  -0.4440  -0.3845  -0.2538  -0.2086  -0.1954  -0.1639   0.0686
     0.1381   1.3202   1.5485

     occupation numbers 
     1.0000   1.0000   1.0000   1.0000   1.0000   1.0000   1.0000   1.0000
     1.0000   1.0000   1.0000   1.0000   1.0000   1.0000   1.0000   1.0000
     1.0000   1.0000   1.0000   1.0000   1.0000   1.0000   1.0000   1.0000
     1.0000   1.0000   1.0000   1.0000   1.0000   1.0000   1.0000   1.0000
     1.0000   1.0000   1.0000   1.0000   1.0000   1.0000   1.0000   1.0000
     1.0000   1.0000   1.0000   1.0000   1.0000   1.0000   1.0000   1.0000
     1.0000   1.0000   1.0000   1.0000   1.0000   1.0000   1.0000   1.0000
     1.0000   1.0000   1.0000   1.0000   1.0000   1.0000   1.0000   1.0000
     1.0000   1.0000   1.0000   1.0000   1.0000   1.0000   1.0000   1.0000
     1.0000   1.0000   1.0000   1.0000   1.0000   1.0000   1.0000   1.0000
     1.0000   1.0000   1.0000   1.0000   1.0000   1.0000   1.0000   1.0000
     1.0000   1.0000   1.0000   1.0000   1.0000   1.0000   1.0000   1.0000
     1.0000   1.0000   1.0000   1.0000   1.0000   1.0000   1.0000   1.0000
     1.0000   1.0000   1.0000   1.0000   1.0000   1.0000   1.0000   1.0000
     1.0000   1.0000   1.0000   1.0000   1.0000   1.0000   1.0000   1.0000
     1.0000   1.0000   1.0000   1.0000   1.0000   1.0000   1.0000   1.0000
     1.0000   1.0000   1.0000   1.0000   1.0000   1.0000   1.0000   1.0000
     1.0000   1.0000   1.0000   1.0000   1.0000   1.0000   1.0000   1.0000
     1.0000   1.0000   1.0000   1.0000   1.0000   1.0000   1.0000   1.0000
     1.0000   1.0000   1.0000   1.0000   1.0000   1.0000   1.0000   1.0000
     1.0000   1.0000   1.0000   1.0000   1.0000   1.0000   1.0000   1.0000
     1.0000   1.0000   1.0000   1.0000   1.0000   1.0000   1.0000   1.0000
     1.0000   1.0000   1.0000   1.0000   1.0000   1.0000   1.0000   1.0000
     1.0000   1.0000   1.0000   1.0000   1.0000   1.0000   1.0000   1.0000
     1.0000   1.0000   1.0000   1.0000   1.0000   1.0000   1.0000   1.0000
     1.0000   1.0000   1.0000   1.0000   1.0000   1.0000   1.0000   1.0000
     1.0000   1.0000   1.0000   1.0000   1.0000   1.0000   1.0000   1.0000
     1.0000   1.0000   1.0000   1.0000   1.0000   1.0000   1.0000   1.0000
     1.0000   1.0000   1.0000   1.0000   1.0000   1.0000   1.0000   1.0000
     1.0000   1.0000   1.0000   1.0000   1.0000   1.0000   1.0000   1.0000
     1.0000   1.0000   1.0000

          k =-0.4000 0.4619 0.0000 (112237 PWs)   bands (ev):

   -73.8169 -73.8146 -73.8111 -73.8092 -73.8061 -73.8047 -73.8033 -73.8009
   -73.7962 -73.7945 -73.7914 -73.7895 -73.7876 -73.7549 -73.7501 -73.7406
   -38.2023 -38.1955 -38.1860 -38.1827 -38.1801 -38.1738 -38.1663 -38.1495
   -38.1467 -38.1331 -38.0948 -38.0906 -38.0854 -38.0525 -38.0452 -38.0416
   -38.0335 -38.0317 -38.0214 -38.0133 -38.0086 -38.0056 -38.0040 -38.0006
   -37.9995 -37.9967 -37.9940 -37.9885 -37.9863 -37.9826 -37.9752 -37.9720
   -37.9700 -37.9683 -37.9616 -37.9581 -37.9550 -37.9533 -37.9503 -37.9482
   -37.9460 -37.9386 -37.9343 -37.9273 -37.9153 -37.8964 -37.8858 -37.8800
   -21.5175 -15.4646 -14.3398 -14.2898 -14.1163 -13.5972 -13.2990 -13.2954
   -12.9622 -12.9501 -12.8873 -12.8573 -12.8282 -12.8017 -12.7969 -12.6663
   -12.6349 -12.5967 -12.4947 -12.4842 -12.3885 -12.3761 -12.3487 -12.3266
   -12.3100 -12.2978 -12.2616 -12.2353 -12.2300 -12.1345 -12.1205 -12.1155
   -12.0804 -12.0170  -8.0038  -7.5743  -6.1635  -6.0600  -6.0257  -5.9702
    -5.9158  -5.8911  -5.8781  -5.8603  -5.8087  -5.7454  -5.6900  -5.6266
    -5.6110  -5.5419  -5.3585  -5.2873  -5.2484  -5.2175  -5.2025  -5.1694
    -5.1584  -4.8553  -4.8335  -4.7467  -4.6211  -4.5909  -4.5453  -4.5260
    -4.4922  -4.4275  -4.3853  -4.3267  -4.3091  -4.2429  -4.2279  -4.2098
    -4.1943  -4.1647  -4.1209  -4.0951  -3.9579  -3.9478  -3.7935  -3.6723
    -3.6284  -3.5905  -3.4352  -3.3984  -3.3644  -3.3269  -3.3094  -3.2823
    -3.2794  -3.2681  -3.2429  -3.2326  -3.2208  -3.2148  -3.1504  -3.1219
    -3.0980  -3.0861  -3.0598  -3.0476  -2.9984  -2.9541  -2.8519  -2.8160
    -2.7452  -2.7316  -2.7132  -2.6832  -2.6323  -2.5965  -2.5123  -2.4208
    -2.4010  -2.3318  -2.3238  -2.3187  -2.2689  -2.1997  -2.1753  -2.1610
    -2.1475  -2.0908  -2.0807  -2.0529  -2.0295  -1.9800  -1.9696  -1.9496
    -1.9333  -1.9191  -1.8956  -1.8846  -1.8695  -1.8559  -1.8456  -1.8430
    -1.8195  -1.7966  -1.7618  -1.7299  -1.7067  -1.6970  -1.6740  -1.6548
    -1.6275  -1.5863  -1.5372  -1.5063  -1.4852  -1.4624  -1.4219  -1.3187
    -1.2855  -1.2374  -1.1715  -1.1173  -1.0946  -1.0774  -1.0453  -0.9735
    -0.8150  -0.7889  -0.7033  -0.6925  -0.6588  -0.6472  -0.6007  -0.5846
    -0.5682  -0.4147  -0.2817  -0.2755  -0.1800  -0.1202  -0.0782   0.0902
     0.1862   1.3286   1.5657

     occupation numbers 
     1.0000   1.0000   1.0000   1.0000   1.0000   1.0000   1.0000   1.0000
     1.0000   1.0000   1.0000   1.0000   1.0000   1.0000   1.0000   1.0000
     1.0000   1.0000   1.0000   1.0000   1.0000   1.0000   1.0000   1.0000
     1.0000   1.0000   1.0000   1.0000   1.0000   1.0000   1.0000   1.0000
     1.0000   1.0000   1.0000   1.0000   1.0000   1.0000   1.0000   1.0000
     1.0000   1.0000   1.0000   1.0000   1.0000   1.0000   1.0000   1.0000
     1.0000   1.0000   1.0000   1.0000   1.0000   1.0000   1.0000   1.0000
     1.0000   1.0000   1.0000   1.0000   1.0000   1.0000   1.0000   1.0000
     1.0000   1.0000   1.0000   1.0000   1.0000   1.0000   1.0000   1.0000
     1.0000   1.0000   1.0000   1.0000   1.0000   1.0000   1.0000   1.0000
     1.0000   1.0000   1.0000   1.0000   1.0000   1.0000   1.0000   1.0000
     1.0000   1.0000   1.0000   1.0000   1.0000   1.0000   1.0000   1.0000
     1.0000   1.0000   1.0000   1.0000   1.0000   1.0000   1.0000   1.0000
     1.0000   1.0000   1.0000   1.0000   1.0000   1.0000   1.0000   1.0000
     1.0000   1.0000   1.0000   1.0000   1.0000   1.0000   1.0000   1.0000
     1.0000   1.0000   1.0000   1.0000   1.0000   1.0000   1.0000   1.0000
     1.0000   1.0000   1.0000   1.0000   1.0000   1.0000   1.0000   1.0000
     1.0000   1.0000   1.0000   1.0000   1.0000   1.0000   1.0000   1.0000
     1.0000   1.0000   1.0000   1.0000   1.0000   1.0000   1.0000   1.0000
     1.0000   1.0000   1.0000   1.0000   1.0000   1.0000   1.0000   1.0000
     1.0000   1.0000   1.0000   1.0000   1.0000   1.0000   1.0000   1.0000
     1.0000   1.0000   1.0000   1.0000   1.0000   1.0000   1.0000   1.0000
     1.0000   1.0000   1.0000   1.0000   1.0000   1.0000   1.0000   1.0000
     1.0000   1.0000   1.0000   1.0000   1.0000   1.0000   1.0000   1.0000
     1.0000   1.0000   1.0000   1.0000   1.0000   1.0000   1.0000   1.0000
     1.0000   1.0000   1.0000   1.0000   1.0000   1.0000   1.0000   1.0000
     1.0000   1.0000   1.0000   1.0000   1.0000   1.0000   1.0000   1.0000
     1.0000   1.0000   1.0000   1.0000   1.0000   1.0000   1.0000   1.0000
     1.0000   1.0000   1.0000   1.0000   1.0000   1.0000   1.0000   1.0000
     1.0000   1.0000   1.0000   1.0000   1.0000   1.0000   1.0000   1.0000
     1.0000   1.0000   1.0000

          k = 0.6000 0.1155 0.0000 (112237 PWs)   bands (ev):

   -73.8167 -73.8149 -73.8110 -73.8088 -73.8062 -73.8049 -73.8033 -73.8010
   -73.7961 -73.7946 -73.7912 -73.7897 -73.7875 -73.7549 -73.7501 -73.7406
   -38.2010 -38.1971 -38.1869 -38.1842 -38.1772 -38.1737 -38.1658 -38.1492
   -38.1475 -38.1329 -38.0942 -38.0925 -38.0850 -38.0520 -38.0453 -38.0414
   -38.0336 -38.0319 -38.0210 -38.0125 -38.0094 -38.0064 -38.0034 -38.0009
   -37.9999 -37.9953 -37.9936 -37.9894 -37.9864 -37.9825 -37.9750 -37.9722
   -37.9699 -37.9691 -37.9614 -37.9581 -37.9555 -37.9536 -37.9507 -37.9480
   -37.9421 -37.9392 -37.9325 -37.9297 -37.9164 -37.8973 -37.8873 -37.8777
   -21.5175 -15.4646 -14.3391 -14.2907 -14.1161 -13.5971 -13.3063 -13.2881
   -12.9682 -12.9441 -12.8823 -12.8608 -12.8286 -12.8021 -12.7974 -12.6688
   -12.6337 -12.5949 -12.5046 -12.4741 -12.3952 -12.3728 -12.3449 -12.3219
   -12.3108 -12.3000 -12.2649 -12.2358 -12.2309 -12.1323 -12.1213 -12.1158
   -12.0797 -12.0172  -8.0038  -7.5743  -6.1635  -6.0569  -6.0207  -5.9693
    -5.9294  -5.9074  -5.8775  -5.8359  -5.8080  -5.7504  -5.6919  -5.6243
    -5.6132  -5.5385  -5.3574  -5.2836  -5.2570  -5.2263  -5.1977  -5.1733
    -5.1492  -4.8573  -4.8403  -4.6966  -4.6481  -4.6106  -4.5524  -4.5153
    -4.4952  -4.4364  -4.3857  -4.3222  -4.3030  -4.2429  -4.2322  -4.2004
    -4.1927  -4.1684  -4.1206  -4.0967  -3.9586  -3.9481  -3.7899  -3.6698
    -3.6299  -3.5813  -3.4368  -3.3772  -3.3684  -3.3354  -3.3038  -3.2880
    -3.2854  -3.2623  -3.2463  -3.2354  -3.2217  -3.2039  -3.1810  -3.1443
    -3.0882  -3.0798  -3.0541  -3.0224  -3.0079  -2.9667  -2.8497  -2.8139
    -2.7533  -2.7328  -2.7267  -2.6589  -2.6418  -2.5588  -2.5215  -2.4690
    -2.3962  -2.3368  -2.3168  -2.2977  -2.2477  -2.2158  -2.1752  -2.1519
    -2.1299  -2.1058  -2.0780  -2.0493  -2.0206  -1.9853  -1.9694  -1.9602
    -1.9392  -1.9139  -1.9040  -1.8830  -1.8736  -1.8632  -1.8543  -1.8453
    -1.8126  -1.7996  -1.7523  -1.7372  -1.7095  -1.6953  -1.6669  -1.6452
    -1.6280  -1.6064  -1.5398  -1.5223  -1.4774  -1.4352  -1.4075  -1.3306
    -1.2944  -1.2316  -1.1615  -1.1405  -1.0965  -1.0588  -1.0229  -0.9932
    -0.8113  -0.7954  -0.6988  -0.6971  -0.6599  -0.6533  -0.6015  -0.5961
    -0.5538  -0.4161  -0.2837  -0.2686  -0.1774  -0.1252  -0.0775   0.0910
     0.1865   1.3184   1.5781

     occupation numbers 
     1.0000   1.0000   1.0000   1.0000   1.0000   1.0000   1.0000   1.0000
     1.0000   1.0000   1.0000   1.0000   1.0000   1.0000   1.0000   1.0000
     1.0000   1.0000   1.0000   1.0000   1.0000   1.0000   1.0000   1.0000
     1.0000   1.0000   1.0000   1.0000   1.0000   1.0000   1.0000   1.0000
     1.0000   1.0000   1.0000   1.0000   1.0000   1.0000   1.0000   1.0000
     1.0000   1.0000   1.0000   1.0000   1.0000   1.0000   1.0000   1.0000
     1.0000   1.0000   1.0000   1.0000   1.0000   1.0000   1.0000   1.0000
     1.0000   1.0000   1.0000   1.0000   1.0000   1.0000   1.0000   1.0000
     1.0000   1.0000   1.0000   1.0000   1.0000   1.0000   1.0000   1.0000
     1.0000   1.0000   1.0000   1.0000   1.0000   1.0000   1.0000   1.0000
     1.0000   1.0000   1.0000   1.0000   1.0000   1.0000   1.0000   1.0000
     1.0000   1.0000   1.0000   1.0000   1.0000   1.0000   1.0000   1.0000
     1.0000   1.0000   1.0000   1.0000   1.0000   1.0000   1.0000   1.0000
     1.0000   1.0000   1.0000   1.0000   1.0000   1.0000   1.0000   1.0000
     1.0000   1.0000   1.0000   1.0000   1.0000   1.0000   1.0000   1.0000
     1.0000   1.0000   1.0000   1.0000   1.0000   1.0000   1.0000   1.0000
     1.0000   1.0000   1.0000   1.0000   1.0000   1.0000   1.0000   1.0000
     1.0000   1.0000   1.0000   1.0000   1.0000   1.0000   1.0000   1.0000
     1.0000   1.0000   1.0000   1.0000   1.0000   1.0000   1.0000   1.0000
     1.0000   1.0000   1.0000   1.0000   1.0000   1.0000   1.0000   1.0000
     1.0000   1.0000   1.0000   1.0000   1.0000   1.0000   1.0000   1.0000
     1.0000   1.0000   1.0000   1.0000   1.0000   1.0000   1.0000   1.0000
     1.0000   1.0000   1.0000   1.0000   1.0000   1.0000   1.0000   1.0000
     1.0000   1.0000   1.0000   1.0000   1.0000   1.0000   1.0000   1.0000
     1.0000   1.0000   1.0000   1.0000   1.0000   1.0000   1.0000   1.0000
     1.0000   1.0000   1.0000   1.0000   1.0000   1.0000   1.0000   1.0000
     1.0000   1.0000   1.0000   1.0000   1.0000   1.0000   1.0000   1.0000
     1.0000   1.0000   1.0000   1.0000   1.0000   1.0000   1.0000   1.0000
     1.0000   1.0000   1.0000   1.0000   1.0000   1.0000   1.0000   1.0000
     1.0000   1.0000   1.0000   1.0000   1.0000   1.0000   1.0000   1.0000
     1.0000   1.0000   1.0000

 ------ SPIN DOWN ----------


          k = 0.0000 0.0000 0.0000 (112117 PWs)   bands (ev):

   -73.8141 -73.8096 -73.8066 -73.8048 -73.8026 -73.8018 -73.7985 -73.7962
   -73.7940 -73.7890 -73.7881 -73.7865 -73.7824 -73.7415 -73.7318 -73.7288
   -38.2162 -38.2150 -38.2130 -38.1570 -38.1563 -38.1522 -38.1475 -38.1464
   -38.1350 -38.0559 -38.0508 -38.0482 -38.0477 -38.0416 -38.0387 -38.0374
   -38.0245 -38.0226 -38.0208 -38.0195 -38.0169 -38.0167 -38.0153 -38.0123
   -38.0092 -38.0059 -38.0045 -37.9995 -37.9927 -37.9892 -37.9867 -37.9852
   -37.9837 -37.9766 -37.9525 -37.9516 -37.9487 -37.9450 -37.9357 -37.9251
   -37.9191 -37.9081 -37.9059 -37.9043 -37.9019 -37.8912 -37.8587 -37.8567
   -21.5161 -15.4634 -14.5949 -13.7060 -13.6915 -13.6715 -13.6427 -13.6288
   -13.6195 -12.9795 -12.7053 -12.6747 -12.6506 -12.6361 -12.6009 -12.5802
   -12.5327 -12.5039 -12.4681 -12.4552 -12.4436 -12.4419 -12.4208 -12.4192
   -12.4155 -12.2205 -12.1983 -12.1886 -12.1719 -12.1562 -12.1523 -12.1480
   -12.1460 -12.1436  -8.0019  -7.5724  -6.3361  -6.3229  -6.3053  -6.2752
    -6.1539  -5.6002  -5.5687  -5.5447  -5.5289  -5.5247  -5.4922  -5.4380
    -5.4052  -5.3865  -5.3112  -5.2800  -5.2600  -5.0991  -5.0901  -5.0621
    -5.0574  -5.0534  -5.0526  -4.9966  -4.9960  -4.9875  -4.5116  -4.4323
    -4.3925  -4.3432  -4.2895  -4.2805  -4.2645  -4.2433  -4.2299  -4.1762
    -4.0773  -4.0065  -3.9755  -3.9604  -3.9341  -3.7884  -3.7559  -3.7520
    -3.6980  -3.6762  -3.6732  -3.5980  -3.5077  -3.4683  -3.4030  -3.3991
    -3.3716  -3.3650  -3.2743  -3.2191  -3.1930  -3.1793  -3.1575  -3.1398
    -3.1268  -3.1219  -3.1077  -3.1052  -3.0397  -2.9245  -2.7916  -2.7459
    -2.6873  -2.6660  -2.6201  -2.5857  -2.5728  -2.4998  -2.4911  -2.4628
    -2.4577  -2.4304  -2.4278  -2.4227  -2.3891  -2.3294  -2.2725  -2.1863
    -2.1149  -2.0537  -1.9642  -1.9595  -1.9298  -1.9164  -1.8653  -1.8235
    -1.7991  -1.7752  -1.7638  -1.7621  -1.7503  -1.7472  -1.7414  -1.7391
    -1.7322  -1.6993  -1.6934  -1.6559  -1.6464  -1.6342  -1.6315  -1.5984
    -1.5729  -1.5258  -1.5157  -1.4885  -1.4480  -1.4089  -1.3695  -1.3520
    -1.2899  -1.2607  -1.1829  -1.0872  -1.0328  -1.0255  -1.0093  -0.9896
    -0.7215  -0.6871  -0.6830  -0.6826  -0.6696  -0.6650  -0.6429  -0.6364
    -0.6200  -0.3927  -0.3813  -0.3713  -0.3561  -0.3394  -0.3300  -0.2930
     0.2189   1.3014   1.6760

     occupation numbers 
     1.0000   1.0000   1.0000   1.0000   1.0000   1.0000   1.0000   1.0000
     1.0000   1.0000   1.0000   1.0000   1.0000   1.0000   1.0000   1.0000
     1.0000   1.0000   1.0000   1.0000   1.0000   1.0000   1.0000   1.0000
     1.0000   1.0000   1.0000   1.0000   1.0000   1.0000   1.0000   1.0000
     1.0000   1.0000   1.0000   1.0000   1.0000   1.0000   1.0000   1.0000
     1.0000   1.0000   1.0000   1.0000   1.0000   1.0000   1.0000   1.0000
     1.0000   1.0000   1.0000   1.0000   1.0000   1.0000   1.0000   1.0000
     1.0000   1.0000   1.0000   1.0000   1.0000   1.0000   1.0000   1.0000
     1.0000   1.0000   1.0000   1.0000   1.0000   1.0000   1.0000   1.0000
     1.0000   1.0000   1.0000   1.0000   1.0000   1.0000   1.0000   1.0000
     1.0000   1.0000   1.0000   1.0000   1.0000   1.0000   1.0000   1.0000
     1.0000   1.0000   1.0000   1.0000   1.0000   1.0000   1.0000   1.0000
     1.0000   1.0000   1.0000   1.0000   1.0000   1.0000   1.0000   1.0000
     1.0000   1.0000   1.0000   1.0000   1.0000   1.0000   1.0000   1.0000
     1.0000   1.0000   1.0000   1.0000   1.0000   1.0000   1.0000   1.0000
     1.0000   1.0000   1.0000   1.0000   1.0000   1.0000   1.0000   1.0000
     1.0000   1.0000   1.0000   1.0000   1.0000   1.0000   1.0000   1.0000
     1.0000   1.0000   1.0000   1.0000   1.0000   1.0000   1.0000   1.0000
     1.0000   1.0000   1.0000   1.0000   1.0000   1.0000   1.0000   1.0000
     1.0000   1.0000   1.0000   1.0000   1.0000   1.0000   1.0000   1.0000
     1.0000   1.0000   1.0000   1.0000   1.0000   1.0000   1.0000   1.0000
     1.0000   1.0000   1.0000   1.0000   1.0000   1.0000   1.0000   1.0000
     1.0000   1.0000   1.0000   1.0000   1.0000   1.0000   1.0000   1.0000
     1.0000   1.0000   1.0000   1.0000   1.0000   1.0000   1.0000   1.0000
     1.0000   1.0000   1.0000   1.0000   1.0000   1.0000   1.0000   1.0000
     1.0000   1.0000   1.0000   1.0000   1.0000   1.0000   1.0000   1.0000
     1.0000   1.0000   1.0000   1.0000   1.0000   1.0000   1.0000   1.0000
     1.0000   1.0000   1.0000   1.0000   1.0000   1.0000   1.0000   1.0000
     1.0000   1.0000   1.0000   1.0000   1.0000   1.0000   1.0000   1.0000
     1.0000   1.0000   1.0000   1.0000   1.0000   1.0000   1.0000   1.0000
     1.0000   1.0000   0.0000

          k = 0.0000 0.2309 0.0000 (112171 PWs)   bands (ev):

   -73.8140 -73.8096 -73.8068 -73.8047 -73.8027 -73.8015 -73.7985 -73.7962
   -73.7941 -73.7890 -73.7880 -73.7865 -73.7824 -73.7415 -73.7318 -73.7288
   -38.2114 -38.2096 -38.2066 -38.1606 -38.1591 -38.1577 -38.1505 -38.1399
   -38.1318 -38.0966 -38.0712 -38.0699 -38.0465 -38.0426 -38.0378 -38.0270
   -38.0255 -38.0203 -38.0174 -38.0161 -38.0134 -38.0105 -38.0089 -38.0055
   -37.9994 -37.9947 -37.9942 -37.9908 -37.9882 -37.9868 -37.9840 -37.9833
   -37.9795 -37.9765 -37.9556 -37.9532 -37.9491 -37.9458 -37.9358 -37.9260
   -37.9254 -37.9147 -37.9108 -37.9028 -37.8989 -37.8897 -37.8644 -37.8594
   -21.5161 -15.4634 -14.5533 -13.9730 -13.7989 -13.7828 -13.4888 -13.4589
   -13.3220 -12.9635 -12.8002 -12.7322 -12.6931 -12.6848 -12.6528 -12.5831
   -12.5522 -12.5392 -12.4919 -12.4751 -12.4539 -12.4332 -12.4221 -12.3139
   -12.2827 -12.2604 -12.2420 -12.2127 -12.1831 -12.1726 -12.1658 -12.1510
   -12.0940 -12.0782  -8.0019  -7.5724  -6.2749  -6.2644  -6.2328  -6.2287
    -6.1522  -5.6592  -5.6397  -5.6231  -5.5531  -5.5145  -5.4860  -5.4671
    -5.4229  -5.4126  -5.3902  -5.3176  -5.3133  -5.2828  -5.2660  -5.0687
    -5.0639  -5.0131  -4.9992  -4.9512  -4.7359  -4.7312  -4.5803  -4.4732
    -4.4447  -4.3808  -4.3180  -4.2807  -4.2029  -4.1573  -4.1422  -4.1162
    -4.0960  -4.0578  -4.0398  -3.9978  -3.9816  -3.9074  -3.9049  -3.8974
    -3.6546  -3.5658  -3.5351  -3.5015  -3.4625  -3.4376  -3.4334  -3.3799
    -3.3608  -3.3093  -3.2887  -3.2749  -3.2610  -3.2028  -3.1889  -3.1461
    -3.0732  -2.9808  -2.9371  -2.9214  -2.8422  -2.7740  -2.7556  -2.7412
    -2.7154  -2.7073  -2.6922  -2.6685  -2.6422  -2.6248  -2.5824  -2.5380
    -2.4983  -2.4939  -2.4634  -2.4272  -2.3475  -2.3014  -2.1853  -2.1566
    -2.1035  -2.0605  -2.0086  -1.9929  -1.9677  -1.9485  -1.9223  -1.9004
    -1.8812  -1.8518  -1.8400  -1.8108  -1.7782  -1.7525  -1.7376  -1.7282
    -1.7167  -1.6939  -1.6778  -1.6515  -1.6360  -1.5997  -1.5784  -1.5383
    -1.5229  -1.4881  -1.4764  -1.4478  -1.4285  -1.3642  -1.3314  -1.3187
    -1.2933  -1.2720  -1.2323  -1.2135  -1.1481  -1.0615  -1.0378  -1.0028
    -0.8871  -0.7733  -0.7552  -0.7387  -0.5631  -0.5591  -0.5416  -0.5281
    -0.5150  -0.5021  -0.4022  -0.3717  -0.3561  -0.2415  -0.1654  -0.1349
     0.2009   1.3073   1.7071

     occupation numbers 
     1.0000   1.0000   1.0000   1.0000   1.0000   1.0000   1.0000   1.0000
     1.0000   1.0000   1.0000   1.0000   1.0000   1.0000   1.0000   1.0000
     1.0000   1.0000   1.0000   1.0000   1.0000   1.0000   1.0000   1.0000
     1.0000   1.0000   1.0000   1.0000   1.0000   1.0000   1.0000   1.0000
     1.0000   1.0000   1.0000   1.0000   1.0000   1.0000   1.0000   1.0000
     1.0000   1.0000   1.0000   1.0000   1.0000   1.0000   1.0000   1.0000
     1.0000   1.0000   1.0000   1.0000   1.0000   1.0000   1.0000   1.0000
     1.0000   1.0000   1.0000   1.0000   1.0000   1.0000   1.0000   1.0000
     1.0000   1.0000   1.0000   1.0000   1.0000   1.0000   1.0000   1.0000
     1.0000   1.0000   1.0000   1.0000   1.0000   1.0000   1.0000   1.0000
     1.0000   1.0000   1.0000   1.0000   1.0000   1.0000   1.0000   1.0000
     1.0000   1.0000   1.0000   1.0000   1.0000   1.0000   1.0000   1.0000
     1.0000   1.0000   1.0000   1.0000   1.0000   1.0000   1.0000   1.0000
     1.0000   1.0000   1.0000   1.0000   1.0000   1.0000   1.0000   1.0000
     1.0000   1.0000   1.0000   1.0000   1.0000   1.0000   1.0000   1.0000
     1.0000   1.0000   1.0000   1.0000   1.0000   1.0000   1.0000   1.0000
     1.0000   1.0000   1.0000   1.0000   1.0000   1.0000   1.0000   1.0000
     1.0000   1.0000   1.0000   1.0000   1.0000   1.0000   1.0000   1.0000
     1.0000   1.0000   1.0000   1.0000   1.0000   1.0000   1.0000   1.0000
     1.0000   1.0000   1.0000   1.0000   1.0000   1.0000   1.0000   1.0000
     1.0000   1.0000   1.0000   1.0000   1.0000   1.0000   1.0000   1.0000
     1.0000   1.0000   1.0000   1.0000   1.0000   1.0000   1.0000   1.0000
     1.0000   1.0000   1.0000   1.0000   1.0000   1.0000   1.0000   1.0000
     1.0000   1.0000   1.0000   1.0000   1.0000   1.0000   1.0000   1.0000
     1.0000   1.0000   1.0000   1.0000   1.0000   1.0000   1.0000   1.0000
     1.0000   1.0000   1.0000   1.0000   1.0000   1.0000   1.0000   1.0000
     1.0000   1.0000   1.0000   1.0000   1.0000   1.0000   1.0000   1.0000
     1.0000   1.0000   1.0000   1.0000   1.0000   1.0000   1.0000   1.0000
     1.0000   1.0000   1.0000   1.0000   1.0000   1.0000   1.0000   1.0000
     1.0000   1.0000   1.0000   1.0000   1.0000   1.0000   1.0000   1.0000
     1.0000   1.0000   0.0000

          k = 0.0000 0.4619 0.0000 (112236 PWs)   bands (ev):

   -73.8138 -73.8098 -73.8071 -73.8046 -73.8028 -73.8013 -73.7984 -73.7961
   -73.7943 -73.7890 -73.7880 -73.7865 -73.7824 -73.7415 -73.7318 -73.7289
   -38.2008 -38.1966 -38.1850 -38.1779 -38.1729 -38.1584 -38.1548 -38.1388
   -38.1243 -38.1171 -38.0962 -38.0935 -38.0566 -38.0503 -38.0429 -38.0333
   -38.0272 -38.0159 -38.0103 -38.0073 -38.0030 -38.0018 -37.9986 -37.9976
   -37.9948 -37.9917 -37.9913 -37.9877 -37.9841 -37.9825 -37.9765 -37.9734
   -37.9671 -37.9607 -37.9587 -37.9507 -37.9452 -37.9414 -37.9390 -37.9337
   -37.9324 -37.9224 -37.9178 -37.9093 -37.8991 -37.8843 -37.8783 -37.8628
   -21.5161 -15.4634 -14.4315 -14.2301 -13.8684 -13.8509 -13.2594 -13.2276
   -13.0150 -12.9963 -12.9675 -12.9136 -12.8303 -12.7265 -12.7022 -12.6864
   -12.5174 -12.5100 -12.4583 -12.4474 -12.4340 -12.4231 -12.3801 -12.3664
   -12.3482 -12.2821 -12.2131 -12.1994 -12.1750 -12.1569 -12.1551 -12.1508
   -12.0548 -12.0374  -8.0019  -7.5724  -6.1650  -6.1179  -6.1051  -6.0858
    -6.0210  -5.8677  -5.8557  -5.8306  -5.7081  -5.5280  -5.4954  -5.4824
    -5.4553  -5.4425  -5.4335  -5.3876  -5.3702  -5.3207  -5.2974  -5.0639
    -5.0586  -5.0258  -5.0064  -4.8028  -4.6214  -4.5167  -4.4790  -4.4350
    -4.3905  -4.3708  -4.3448  -4.3070  -4.2405  -4.2257  -4.1879  -4.1562
    -4.1254  -4.1143  -4.0998  -4.0733  -4.0632  -4.0484  -4.0383  -3.6785
    -3.5648  -3.5032  -3.4719  -3.4371  -3.4123  -3.3831  -3.3625  -3.3064
    -3.2847  -3.2759  -3.2572  -3.2328  -3.2151  -3.1823  -3.1530  -3.1028
    -3.0584  -3.0455  -3.0016  -2.9500  -2.9319  -2.9048  -2.8420  -2.7571
    -2.7224  -2.6927  -2.6428  -2.6274  -2.5925  -2.5523  -2.5223  -2.4771
    -2.4391  -2.4250  -2.3885  -2.3106  -2.2728  -2.2465  -2.2375  -2.1692
    -2.1026  -2.0805  -2.0335  -2.0086  -2.0017  -1.9903  -1.9697  -1.9345
    -1.9178  -1.8968  -1.8742  -1.8638  -1.8491  -1.8369  -1.8275  -1.8214
    -1.7652  -1.7574  -1.7146  -1.7033  -1.6797  -1.6519  -1.6225  -1.6089
    -1.5808  -1.5470  -1.5159  -1.4861  -1.4184  -1.3806  -1.2963  -1.2785
    -1.2221  -1.1953  -1.1851  -1.1381  -1.1112  -1.0908  -1.0386  -0.9886
    -0.9652  -0.8835  -0.7275  -0.7125  -0.6350  -0.6151  -0.4776  -0.4500
    -0.4382  -0.4267  -0.3930  -0.3696  -0.2979  -0.0817   0.0067   0.0364
     0.1546   1.3160   1.7581

     occupation numbers 
     1.0000   1.0000   1.0000   1.0000   1.0000   1.0000   1.0000   1.0000
     1.0000   1.0000   1.0000   1.0000   1.0000   1.0000   1.0000   1.0000
     1.0000   1.0000   1.0000   1.0000   1.0000   1.0000   1.0000   1.0000
     1.0000   1.0000   1.0000   1.0000   1.0000   1.0000   1.0000   1.0000
     1.0000   1.0000   1.0000   1.0000   1.0000   1.0000   1.0000   1.0000
     1.0000   1.0000   1.0000   1.0000   1.0000   1.0000   1.0000   1.0000
     1.0000   1.0000   1.0000   1.0000   1.0000   1.0000   1.0000   1.0000
     1.0000   1.0000   1.0000   1.0000   1.0000   1.0000   1.0000   1.0000
     1.0000   1.0000   1.0000   1.0000   1.0000   1.0000   1.0000   1.0000
     1.0000   1.0000   1.0000   1.0000   1.0000   1.0000   1.0000   1.0000
     1.0000   1.0000   1.0000   1.0000   1.0000   1.0000   1.0000   1.0000
     1.0000   1.0000   1.0000   1.0000   1.0000   1.0000   1.0000   1.0000
     1.0000   1.0000   1.0000   1.0000   1.0000   1.0000   1.0000   1.0000
     1.0000   1.0000   1.0000   1.0000   1.0000   1.0000   1.0000   1.0000
     1.0000   1.0000   1.0000   1.0000   1.0000   1.0000   1.0000   1.0000
     1.0000   1.0000   1.0000   1.0000   1.0000   1.0000   1.0000   1.0000
     1.0000   1.0000   1.0000   1.0000   1.0000   1.0000   1.0000   1.0000
     1.0000   1.0000   1.0000   1.0000   1.0000   1.0000   1.0000   1.0000
     1.0000   1.0000   1.0000   1.0000   1.0000   1.0000   1.0000   1.0000
     1.0000   1.0000   1.0000   1.0000   1.0000   1.0000   1.0000   1.0000
     1.0000   1.0000   1.0000   1.0000   1.0000   1.0000   1.0000   1.0000
     1.0000   1.0000   1.0000   1.0000   1.0000   1.0000   1.0000   1.0000
     1.0000   1.0000   1.0000   1.0000   1.0000   1.0000   1.0000   1.0000
     1.0000   1.0000   1.0000   1.0000   1.0000   1.0000   1.0000   1.0000
     1.0000   1.0000   1.0000   1.0000   1.0000   1.0000   1.0000   1.0000
     1.0000   1.0000   1.0000   1.0000   1.0000   1.0000   1.0000   1.0000
     1.0000   1.0000   1.0000   1.0000   1.0000   1.0000   1.0000   1.0000
     1.0000   1.0000   1.0000   1.0000   1.0000   1.0000   1.0000   1.0000
     1.0000   1.0000   1.0000   1.0000   1.0000   1.0000   1.0000   1.0000
     1.0000   1.0000   1.0000   1.0000   1.0000   1.0000   1.0000   1.0000
     1.0000   1.0000   0.0000

          k = 0.2000 0.3464 0.0000 (112231 PWs)   bands (ev):

   -73.8138 -73.8099 -73.8069 -73.8047 -73.8026 -73.8013 -73.7986 -73.7962
   -73.7940 -73.7891 -73.7880 -73.7865 -73.7824 -73.7415 -73.7318 -73.7289
   -38.2051 -38.1960 -38.1953 -38.1726 -38.1674 -38.1584 -38.1485 -38.1413
   -38.1266 -38.1160 -38.1052 -38.0702 -38.0533 -38.0477 -38.0434 -38.0320
   -38.0271 -38.0225 -38.0172 -38.0145 -38.0110 -38.0055 -37.9988 -37.9972
   -37.9917 -37.9885 -37.9869 -37.9847 -37.9824 -37.9799 -37.9765 -37.9754
   -37.9699 -37.9659 -37.9575 -37.9521 -37.9494 -37.9465 -37.9378 -37.9334
   -37.9268 -37.9205 -37.9175 -37.9092 -37.8960 -37.8892 -37.8740 -37.8615
   -21.5161 -15.4634 -14.4714 -14.0984 -14.0570 -13.5630 -13.5610 -13.1689
   -13.1166 -13.0053 -12.9315 -12.8052 -12.7863 -12.7064 -12.6699 -12.6008
   -12.5913 -12.5741 -12.5690 -12.4539 -12.4223 -12.3879 -12.3738 -12.3100
   -12.2881 -12.2698 -12.2502 -12.2298 -12.2191 -12.1524 -12.1479 -12.1052
   -12.0941 -12.0339  -8.0019  -7.5724  -6.1755  -6.1679  -6.1373  -6.1186
    -6.1011  -5.7539  -5.7309  -5.7160  -5.6755  -5.6402  -5.5981  -5.5597
    -5.5010  -5.4694  -5.3507  -5.3282  -5.2802  -5.2709  -5.2388  -5.2220
    -5.0916  -4.8995  -4.8851  -4.8099  -4.7488  -4.5928  -4.4834  -4.4578
    -4.3908  -4.3614  -4.3336  -4.2981  -4.2727  -4.2593  -4.2292  -4.2213
    -4.1681  -4.1182  -4.1033  -4.0881  -4.0527  -3.7561  -3.7299  -3.7208
    -3.7131  -3.6878  -3.5964  -3.4899  -3.4218  -3.3902  -3.3447  -3.3145
    -3.2798  -3.2398  -3.2171  -3.1987  -3.1622  -3.1459  -3.0941  -3.0874
    -3.0328  -3.0006  -2.9650  -2.9437  -2.9357  -2.9181  -2.9032  -2.8906
    -2.7928  -2.7164  -2.6890  -2.6405  -2.6041  -2.5356  -2.5017  -2.4704
    -2.4535  -2.4251  -2.3803  -2.3538  -2.3043  -2.2086  -2.1713  -2.1536
    -2.1206  -2.1191  -2.0811  -2.0711  -1.9963  -1.9816  -1.9657  -1.9379
    -1.9166  -1.8928  -1.8689  -1.8448  -1.8293  -1.8154  -1.7880  -1.7456
    -1.7231  -1.7079  -1.7014  -1.6634  -1.6570  -1.6097  -1.5822  -1.5687
    -1.5601  -1.5338  -1.5216  -1.4945  -1.4144  -1.3824  -1.3685  -1.3558
    -1.2794  -1.2160  -1.1993  -1.1752  -1.1480  -1.1032  -1.0208  -0.9905
    -0.8679  -0.8364  -0.6744  -0.6648  -0.6306  -0.6214  -0.6080  -0.5331
    -0.5244  -0.4182  -0.3679  -0.2495  -0.2003  -0.1911  -0.1427   0.0802
     0.1662   1.3297   1.7283

     occupation numbers 
     1.0000   1.0000   1.0000   1.0000   1.0000   1.0000   1.0000   1.0000
     1.0000   1.0000   1.0000   1.0000   1.0000   1.0000   1.0000   1.0000
     1.0000   1.0000   1.0000   1.0000   1.0000   1.0000   1.0000   1.0000
     1.0000   1.0000   1.0000   1.0000   1.0000   1.0000   1.0000   1.0000
     1.0000   1.0000   1.0000   1.0000   1.0000   1.0000   1.0000   1.0000
     1.0000   1.0000   1.0000   1.0000   1.0000   1.0000   1.0000   1.0000
     1.0000   1.0000   1.0000   1.0000   1.0000   1.0000   1.0000   1.0000
     1.0000   1.0000   1.0000   1.0000   1.0000   1.0000   1.0000   1.0000
     1.0000   1.0000   1.0000   1.0000   1.0000   1.0000   1.0000   1.0000
     1.0000   1.0000   1.0000   1.0000   1.0000   1.0000   1.0000   1.0000
     1.0000   1.0000   1.0000   1.0000   1.0000   1.0000   1.0000   1.0000
     1.0000   1.0000   1.0000   1.0000   1.0000   1.0000   1.0000   1.0000
     1.0000   1.0000   1.0000   1.0000   1.0000   1.0000   1.0000   1.0000
     1.0000   1.0000   1.0000   1.0000   1.0000   1.0000   1.0000   1.0000
     1.0000   1.0000   1.0000   1.0000   1.0000   1.0000   1.0000   1.0000
     1.0000   1.0000   1.0000   1.0000   1.0000   1.0000   1.0000   1.0000
     1.0000   1.0000   1.0000   1.0000   1.0000   1.0000   1.0000   1.0000
     1.0000   1.0000   1.0000   1.0000   1.0000   1.0000   1.0000   1.0000
     1.0000   1.0000   1.0000   1.0000   1.0000   1.0000   1.0000   1.0000
     1.0000   1.0000   1.0000   1.0000   1.0000   1.0000   1.0000   1.0000
     1.0000   1.0000   1.0000   1.0000   1.0000   1.0000   1.0000   1.0000
     1.0000   1.0000   1.0000   1.0000   1.0000   1.0000   1.0000   1.0000
     1.0000   1.0000   1.0000   1.0000   1.0000   1.0000   1.0000   1.0000
     1.0000   1.0000   1.0000   1.0000   1.0000   1.0000   1.0000   1.0000
     1.0000   1.0000   1.0000   1.0000   1.0000   1.0000   1.0000   1.0000
     1.0000   1.0000   1.0000   1.0000   1.0000   1.0000   1.0000   1.0000
     1.0000   1.0000   1.0000   1.0000   1.0000   1.0000   1.0000   1.0000
     1.0000   1.0000   1.0000   1.0000   1.0000   1.0000   1.0000   1.0000
     1.0000   1.0000   1.0000   1.0000   1.0000   1.0000   1.0000   1.0000
     1.0000   1.0000   1.0000   1.0000   1.0000   1.0000   1.0000   1.0000
     1.0000   1.0000   0.0000

          k = 0.2000 0.5774 0.0000 (112237 PWs)   bands (ev):

   -73.8137 -73.8099 -73.8071 -73.8046 -73.8027 -73.8013 -73.7984 -73.7961
   -73.7942 -73.7891 -73.7880 -73.7865 -73.7824 -73.7415 -73.7318 -73.7289
   -38.1959 -38.1889 -38.1802 -38.1761 -38.1704 -38.1665 -38.1584 -38.1431
   -38.1391 -38.1230 -38.0857 -38.0844 -38.0764 -38.0450 -38.0412 -38.0347
   -38.0292 -38.0228 -38.0135 -38.0099 -38.0038 -38.0001 -37.9982 -37.9963
   -37.9952 -37.9932 -37.9885 -37.9845 -37.9820 -37.9764 -37.9692 -37.9652
   -37.9601 -37.9558 -37.9535 -37.9506 -37.9495 -37.9419 -37.9382 -37.9347
   -37.9314 -37.9245 -37.9204 -37.9163 -37.9045 -37.8869 -37.8746 -37.8661
   -21.5161 -15.4634 -14.3316 -14.2896 -14.1116 -13.5919 -13.2959 -13.2910
   -12.9476 -12.9443 -12.8853 -12.8500 -12.8377 -12.7998 -12.7903 -12.6550
   -12.6277 -12.5999 -12.4882 -12.4817 -12.3800 -12.3684 -12.3549 -12.3215
   -12.3070 -12.2951 -12.2557 -12.2312 -12.2302 -12.1282 -12.1181 -12.1157
   -12.0769 -12.0144  -8.0019  -7.5724  -6.1610  -6.0439  -5.9982  -5.9815
    -5.9149  -5.8899  -5.8705  -5.8438  -5.8051  -5.7399  -5.6815  -5.6183
    -5.6097  -5.5370  -5.3580  -5.2604  -5.2503  -5.2134  -5.1982  -5.1661
    -5.1500  -4.8508  -4.8270  -4.7435  -4.6270  -4.5710  -4.5413  -4.5141
    -4.4684  -4.4115  -4.3919  -4.3118  -4.3056  -4.2354  -4.2281  -4.2080
    -4.1818  -4.1610  -4.1186  -4.0923  -3.9491  -3.9457  -3.7841  -3.6565
    -3.6335  -3.5592  -3.4269  -3.3830  -3.3501  -3.3176  -3.2972  -3.2793
    -3.2646  -3.2552  -3.2373  -3.2277  -3.2104  -3.1947  -3.1354  -3.1161
    -3.0921  -3.0741  -3.0562  -3.0241  -2.9921  -2.9219  -2.8677  -2.8114
    -2.7287  -2.6973  -2.6785  -2.6557  -2.5991  -2.5382  -2.4929  -2.4413
    -2.3842  -2.3266  -2.3144  -2.3002  -2.2448  -2.1896  -2.1670  -2.1238
    -2.1079  -2.0930  -2.0678  -2.0466  -2.0063  -1.9729  -1.9538  -1.9427
    -1.9246  -1.9051  -1.8856  -1.8692  -1.8607  -1.8480  -1.8377  -1.8280
    -1.8106  -1.7719  -1.7584  -1.7278  -1.6970  -1.6727  -1.6581  -1.6357
    -1.6022  -1.5608  -1.5431  -1.4903  -1.4723  -1.4576  -1.3918  -1.3206
    -1.2659  -1.1849  -1.1513  -1.1338  -1.0862  -1.0726  -0.9977  -0.9724
    -0.8065  -0.7912  -0.6952  -0.6829  -0.6498  -0.6357  -0.5856  -0.5745
    -0.5566  -0.3910  -0.2716  -0.2623  -0.1800  -0.1170  -0.0566   0.1219
     0.1970   1.3379   1.7415

     occupation numbers 
     1.0000   1.0000   1.0000   1.0000   1.0000   1.0000   1.0000   1.0000
     1.0000   1.0000   1.0000   1.0000   1.0000   1.0000   1.0000   1.0000
     1.0000   1.0000   1.0000   1.0000   1.0000   1.0000   1.0000   1.0000
     1.0000   1.0000   1.0000   1.0000   1.0000   1.0000   1.0000   1.0000
     1.0000   1.0000   1.0000   1.0000   1.0000   1.0000   1.0000   1.0000
     1.0000   1.0000   1.0000   1.0000   1.0000   1.0000   1.0000   1.0000
     1.0000   1.0000   1.0000   1.0000   1.0000   1.0000   1.0000   1.0000
     1.0000   1.0000   1.0000   1.0000   1.0000   1.0000   1.0000   1.0000
     1.0000   1.0000   1.0000   1.0000   1.0000   1.0000   1.0000   1.0000
     1.0000   1.0000   1.0000   1.0000   1.0000   1.0000   1.0000   1.0000
     1.0000   1.0000   1.0000   1.0000   1.0000   1.0000   1.0000   1.0000
     1.0000   1.0000   1.0000   1.0000   1.0000   1.0000   1.0000   1.0000
     1.0000   1.0000   1.0000   1.0000   1.0000   1.0000   1.0000   1.0000
     1.0000   1.0000   1.0000   1.0000   1.0000   1.0000   1.0000   1.0000
     1.0000   1.0000   1.0000   1.0000   1.0000   1.0000   1.0000   1.0000
     1.0000   1.0000   1.0000   1.0000   1.0000   1.0000   1.0000   1.0000
     1.0000   1.0000   1.0000   1.0000   1.0000   1.0000   1.0000   1.0000
     1.0000   1.0000   1.0000   1.0000   1.0000   1.0000   1.0000   1.0000
     1.0000   1.0000   1.0000   1.0000   1.0000   1.0000   1.0000   1.0000
     1.0000   1.0000   1.0000   1.0000   1.0000   1.0000   1.0000   1.0000
     1.0000   1.0000   1.0000   1.0000   1.0000   1.0000   1.0000   1.0000
     1.0000   1.0000   1.0000   1.0000   1.0000   1.0000   1.0000   1.0000
     1.0000   1.0000   1.0000   1.0000   1.0000   1.0000   1.0000   1.0000
     1.0000   1.0000   1.0000   1.0000   1.0000   1.0000   1.0000   1.0000
     1.0000   1.0000   1.0000   1.0000   1.0000   1.0000   1.0000   1.0000
     1.0000   1.0000   1.0000   1.0000   1.0000   1.0000   1.0000   1.0000
     1.0000   1.0000   1.0000   1.0000   1.0000   1.0000   1.0000   1.0000
     1.0000   1.0000   1.0000   1.0000   1.0000   1.0000   1.0000   1.0000
     1.0000   1.0000   1.0000   1.0000   1.0000   1.0000   1.0000   1.0000
     1.0000   1.0000   1.0000   1.0000   1.0000   1.0000   1.0000   1.0000
     1.0000   1.0000   0.0000

          k =-0.2000 0.1155 0.0000 (112171 PWs)   bands (ev):

   -73.8140 -73.8097 -73.8067 -73.8048 -73.8024 -73.8018 -73.7985 -73.7962
   -73.7940 -73.7891 -73.7880 -73.7865 -73.7824 -73.7415 -73.7318 -73.7288
   -38.2110 -38.2106 -38.2060 -38.1621 -38.1589 -38.1563 -38.1507 -38.1392
   -38.1321 -38.0960 -38.0721 -38.0699 -38.0466 -38.0428 -38.0376 -38.0285
   -38.0224 -38.0206 -38.0197 -38.0183 -38.0116 -38.0100 -38.0087 -38.0053
   -37.9994 -37.9945 -37.9929 -37.9915 -37.9884 -37.9870 -37.9847 -37.9829
   -37.9794 -37.9764 -37.9555 -37.9525 -37.9498 -37.9458 -37.9358 -37.9278
   -37.9240 -37.9141 -37.9100 -37.9035 -37.8995 -37.8895 -37.8638 -37.8599
   -21.5161 -15.4634 -14.5533 -13.9723 -13.7980 -13.7856 -13.4756 -13.4709
   -13.3223 -12.9638 -12.7874 -12.7531 -12.6888 -12.6790 -12.6550 -12.5838
   -12.5616 -12.5182 -12.4939 -12.4763 -12.4658 -12.4305 -12.4212 -12.3046
   -12.2920 -12.2594 -12.2422 -12.2108 -12.1846 -12.1731 -12.1661 -12.1497
   -12.0932 -12.0791  -8.0019  -7.5724  -6.2788  -6.2584  -6.2381  -6.2252
    -6.1522  -5.6681  -5.6320  -5.6194  -5.5439  -5.5259  -5.4855  -5.4657
    -5.4327  -5.4138  -5.3800  -5.3242  -5.3082  -5.2780  -5.2727  -5.0759
    -5.0594  -5.0116  -4.9971  -4.9477  -4.7361  -4.7325  -4.5627  -4.5039
    -4.4398  -4.3667  -4.3352  -4.2731  -4.2012  -4.1574  -4.1425  -4.1191
    -4.0959  -4.0610  -4.0368  -3.9925  -3.9799  -3.9113  -3.9012  -3.8926
    -3.6493  -3.5807  -3.5286  -3.4961  -3.4710  -3.4549  -3.4404  -3.3704
    -3.3618  -3.3073  -3.2908  -3.2736  -3.2531  -3.2009  -3.1894  -3.1491
    -3.0742  -2.9679  -2.9446  -2.9115  -2.8134  -2.7879  -2.7640  -2.7384
    -2.7153  -2.7028  -2.6902  -2.6806  -2.6621  -2.6343  -2.5800  -2.5382
    -2.4930  -2.4757  -2.4610  -2.4253  -2.3544  -2.3007  -2.1781  -2.1649
    -2.1124  -2.0651  -2.0128  -1.9914  -1.9639  -1.9534  -1.9230  -1.8989
    -1.8736  -1.8541  -1.8305  -1.8110  -1.7914  -1.7627  -1.7366  -1.7213
    -1.7033  -1.6920  -1.6740  -1.6530  -1.6431  -1.5983  -1.5647  -1.5434
    -1.5141  -1.4946  -1.4881  -1.4306  -1.4222  -1.3579  -1.3428  -1.3219
    -1.3051  -1.2715  -1.2436  -1.2129  -1.1453  -1.0712  -1.0347  -0.9898
    -0.8933  -0.7685  -0.7507  -0.7307  -0.5774  -0.5623  -0.5414  -0.5267
    -0.5103  -0.5013  -0.4050  -0.3750  -0.3504  -0.2405  -0.1648  -0.1370
     0.1996   1.3295   1.6816

     occupation numbers 
     1.0000   1.0000   1.0000   1.0000   1.0000   1.0000   1.0000   1.0000
     1.0000   1.0000   1.0000   1.0000   1.0000   1.0000   1.0000   1.0000
     1.0000   1.0000   1.0000   1.0000   1.0000   1.0000   1.0000   1.0000
     1.0000   1.0000   1.0000   1.0000   1.0000   1.0000   1.0000   1.0000
     1.0000   1.0000   1.0000   1.0000   1.0000   1.0000   1.0000   1.0000
     1.0000   1.0000   1.0000   1.0000   1.0000   1.0000   1.0000   1.0000
     1.0000   1.0000   1.0000   1.0000   1.0000   1.0000   1.0000   1.0000
     1.0000   1.0000   1.0000   1.0000   1.0000   1.0000   1.0000   1.0000
     1.0000   1.0000   1.0000   1.0000   1.0000   1.0000   1.0000   1.0000
     1.0000   1.0000   1.0000   1.0000   1.0000   1.0000   1.0000   1.0000
     1.0000   1.0000   1.0000   1.0000   1.0000   1.0000   1.0000   1.0000
     1.0000   1.0000   1.0000   1.0000   1.0000   1.0000   1.0000   1.0000
     1.0000   1.0000   1.0000   1.0000   1.0000   1.0000   1.0000   1.0000
     1.0000   1.0000   1.0000   1.0000   1.0000   1.0000   1.0000   1.0000
     1.0000   1.0000   1.0000   1.0000   1.0000   1.0000   1.0000   1.0000
     1.0000   1.0000   1.0000   1.0000   1.0000   1.0000   1.0000   1.0000
     1.0000   1.0000   1.0000   1.0000   1.0000   1.0000   1.0000   1.0000
     1.0000   1.0000   1.0000   1.0000   1.0000   1.0000   1.0000   1.0000
     1.0000   1.0000   1.0000   1.0000   1.0000   1.0000   1.0000   1.0000
     1.0000   1.0000   1.0000   1.0000   1.0000   1.0000   1.0000   1.0000
     1.0000   1.0000   1.0000   1.0000   1.0000   1.0000   1.0000   1.0000
     1.0000   1.0000   1.0000   1.0000   1.0000   1.0000   1.0000   1.0000
     1.0000   1.0000   1.0000   1.0000   1.0000   1.0000   1.0000   1.0000
     1.0000   1.0000   1.0000   1.0000   1.0000   1.0000   1.0000   1.0000
     1.0000   1.0000   1.0000   1.0000   1.0000   1.0000   1.0000   1.0000
     1.0000   1.0000   1.0000   1.0000   1.0000   1.0000   1.0000   1.0000
     1.0000   1.0000   1.0000   1.0000   1.0000   1.0000   1.0000   1.0000
     1.0000   1.0000   1.0000   1.0000   1.0000   1.0000   1.0000   1.0000
     1.0000   1.0000   1.0000   1.0000   1.0000   1.0000   1.0000   1.0000
     1.0000   1.0000   1.0000   1.0000   1.0000   1.0000   1.0000   1.0000
     1.0000   1.0000   0.0000

          k = 0.2000 0.1155 0.0000 (112171 PWs)   bands (ev):

   -73.8140 -73.8098 -73.8066 -73.8048 -73.8025 -73.8016 -73.7986 -73.7962
   -73.7939 -73.7891 -73.7880 -73.7865 -73.7824 -73.7415 -73.7318 -73.7288
   -38.2116 -38.2094 -38.2066 -38.1634 -38.1584 -38.1555 -38.1499 -38.1393
   -38.1326 -38.0962 -38.0723 -38.0697 -38.0466 -38.0417 -38.0391 -38.0284
   -38.0229 -38.0207 -38.0190 -38.0173 -38.0126 -38.0098 -38.0079 -38.0053
   -37.9998 -37.9944 -37.9935 -37.9901 -37.9881 -37.9872 -37.9859 -37.9828
   -37.9794 -37.9764 -37.9546 -37.9536 -37.9499 -37.9454 -37.9358 -37.9279
   -37.9236 -37.9136 -37.9106 -37.9036 -37.8994 -37.8898 -37.8657 -37.8580
   -21.5161 -15.4634 -14.5533 -13.9724 -13.7973 -13.7861 -13.4745 -13.4727
   -13.3216 -12.9639 -12.7873 -12.7525 -12.6881 -12.6806 -12.6554 -12.5837
   -12.5627 -12.5170 -12.4916 -12.4781 -12.4657 -12.4325 -12.4202 -12.3003
   -12.2919 -12.2622 -12.2452 -12.2063 -12.1902 -12.1707 -12.1686 -12.1468
   -12.0906 -12.0816  -8.0019  -7.5724  -6.2730  -6.2609  -6.2413  -6.2259
    -6.1522  -5.6609  -5.6376  -5.6160  -5.5438  -5.5310  -5.4845  -5.4673
    -5.4371  -5.4189  -5.3670  -5.3236  -5.3111  -5.2784  -5.2714  -5.0733
    -5.0664  -5.0100  -5.0004  -4.9419  -4.7374  -4.7328  -4.5565  -4.5039
    -4.4346  -4.3874  -4.3346  -4.2676  -4.2001  -4.1581  -4.1447  -4.1196
    -4.0954  -4.0519  -4.0363  -3.9992  -3.9789  -3.9086  -3.9049  -3.8949
    -3.6416  -3.5620  -3.5435  -3.5019  -3.4622  -3.4526  -3.4353  -3.3775
    -3.3676  -3.3044  -3.2950  -3.2778  -3.2443  -3.2070  -3.1923  -3.1429
    -3.0825  -2.9814  -2.9346  -2.9002  -2.8104  -2.7898  -2.7686  -2.7402
    -2.7269  -2.7034  -2.6919  -2.6812  -2.6480  -2.6219  -2.5733  -2.5418
    -2.5169  -2.4823  -2.4635  -2.4133  -2.3508  -2.2935  -2.1887  -2.1631
    -2.1065  -2.0659  -2.0106  -1.9830  -1.9584  -1.9461  -1.9146  -1.9007
    -1.8930  -1.8667  -1.8285  -1.8116  -1.7961  -1.7660  -1.7381  -1.7305
    -1.7029  -1.6841  -1.6704  -1.6467  -1.6279  -1.6095  -1.5836  -1.5311
    -1.5252  -1.4964  -1.4478  -1.4377  -1.4184  -1.3932  -1.3450  -1.3054
    -1.3009  -1.2899  -1.2389  -1.1966  -1.1520  -1.0507  -1.0359  -1.0066
    -0.8905  -0.7589  -0.7494  -0.7445  -0.5882  -0.5533  -0.5412  -0.5262
    -0.5130  -0.5055  -0.4008  -0.3764  -0.3454  -0.2414  -0.1608  -0.1407
     0.2002   1.3243   1.6882

     occupation numbers 
     1.0000   1.0000   1.0000   1.0000   1.0000   1.0000   1.0000   1.0000
     1.0000   1.0000   1.0000   1.0000   1.0000   1.0000   1.0000   1.0000
     1.0000   1.0000   1.0000   1.0000   1.0000   1.0000   1.0000   1.0000
     1.0000   1.0000   1.0000   1.0000   1.0000   1.0000   1.0000   1.0000
     1.0000   1.0000   1.0000   1.0000   1.0000   1.0000   1.0000   1.0000
     1.0000   1.0000   1.0000   1.0000   1.0000   1.0000   1.0000   1.0000
     1.0000   1.0000   1.0000   1.0000   1.0000   1.0000   1.0000   1.0000
     1.0000   1.0000   1.0000   1.0000   1.0000   1.0000   1.0000   1.0000
     1.0000   1.0000   1.0000   1.0000   1.0000   1.0000   1.0000   1.0000
     1.0000   1.0000   1.0000   1.0000   1.0000   1.0000   1.0000   1.0000
     1.0000   1.0000   1.0000   1.0000   1.0000   1.0000   1.0000   1.0000
     1.0000   1.0000   1.0000   1.0000   1.0000   1.0000   1.0000   1.0000
     1.0000   1.0000   1.0000   1.0000   1.0000   1.0000   1.0000   1.0000
     1.0000   1.0000   1.0000   1.0000   1.0000   1.0000   1.0000   1.0000
     1.0000   1.0000   1.0000   1.0000   1.0000   1.0000   1.0000   1.0000
     1.0000   1.0000   1.0000   1.0000   1.0000   1.0000   1.0000   1.0000
     1.0000   1.0000   1.0000   1.0000   1.0000   1.0000   1.0000   1.0000
     1.0000   1.0000   1.0000   1.0000   1.0000   1.0000   1.0000   1.0000
     1.0000   1.0000   1.0000   1.0000   1.0000   1.0000   1.0000   1.0000
     1.0000   1.0000   1.0000   1.0000   1.0000   1.0000   1.0000   1.0000
     1.0000   1.0000   1.0000   1.0000   1.0000   1.0000   1.0000   1.0000
     1.0000   1.0000   1.0000   1.0000   1.0000   1.0000   1.0000   1.0000
     1.0000   1.0000   1.0000   1.0000   1.0000   1.0000   1.0000   1.0000
     1.0000   1.0000   1.0000   1.0000   1.0000   1.0000   1.0000   1.0000
     1.0000   1.0000   1.0000   1.0000   1.0000   1.0000   1.0000   1.0000
     1.0000   1.0000   1.0000   1.0000   1.0000   1.0000   1.0000   1.0000
     1.0000   1.0000   1.0000   1.0000   1.0000   1.0000   1.0000   1.0000
     1.0000   1.0000   1.0000   1.0000   1.0000   1.0000   1.0000   1.0000
     1.0000   1.0000   1.0000   1.0000   1.0000   1.0000   1.0000   1.0000
     1.0000   1.0000   1.0000   1.0000   1.0000   1.0000   1.0000   1.0000
     1.0000   1.0000   0.0000

          k =-0.4000 0.2309 0.0000 (112236 PWs)   bands (ev):

   -73.8138 -73.8099 -73.8068 -73.8049 -73.8022 -73.8018 -73.7984 -73.7962
   -73.7940 -73.7892 -73.7880 -73.7865 -73.7824 -73.7415 -73.7318 -73.7289
   -38.2004 -38.1978 -38.1844 -38.1792 -38.1725 -38.1569 -38.1547 -38.1387
   -38.1232 -38.1171 -38.0975 -38.0936 -38.0569 -38.0506 -38.0428 -38.0343
   -38.0240 -38.0200 -38.0073 -38.0070 -38.0052 -38.0032 -37.9993 -37.9963
   -37.9939 -37.9912 -37.9902 -37.9886 -37.9851 -37.9815 -37.9764 -37.9742
   -37.9674 -37.9600 -37.9574 -37.9512 -37.9449 -37.9420 -37.9395 -37.9363
   -37.9287 -37.9230 -37.9170 -37.9092 -37.8998 -37.8850 -37.8775 -37.8631
   -21.5161 -15.4634 -14.4318 -14.2294 -13.8653 -13.8551 -13.2453 -13.2401
   -13.0197 -12.9936 -12.9719 -12.9077 -12.8300 -12.7287 -12.7010 -12.6826
   -12.5302 -12.5042 -12.4583 -12.4502 -12.4280 -12.4226 -12.3837 -12.3608
   -12.3502 -12.2802 -12.2188 -12.1968 -12.1740 -12.1591 -12.1531 -12.1502
   -12.0543 -12.0383  -8.0019  -7.5724  -6.1645  -6.1241  -6.1021  -6.0843
    -6.0180  -5.8710  -5.8519  -5.8326  -5.7065  -5.5251  -5.5063  -5.4808
    -5.4497  -5.4420  -5.4341  -5.3853  -5.3760  -5.3129  -5.3053  -5.0754
    -5.0535  -5.0201  -5.0033  -4.7980  -4.5993  -4.5445  -4.4720  -4.4361
    -4.4083  -4.3683  -4.3483  -4.3046  -4.2408  -4.2174  -4.1920  -4.1568
    -4.1183  -4.1097  -4.0978  -4.0719  -4.0648  -4.0485  -4.0377  -3.6720
    -3.5624  -3.5149  -3.4692  -3.4502  -3.4201  -3.3906  -3.3522  -3.3130
    -3.2840  -3.2751  -3.2554  -3.2380  -3.2098  -3.1918  -3.1414  -3.1118
    -3.0629  -3.0323  -3.0061  -2.9449  -2.9258  -2.8940  -2.8195  -2.7592
    -2.7141  -2.6963  -2.6453  -2.6225  -2.5886  -2.5743  -2.5435  -2.4758
    -2.4233  -2.4176  -2.3879  -2.3259  -2.2746  -2.2466  -2.2382  -2.1609
    -2.1141  -2.0928  -2.0478  -2.0249  -2.0057  -1.9869  -1.9505  -1.9166
    -1.9030  -1.8900  -1.8798  -1.8620  -1.8536  -1.8455  -1.8341  -1.8156
    -1.7784  -1.7479  -1.7091  -1.6849  -1.6807  -1.6549  -1.6405  -1.6067
    -1.5802  -1.5481  -1.4920  -1.4631  -1.4415  -1.3477  -1.3191  -1.2902
    -1.2584  -1.2069  -1.1681  -1.1225  -1.1120  -1.0923  -1.0661  -0.9796
    -0.9521  -0.8695  -0.7278  -0.7115  -0.6335  -0.6162  -0.4957  -0.4482
    -0.4407  -0.4188  -0.3980  -0.3677  -0.2853  -0.0917   0.0078   0.0390
     0.1500   1.3759   1.6891

     occupation numbers 
     1.0000   1.0000   1.0000   1.0000   1.0000   1.0000   1.0000   1.0000
     1.0000   1.0000   1.0000   1.0000   1.0000   1.0000   1.0000   1.0000
     1.0000   1.0000   1.0000   1.0000   1.0000   1.0000   1.0000   1.0000
     1.0000   1.0000   1.0000   1.0000   1.0000   1.0000   1.0000   1.0000
     1.0000   1.0000   1.0000   1.0000   1.0000   1.0000   1.0000   1.0000
     1.0000   1.0000   1.0000   1.0000   1.0000   1.0000   1.0000   1.0000
     1.0000   1.0000   1.0000   1.0000   1.0000   1.0000   1.0000   1.0000
     1.0000   1.0000   1.0000   1.0000   1.0000   1.0000   1.0000   1.0000
     1.0000   1.0000   1.0000   1.0000   1.0000   1.0000   1.0000   1.0000
     1.0000   1.0000   1.0000   1.0000   1.0000   1.0000   1.0000   1.0000
     1.0000   1.0000   1.0000   1.0000   1.0000   1.0000   1.0000   1.0000
     1.0000   1.0000   1.0000   1.0000   1.0000   1.0000   1.0000   1.0000
     1.0000   1.0000   1.0000   1.0000   1.0000   1.0000   1.0000   1.0000
     1.0000   1.0000   1.0000   1.0000   1.0000   1.0000   1.0000   1.0000
     1.0000   1.0000   1.0000   1.0000   1.0000   1.0000   1.0000   1.0000
     1.0000   1.0000   1.0000   1.0000   1.0000   1.0000   1.0000   1.0000
     1.0000   1.0000   1.0000   1.0000   1.0000   1.0000   1.0000   1.0000
     1.0000   1.0000   1.0000   1.0000   1.0000   1.0000   1.0000   1.0000
     1.0000   1.0000   1.0000   1.0000   1.0000   1.0000   1.0000   1.0000
     1.0000   1.0000   1.0000   1.0000   1.0000   1.0000   1.0000   1.0000
     1.0000   1.0000   1.0000   1.0000   1.0000   1.0000   1.0000   1.0000
     1.0000   1.0000   1.0000   1.0000   1.0000   1.0000   1.0000   1.0000
     1.0000   1.0000   1.0000   1.0000   1.0000   1.0000   1.0000   1.0000
     1.0000   1.0000   1.0000   1.0000   1.0000   1.0000   1.0000   1.0000
     1.0000   1.0000   1.0000   1.0000   1.0000   1.0000   1.0000   1.0000
     1.0000   1.0000   1.0000   1.0000   1.0000   1.0000   1.0000   1.0000
     1.0000   1.0000   1.0000   1.0000   1.0000   1.0000   1.0000   1.0000
     1.0000   1.0000   1.0000   1.0000   1.0000   1.0000   1.0000   1.0000
     1.0000   1.0000   1.0000   1.0000   1.0000   1.0000   1.0000   1.0000
     1.0000   1.0000   1.0000   1.0000   1.0000   1.0000   1.0000   1.0000
     1.0000   1.0000   0.0000

          k = 0.4000 0.2309 0.0000 (112236 PWs)   bands (ev):

   -73.8137 -73.8101 -73.8067 -73.8049 -73.8023 -73.8013 -73.7989 -73.7962
   -73.7938 -73.7892 -73.7879 -73.7865 -73.7824 -73.7415 -73.7318 -73.7288
   -38.1991 -38.1986 -38.1849 -38.1806 -38.1709 -38.1562 -38.1550 -38.1394
   -38.1226 -38.1170 -38.0985 -38.0938 -38.0554 -38.0519 -38.0427 -38.0345
   -38.0244 -38.0183 -38.0078 -38.0069 -38.0058 -38.0034 -37.9994 -37.9968
   -37.9921 -37.9916 -37.9898 -37.9876 -37.9861 -37.9818 -37.9764 -37.9739
   -37.9690 -37.9595 -37.9576 -37.9508 -37.9438 -37.9422 -37.9398 -37.9353
   -37.9275 -37.9238 -37.9179 -37.9102 -37.8978 -37.8860 -37.8809 -37.8606
   -21.5161 -15.4634 -14.4317 -14.2296 -13.8648 -13.8555 -13.2449 -13.2413
   -13.0167 -12.9932 -12.9740 -12.9069 -12.8306 -12.7265 -12.7029 -12.6835
   -12.5379 -12.4964 -12.4624 -12.4475 -12.4271 -12.4226 -12.3843 -12.3594
   -12.3479 -12.2800 -12.2258 -12.1948 -12.1758 -12.1581 -12.1533 -12.1476
   -12.0515 -12.0408  -8.0019  -7.5724  -6.1643  -6.1149  -6.1056  -6.0829
    -6.0307  -5.8638  -5.8520  -5.8295  -5.7111  -5.5268  -5.5054  -5.4836
    -5.4450  -5.4438  -5.4359  -5.3849  -5.3778  -5.3105  -5.3041  -5.0682
    -5.0648  -5.0184  -5.0076  -4.7710  -4.6086  -4.5532  -4.4784  -4.4461
    -4.4145  -4.3675  -4.3446  -4.3009  -4.2351  -4.2217  -4.1877  -4.1540
    -4.1218  -4.1120  -4.0987  -4.0733  -4.0602  -4.0463  -4.0389  -3.6589
    -3.5566  -3.5159  -3.4581  -3.4443  -3.4240  -3.3944  -3.3545  -3.3212
    -3.2868  -3.2708  -3.2496  -3.2320  -3.2146  -3.1989  -3.1310  -3.1127
    -3.0719  -3.0525  -3.0127  -2.9456  -2.9240  -2.8983  -2.8278  -2.7597
    -2.7117  -2.6788  -2.6345  -2.6119  -2.6084  -2.5925  -2.5021  -2.4863
    -2.4489  -2.4246  -2.3663  -2.3254  -2.2687  -2.2532  -2.2380  -2.1416
    -2.1106  -2.0993  -2.0329  -2.0051  -1.9962  -1.9776  -1.9679  -1.9522
    -1.9257  -1.8952  -1.8809  -1.8602  -1.8473  -1.8418  -1.8334  -1.8111
    -1.7945  -1.7425  -1.7157  -1.6976  -1.6844  -1.6333  -1.6212  -1.6146
    -1.5911  -1.5441  -1.5015  -1.4887  -1.4070  -1.3554  -1.3029  -1.2837
    -1.2462  -1.2278  -1.1857  -1.1302  -1.1133  -1.0548  -1.0398  -0.9893
    -0.9656  -0.8768  -0.7240  -0.7179  -0.6330  -0.6226  -0.5036  -0.4517
    -0.4428  -0.4162  -0.4004  -0.3563  -0.2797  -0.0925   0.0098   0.0351
     0.1525   1.3598   1.7095

     occupation numbers 
     1.0000   1.0000   1.0000   1.0000   1.0000   1.0000   1.0000   1.0000
     1.0000   1.0000   1.0000   1.0000   1.0000   1.0000   1.0000   1.0000
     1.0000   1.0000   1.0000   1.0000   1.0000   1.0000   1.0000   1.0000
     1.0000   1.0000   1.0000   1.0000   1.0000   1.0000   1.0000   1.0000
     1.0000   1.0000   1.0000   1.0000   1.0000   1.0000   1.0000   1.0000
     1.0000   1.0000   1.0000   1.0000   1.0000   1.0000   1.0000   1.0000
     1.0000   1.0000   1.0000   1.0000   1.0000   1.0000   1.0000   1.0000
     1.0000   1.0000   1.0000   1.0000   1.0000   1.0000   1.0000   1.0000
     1.0000   1.0000   1.0000   1.0000   1.0000   1.0000   1.0000   1.0000
     1.0000   1.0000   1.0000   1.0000   1.0000   1.0000   1.0000   1.0000
     1.0000   1.0000   1.0000   1.0000   1.0000   1.0000   1.0000   1.0000
     1.0000   1.0000   1.0000   1.0000   1.0000   1.0000   1.0000   1.0000
     1.0000   1.0000   1.0000   1.0000   1.0000   1.0000   1.0000   1.0000
     1.0000   1.0000   1.0000   1.0000   1.0000   1.0000   1.0000   1.0000
     1.0000   1.0000   1.0000   1.0000   1.0000   1.0000   1.0000   1.0000
     1.0000   1.0000   1.0000   1.0000   1.0000   1.0000   1.0000   1.0000
     1.0000   1.0000   1.0000   1.0000   1.0000   1.0000   1.0000   1.0000
     1.0000   1.0000   1.0000   1.0000   1.0000   1.0000   1.0000   1.0000
     1.0000   1.0000   1.0000   1.0000   1.0000   1.0000   1.0000   1.0000
     1.0000   1.0000   1.0000   1.0000   1.0000   1.0000   1.0000   1.0000
     1.0000   1.0000   1.0000   1.0000   1.0000   1.0000   1.0000   1.0000
     1.0000   1.0000   1.0000   1.0000   1.0000   1.0000   1.0000   1.0000
     1.0000   1.0000   1.0000   1.0000   1.0000   1.0000   1.0000   1.0000
     1.0000   1.0000   1.0000   1.0000   1.0000   1.0000   1.0000   1.0000
     1.0000   1.0000   1.0000   1.0000   1.0000   1.0000   1.0000   1.0000
     1.0000   1.0000   1.0000   1.0000   1.0000   1.0000   1.0000   1.0000
     1.0000   1.0000   1.0000   1.0000   1.0000   1.0000   1.0000   1.0000
     1.0000   1.0000   1.0000   1.0000   1.0000   1.0000   1.0000   1.0000
     1.0000   1.0000   1.0000   1.0000   1.0000   1.0000   1.0000   1.0000
     1.0000   1.0000   1.0000   1.0000   1.0000   1.0000   1.0000   1.0000
     1.0000   1.0000   0.0000

          k =-0.2000 0.3464 0.0000 (112231 PWs)   bands (ev):

   -73.8138 -73.8098 -73.8070 -73.8047 -73.8026 -73.8015 -73.7984 -73.7961
   -73.7942 -73.7891 -73.7880 -73.7865 -73.7824 -73.7415 -73.7318 -73.7289
   -38.2054 -38.1968 -38.1942 -38.1722 -38.1671 -38.1590 -38.1486 -38.1419
   -38.1261 -38.1179 -38.1025 -38.0697 -38.0546 -38.0482 -38.0436 -38.0316
   -38.0273 -38.0222 -38.0168 -38.0157 -38.0106 -38.0045 -37.9989 -37.9965
   -37.9932 -37.9887 -37.9869 -37.9844 -37.9827 -37.9785 -37.9765 -37.9753
   -37.9694 -37.9675 -37.9573 -37.9520 -37.9491 -37.9468 -37.9374 -37.9341
   -37.9268 -37.9202 -37.9171 -37.9115 -37.8946 -37.8881 -37.8726 -37.8634
   -21.5161 -15.4634 -14.4714 -14.0978 -14.0576 -13.5701 -13.5533 -13.1698
   -13.1169 -13.0054 -12.9313 -12.8042 -12.7874 -12.7022 -12.6705 -12.6152
   -12.5815 -12.5744 -12.5663 -12.4514 -12.4235 -12.3901 -12.3763 -12.3073
   -12.2896 -12.2711 -12.2488 -12.2245 -12.2212 -12.1542 -12.1475 -12.1061
   -12.0940 -12.0336  -8.0019  -7.5724  -6.1847  -6.1669  -6.1318  -6.1169
    -6.0982  -5.7575  -5.7301  -5.7124  -5.6937  -5.6228  -5.5985  -5.5568
    -5.5032  -5.4722  -5.3514  -5.3257  -5.2951  -5.2617  -5.2373  -5.2151
    -5.0934  -4.9086  -4.8897  -4.7911  -4.7533  -4.5975  -4.5042  -4.4383
    -4.3906  -4.3398  -4.3299  -4.3041  -4.2774  -4.2555  -4.2404  -4.2216
    -4.1598  -4.1254  -4.1070  -4.0901  -4.0507  -3.7648  -3.7341  -3.7232
    -3.7037  -3.6862  -3.5974  -3.4995  -3.4140  -3.3757  -3.3646  -3.3002
    -3.2793  -3.2360  -3.2232  -3.1971  -3.1594  -3.1435  -3.1108  -3.0789
    -3.0522  -3.0013  -2.9558  -2.9383  -2.9233  -2.9186  -2.9080  -2.8941
    -2.7749  -2.7159  -2.6860  -2.6647  -2.5968  -2.5421  -2.5115  -2.4675
    -2.4515  -2.3997  -2.3798  -2.3552  -2.3120  -2.2074  -2.1894  -2.1454
    -2.1237  -2.1164  -2.0979  -2.0655  -2.0221  -1.9769  -1.9647  -1.9279
    -1.9022  -1.8898  -1.8585  -1.8421  -1.8159  -1.8091  -1.7867  -1.7682
    -1.7329  -1.7057  -1.6875  -1.6672  -1.6408  -1.6244  -1.5791  -1.5766
    -1.5544  -1.5432  -1.5181  -1.4929  -1.4255  -1.3886  -1.3775  -1.3378
    -1.2742  -1.2381  -1.1871  -1.1675  -1.1498  -1.1064  -1.0362  -0.9769
    -0.8706  -0.8266  -0.6814  -0.6647  -0.6284  -0.6183  -0.6029  -0.5334
    -0.5293  -0.4078  -0.3778  -0.2516  -0.1987  -0.1902  -0.1443   0.0808
     0.1647   1.3376   1.7181

     occupation numbers 
     1.0000   1.0000   1.0000   1.0000   1.0000   1.0000   1.0000   1.0000
     1.0000   1.0000   1.0000   1.0000   1.0000   1.0000   1.0000   1.0000
     1.0000   1.0000   1.0000   1.0000   1.0000   1.0000   1.0000   1.0000
     1.0000   1.0000   1.0000   1.0000   1.0000   1.0000   1.0000   1.0000
     1.0000   1.0000   1.0000   1.0000   1.0000   1.0000   1.0000   1.0000
     1.0000   1.0000   1.0000   1.0000   1.0000   1.0000   1.0000   1.0000
     1.0000   1.0000   1.0000   1.0000   1.0000   1.0000   1.0000   1.0000
     1.0000   1.0000   1.0000   1.0000   1.0000   1.0000   1.0000   1.0000
     1.0000   1.0000   1.0000   1.0000   1.0000   1.0000   1.0000   1.0000
     1.0000   1.0000   1.0000   1.0000   1.0000   1.0000   1.0000   1.0000
     1.0000   1.0000   1.0000   1.0000   1.0000   1.0000   1.0000   1.0000
     1.0000   1.0000   1.0000   1.0000   1.0000   1.0000   1.0000   1.0000
     1.0000   1.0000   1.0000   1.0000   1.0000   1.0000   1.0000   1.0000
     1.0000   1.0000   1.0000   1.0000   1.0000   1.0000   1.0000   1.0000
     1.0000   1.0000   1.0000   1.0000   1.0000   1.0000   1.0000   1.0000
     1.0000   1.0000   1.0000   1.0000   1.0000   1.0000   1.0000   1.0000
     1.0000   1.0000   1.0000   1.0000   1.0000   1.0000   1.0000   1.0000
     1.0000   1.0000   1.0000   1.0000   1.0000   1.0000   1.0000   1.0000
     1.0000   1.0000   1.0000   1.0000   1.0000   1.0000   1.0000   1.0000
     1.0000   1.0000   1.0000   1.0000   1.0000   1.0000   1.0000   1.0000
     1.0000   1.0000   1.0000   1.0000   1.0000   1.0000   1.0000   1.0000
     1.0000   1.0000   1.0000   1.0000   1.0000   1.0000   1.0000   1.0000
     1.0000   1.0000   1.0000   1.0000   1.0000   1.0000   1.0000   1.0000
     1.0000   1.0000   1.0000   1.0000   1.0000   1.0000   1.0000   1.0000
     1.0000   1.0000   1.0000   1.0000   1.0000   1.0000   1.0000   1.0000
     1.0000   1.0000   1.0000   1.0000   1.0000   1.0000   1.0000   1.0000
     1.0000   1.0000   1.0000   1.0000   1.0000   1.0000   1.0000   1.0000
     1.0000   1.0000   1.0000   1.0000   1.0000   1.0000   1.0000   1.0000
     1.0000   1.0000   1.0000   1.0000   1.0000   1.0000   1.0000   1.0000
     1.0000   1.0000   1.0000   1.0000   1.0000   1.0000   1.0000   1.0000
     1.0000   1.0000   0.0000

          k = 0.4000-0.0000 0.0000 (112231 PWs)   bands (ev):

   -73.8138 -73.8100 -73.8068 -73.8049 -73.8022 -73.8017 -73.7987 -73.7962
   -73.7939 -73.7892 -73.7879 -73.7865 -73.7824 -73.7415 -73.7318 -73.7289
   -38.2055 -38.1964 -38.1947 -38.1719 -38.1682 -38.1588 -38.1484 -38.1409
   -38.1248 -38.1164 -38.1059 -38.0706 -38.0535 -38.0478 -38.0435 -38.0325
   -38.0260 -38.0227 -38.0177 -38.0157 -38.0106 -38.0056 -37.9992 -37.9949
   -37.9926 -37.9890 -37.9865 -37.9851 -37.9821 -37.9795 -37.9764 -37.9755
   -37.9689 -37.9657 -37.9579 -37.9525 -37.9500 -37.9458 -37.9373 -37.9355
   -37.9250 -37.9202 -37.9171 -37.9099 -37.8960 -37.8895 -37.8735 -37.8618
   -21.5161 -15.4634 -14.4715 -14.0956 -14.0599 -13.5636 -13.5605 -13.1660
   -13.1192 -13.0091 -12.9258 -12.8013 -12.7902 -12.7063 -12.6782 -12.5997
   -12.5959 -12.5717 -12.5573 -12.4537 -12.4199 -12.4086 -12.3618 -12.3055
   -12.2900 -12.2679 -12.2509 -12.2331 -12.2182 -12.1549 -12.1447 -12.1045
   -12.0949 -12.0340  -8.0019  -7.5724  -6.1752  -6.1712  -6.1367  -6.1126
    -6.1042  -5.7501  -5.7352  -5.7165  -5.6814  -5.6302  -5.6040  -5.5556
    -5.5010  -5.4696  -5.3477  -5.3310  -5.2863  -5.2676  -5.2395  -5.2241
    -5.0927  -4.8959  -4.8830  -4.8046  -4.7526  -4.5608  -4.5280  -4.4533
    -4.4031  -4.3417  -4.3338  -4.3072  -4.2722  -4.2602  -4.2379  -4.2050
    -4.1710  -4.1140  -4.1057  -4.0864  -4.0503  -3.7551  -3.7287  -3.7221
    -3.7021  -3.6928  -3.6082  -3.4783  -3.4232  -3.3914  -3.3650  -3.3110
    -3.2756  -3.2397  -3.2273  -3.1968  -3.1687  -3.1386  -3.1186  -3.0749
    -3.0321  -2.9851  -2.9620  -2.9434  -2.9350  -2.9121  -2.8972  -2.8883
    -2.7626  -2.7323  -2.6885  -2.6383  -2.6097  -2.5630  -2.5247  -2.4612
    -2.4543  -2.4095  -2.3786  -2.3349  -2.3111  -2.2141  -2.1735  -2.1450
    -2.1216  -2.1172  -2.0953  -2.0834  -1.9945  -1.9775  -1.9641  -1.9312
    -1.9158  -1.8904  -1.8679  -1.8546  -1.8382  -1.8128  -1.7766  -1.7561
    -1.7320  -1.7011  -1.6814  -1.6650  -1.6441  -1.6170  -1.5863  -1.5667
    -1.5475  -1.5383  -1.5185  -1.4911  -1.4401  -1.4021  -1.3579  -1.3295
    -1.2767  -1.2523  -1.1930  -1.1712  -1.1440  -1.0958  -1.0368  -0.9762
    -0.8603  -0.8409  -0.6758  -0.6672  -0.6285  -0.6148  -0.6068  -0.5327
    -0.5281  -0.4260  -0.3711  -0.2443  -0.1995  -0.1854  -0.1473   0.0784
     0.1643   1.3679   1.6854

     occupation numbers 
     1.0000   1.0000   1.0000   1.0000   1.0000   1.0000   1.0000   1.0000
     1.0000   1.0000   1.0000   1.0000   1.0000   1.0000   1.0000   1.0000
     1.0000   1.0000   1.0000   1.0000   1.0000   1.0000   1.0000   1.0000
     1.0000   1.0000   1.0000   1.0000   1.0000   1.0000   1.0000   1.0000
     1.0000   1.0000   1.0000   1.0000   1.0000   1.0000   1.0000   1.0000
     1.0000   1.0000   1.0000   1.0000   1.0000   1.0000   1.0000   1.0000
     1.0000   1.0000   1.0000   1.0000   1.0000   1.0000   1.0000   1.0000
     1.0000   1.0000   1.0000   1.0000   1.0000   1.0000   1.0000   1.0000
     1.0000   1.0000   1.0000   1.0000   1.0000   1.0000   1.0000   1.0000
     1.0000   1.0000   1.0000   1.0000   1.0000   1.0000   1.0000   1.0000
     1.0000   1.0000   1.0000   1.0000   1.0000   1.0000   1.0000   1.0000
     1.0000   1.0000   1.0000   1.0000   1.0000   1.0000   1.0000   1.0000
     1.0000   1.0000   1.0000   1.0000   1.0000   1.0000   1.0000   1.0000
     1.0000   1.0000   1.0000   1.0000   1.0000   1.0000   1.0000   1.0000
     1.0000   1.0000   1.0000   1.0000   1.0000   1.0000   1.0000   1.0000
     1.0000   1.0000   1.0000   1.0000   1.0000   1.0000   1.0000   1.0000
     1.0000   1.0000   1.0000   1.0000   1.0000   1.0000   1.0000   1.0000
     1.0000   1.0000   1.0000   1.0000   1.0000   1.0000   1.0000   1.0000
     1.0000   1.0000   1.0000   1.0000   1.0000   1.0000   1.0000   1.0000
     1.0000   1.0000   1.0000   1.0000   1.0000   1.0000   1.0000   1.0000
     1.0000   1.0000   1.0000   1.0000   1.0000   1.0000   1.0000   1.0000
     1.0000   1.0000   1.0000   1.0000   1.0000   1.0000   1.0000   1.0000
     1.0000   1.0000   1.0000   1.0000   1.0000   1.0000   1.0000   1.0000
     1.0000   1.0000   1.0000   1.0000   1.0000   1.0000   1.0000   1.0000
     1.0000   1.0000   1.0000   1.0000   1.0000   1.0000   1.0000   1.0000
     1.0000   1.0000   1.0000   1.0000   1.0000   1.0000   1.0000   1.0000
     1.0000   1.0000   1.0000   1.0000   1.0000   1.0000   1.0000   1.0000
     1.0000   1.0000   1.0000   1.0000   1.0000   1.0000   1.0000   1.0000
     1.0000   1.0000   1.0000   1.0000   1.0000   1.0000   1.0000   1.0000
     1.0000   1.0000   1.0000   1.0000   1.0000   1.0000   1.0000   1.0000
     1.0000   1.0000   0.0000

          k =-0.4000 0.4619 0.0000 (112237 PWs)   bands (ev):

   -73.8137 -73.8100 -73.8070 -73.8048 -73.8023 -73.8016 -73.7985 -73.7962
   -73.7940 -73.7892 -73.7880 -73.7865 -73.7824 -73.7415 -73.7318 -73.7289
   -38.1958 -38.1897 -38.1799 -38.1774 -38.1697 -38.1658 -38.1578 -38.1429
   -38.1391 -38.1229 -38.0865 -38.0834 -38.0775 -38.0445 -38.0410 -38.0353
   -38.0281 -38.0243 -38.0156 -38.0075 -38.0048 -38.0001 -37.9980 -37.9959
   -37.9940 -37.9929 -37.9895 -37.9850 -37.9817 -37.9763 -37.9690 -37.9657
   -37.9602 -37.9554 -37.9526 -37.9509 -37.9493 -37.9425 -37.9380 -37.9362
   -37.9305 -37.9238 -37.9195 -37.9161 -37.9054 -37.8869 -37.8743 -37.8664
   -21.5161 -15.4634 -14.3333 -14.2872 -14.1122 -13.5926 -13.2939 -13.2911
   -12.9552 -12.9448 -12.8822 -12.8536 -12.8244 -12.7989 -12.7936 -12.6607
   -12.6316 -12.5930 -12.4904 -12.4806 -12.3840 -12.3716 -12.3440 -12.3225
   -12.3078 -12.2959 -12.2580 -12.2325 -12.2273 -12.1309 -12.1180 -12.1123
   -12.0778 -12.0145  -8.0019  -7.5724  -6.1608  -6.0448  -6.0117  -5.9650
    -5.9098  -5.8858  -5.8724  -5.8540  -5.8050  -5.7405  -5.6816  -5.6208
    -5.6054  -5.5374  -5.3536  -5.2780  -5.2425  -5.2120  -5.1963  -5.1638
    -5.1526  -4.8483  -4.8276  -4.7372  -4.6159  -4.5800  -4.5382  -4.5173
    -4.4843  -4.4190  -4.3771  -4.3191  -4.3019  -4.2375  -4.2228  -4.2032
    -4.1886  -4.1590  -4.1172  -4.0905  -3.9514  -3.9434  -3.7841  -3.6613
    -3.6091  -3.5826  -3.4215  -3.3852  -3.3499  -3.3172  -3.2979  -3.2743
    -3.2689  -3.2606  -3.2369  -3.2255  -3.2153  -3.2072  -3.1394  -3.1158
    -3.0903  -3.0735  -3.0534  -3.0349  -2.9808  -2.9181  -2.8366  -2.7959
    -2.7291  -2.7013  -2.6845  -2.6609  -2.6043  -2.5764  -2.4844  -2.4036
    -2.3881  -2.3196  -2.3155  -2.3090  -2.2585  -2.1795  -2.1652  -2.1482
    -2.1279  -2.0826  -2.0679  -2.0393  -2.0171  -1.9637  -1.9504  -1.9344
    -1.9217  -1.9081  -1.8847  -1.8706  -1.8574  -1.8465  -1.8395  -1.8323
    -1.8053  -1.7829  -1.7506  -1.7181  -1.6925  -1.6786  -1.6544  -1.6383
    -1.6123  -1.5710  -1.5185  -1.4935  -1.4735  -1.4516  -1.4021  -1.3005
    -1.2656  -1.2255  -1.1580  -1.1086  -1.0858  -1.0646  -1.0323  -0.9491
    -0.8081  -0.7801  -0.6941  -0.6834  -0.6495  -0.6364  -0.5932  -0.5739
    -0.5573  -0.3912  -0.2715  -0.2667  -0.1683  -0.1122  -0.0696   0.1226
     0.1954   1.3756   1.6998

     occupation numbers 
     1.0000   1.0000   1.0000   1.0000   1.0000   1.0000   1.0000   1.0000
     1.0000   1.0000   1.0000   1.0000   1.0000   1.0000   1.0000   1.0000
     1.0000   1.0000   1.0000   1.0000   1.0000   1.0000   1.0000   1.0000
     1.0000   1.0000   1.0000   1.0000   1.0000   1.0000   1.0000   1.0000
     1.0000   1.0000   1.0000   1.0000   1.0000   1.0000   1.0000   1.0000
     1.0000   1.0000   1.0000   1.0000   1.0000   1.0000   1.0000   1.0000
     1.0000   1.0000   1.0000   1.0000   1.0000   1.0000   1.0000   1.0000
     1.0000   1.0000   1.0000   1.0000   1.0000   1.0000   1.0000   1.0000
     1.0000   1.0000   1.0000   1.0000   1.0000   1.0000   1.0000   1.0000
     1.0000   1.0000   1.0000   1.0000   1.0000   1.0000   1.0000   1.0000
     1.0000   1.0000   1.0000   1.0000   1.0000   1.0000   1.0000   1.0000
     1.0000   1.0000   1.0000   1.0000   1.0000   1.0000   1.0000   1.0000
     1.0000   1.0000   1.0000   1.0000   1.0000   1.0000   1.0000   1.0000
     1.0000   1.0000   1.0000   1.0000   1.0000   1.0000   1.0000   1.0000
     1.0000   1.0000   1.0000   1.0000   1.0000   1.0000   1.0000   1.0000
     1.0000   1.0000   1.0000   1.0000   1.0000   1.0000   1.0000   1.0000
     1.0000   1.0000   1.0000   1.0000   1.0000   1.0000   1.0000   1.0000
     1.0000   1.0000   1.0000   1.0000   1.0000   1.0000   1.0000   1.0000
     1.0000   1.0000   1.0000   1.0000   1.0000   1.0000   1.0000   1.0000
     1.0000   1.0000   1.0000   1.0000   1.0000   1.0000   1.0000   1.0000
     1.0000   1.0000   1.0000   1.0000   1.0000   1.0000   1.0000   1.0000
     1.0000   1.0000   1.0000   1.0000   1.0000   1.0000   1.0000   1.0000
     1.0000   1.0000   1.0000   1.0000   1.0000   1.0000   1.0000   1.0000
     1.0000   1.0000   1.0000   1.0000   1.0000   1.0000   1.0000   1.0000
     1.0000   1.0000   1.0000   1.0000   1.0000   1.0000   1.0000   1.0000
     1.0000   1.0000   1.0000   1.0000   1.0000   1.0000   1.0000   1.0000
     1.0000   1.0000   1.0000   1.0000   1.0000   1.0000   1.0000   1.0000
     1.0000   1.0000   1.0000   1.0000   1.0000   1.0000   1.0000   1.0000
     1.0000   1.0000   1.0000   1.0000   1.0000   1.0000   1.0000   1.0000
     1.0000   1.0000   1.0000   1.0000   1.0000   1.0000   1.0000   1.0000
     1.0000   1.0000   0.0000

          k = 0.6000 0.1155 0.0000 (112237 PWs)   bands (ev):

   -73.8137 -73.8101 -73.8069 -73.8048 -73.8023 -73.8013 -73.7987 -73.7962
   -73.7939 -73.7892 -73.7879 -73.7865 -73.7824 -73.7415 -73.7318 -73.7289
   -38.1949 -38.1905 -38.1807 -38.1775 -38.1691 -38.1654 -38.1576 -38.1429
   -38.1396 -38.1226 -38.0865 -38.0839 -38.0780 -38.0432 -38.0411 -38.0355
   -38.0280 -38.0247 -38.0147 -38.0080 -38.0054 -37.9997 -37.9984 -37.9966
   -37.9941 -37.9916 -37.9894 -37.9854 -37.9817 -37.9763 -37.9691 -37.9652
   -37.9615 -37.9552 -37.9524 -37.9512 -37.9486 -37.9431 -37.9376 -37.9350
   -37.9295 -37.9243 -37.9194 -37.9174 -37.9049 -37.8878 -37.8765 -37.8641
   -21.5161 -15.4634 -14.3329 -14.2878 -14.1121 -13.5926 -13.3014 -13.2836
   -12.9617 -12.9380 -12.8773 -12.8574 -12.8245 -12.7990 -12.7944 -12.6637
   -12.6302 -12.5913 -12.5004 -12.4702 -12.3909 -12.3679 -12.3402 -12.3187
   -12.3081 -12.2979 -12.2613 -12.2329 -12.2282 -12.1288 -12.1187 -12.1126
   -12.0772 -12.0148  -8.0019  -7.5724  -6.1608  -6.0414  -6.0084  -5.9631
    -5.9203  -5.9025  -5.8733  -5.8310  -5.8038  -5.7455  -5.6837  -5.6184
    -5.6077  -5.5338  -5.3520  -5.2752  -5.2510  -5.2191  -5.1931  -5.1668
    -5.1438  -4.8505  -4.8343  -4.6871  -4.6402  -4.6021  -4.5450  -4.5084
    -4.4847  -4.4292  -4.3768  -4.3165  -4.2945  -4.2378  -4.2280  -4.1945
    -4.1856  -4.1631  -4.1166  -4.0924  -3.9532  -3.9425  -3.7809  -3.6592
    -3.6109  -3.5741  -3.4225  -3.3630  -3.3536  -3.3249  -3.2907  -3.2813
    -3.2782  -3.2539  -3.2388  -3.2278  -3.2159  -3.1957  -3.1701  -3.1355
    -3.0812  -3.0724  -3.0494  -3.0137  -2.9846  -2.9295  -2.8330  -2.7954
    -2.7343  -2.7115  -2.6903  -2.6349  -2.6166  -2.5394  -2.4945  -2.4500
    -2.3839  -2.3260  -2.3107  -2.2882  -2.2392  -2.1912  -2.1673  -2.1354
    -2.1119  -2.0928  -2.0705  -2.0303  -2.0056  -1.9728  -1.9574  -1.9449
    -1.9256  -1.8959  -1.8914  -1.8743  -1.8637  -1.8549  -1.8475  -1.8319
    -1.7989  -1.7854  -1.7438  -1.7229  -1.6904  -1.6801  -1.6485  -1.6290
    -1.6117  -1.5916  -1.5233  -1.5100  -1.4649  -1.4244  -1.3879  -1.3123
    -1.2741  -1.2179  -1.1511  -1.1305  -1.0899  -1.0448  -1.0085  -0.9688
    -0.8047  -0.7841  -0.6906  -0.6882  -0.6501  -0.6441  -0.5926  -0.5862
    -0.5432  -0.3926  -0.2742  -0.2604  -0.1659  -0.1155  -0.0688   0.1230
     0.1958   1.3660   1.7117

     occupation numbers 
     1.0000   1.0000   1.0000   1.0000   1.0000   1.0000   1.0000   1.0000
     1.0000   1.0000   1.0000   1.0000   1.0000   1.0000   1.0000   1.0000
     1.0000   1.0000   1.0000   1.0000   1.0000   1.0000   1.0000   1.0000
     1.0000   1.0000   1.0000   1.0000   1.0000   1.0000   1.0000   1.0000
     1.0000   1.0000   1.0000   1.0000   1.0000   1.0000   1.0000   1.0000
     1.0000   1.0000   1.0000   1.0000   1.0000   1.0000   1.0000   1.0000
     1.0000   1.0000   1.0000   1.0000   1.0000   1.0000   1.0000   1.0000
     1.0000   1.0000   1.0000   1.0000   1.0000   1.0000   1.0000   1.0000
     1.0000   1.0000   1.0000   1.0000   1.0000   1.0000   1.0000   1.0000
     1.0000   1.0000   1.0000   1.0000   1.0000   1.0000   1.0000   1.0000
     1.0000   1.0000   1.0000   1.0000   1.0000   1.0000   1.0000   1.0000
     1.0000   1.0000   1.0000   1.0000   1.0000   1.0000   1.0000   1.0000
     1.0000   1.0000   1.0000   1.0000   1.0000   1.0000   1.0000   1.0000
     1.0000   1.0000   1.0000   1.0000   1.0000   1.0000   1.0000   1.0000
     1.0000   1.0000   1.0000   1.0000   1.0000   1.0000   1.0000   1.0000
     1.0000   1.0000   1.0000   1.0000   1.0000   1.0000   1.0000   1.0000
     1.0000   1.0000   1.0000   1.0000   1.0000   1.0000   1.0000   1.0000
     1.0000   1.0000   1.0000   1.0000   1.0000   1.0000   1.0000   1.0000
     1.0000   1.0000   1.0000   1.0000   1.0000   1.0000   1.0000   1.0000
     1.0000   1.0000   1.0000   1.0000   1.0000   1.0000   1.0000   1.0000
     1.0000   1.0000   1.0000   1.0000   1.0000   1.0000   1.0000   1.0000
     1.0000   1.0000   1.0000   1.0000   1.0000   1.0000   1.0000   1.0000
     1.0000   1.0000   1.0000   1.0000   1.0000   1.0000   1.0000   1.0000
     1.0000   1.0000   1.0000   1.0000   1.0000   1.0000   1.0000   1.0000
     1.0000   1.0000   1.0000   1.0000   1.0000   1.0000   1.0000   1.0000
     1.0000   1.0000   1.0000   1.0000   1.0000   1.0000   1.0000   1.0000
     1.0000   1.0000   1.0000   1.0000   1.0000   1.0000   1.0000   1.0000
     1.0000   1.0000   1.0000   1.0000   1.0000   1.0000   1.0000   1.0000
     1.0000   1.0000   1.0000   1.0000   1.0000   1.0000   1.0000   1.0000
     1.0000   1.0000   1.0000   1.0000   1.0000   1.0000   1.0000   1.0000
     1.0000   1.0000   0.0000

     highest occupied, lowest unoccupied level (ev):     1.6173    1.6760

!    total energy              =  -16138.55528305 Ry
     total all-electron energy =   -595550.628489 Ry
     estimated scf accuracy    <          9.4E-11 Ry

     The total energy is the sum of the following terms:
     one-electron contribution =  -18312.23949314 Ry
     hartree contribution      =    9259.90012842 Ry
     xc contribution           =    -931.74593049 Ry
     ewald contribution        =    6415.51971567 Ry
     DFT-D3 Dispersion         =      -0.65557925 Ry
     one-center paw contrib.   =  -12569.33412426 Ry
      -> PAW hartree energy AE =      92.00284721 Ry
      -> PAW hartree energy PS =     -91.51079314 Ry
      -> PAW xc energy AE      =    -644.66491617 Ry
      -> PAW xc energy PS      =      38.62151660 Ry
      -> total E_H with PAW    =    9260.39218249 Ry
      -> total E_XC with PAW   =   -1537.78933006 Ry

     total magnetization       =     1.00 Bohr mag/cell
     absolute magnetization    =     1.12 Bohr mag/cell

     convergence has been achieved in  37 iterations

     negative rho (up, down):  4.797E-03 5.165E-03

     Forces acting on atoms (cartesian axes, Ry/au):

     atom    1 type  2   force =    -0.00000652   -0.00008058   -0.00014816
     atom    2 type  2   force =    -0.00019023    0.00001664    0.00012898
     atom    3 type  2   force =    -0.00025308   -0.00016330   -0.00000558
     atom    4 type  2   force =     0.00028268    0.00027962    0.00005233
     atom    5 type  2   force =    -0.00001363   -0.00023234   -0.00000361
     atom    6 type  2   force =    -0.00001898    0.00005795   -0.00000312
     atom    7 type  2   force =     0.00005654   -0.00002315    0.00008087
     atom    8 type  2   force =     0.00013828    0.00007605    0.00006948
     atom    9 type  2   force =    -0.00021210   -0.00007974    0.00005567
     atom   10 type  2   force =     0.00008854    0.00010610    0.00010039
     atom   11 type  2   force =    -0.00005385    0.00020273   -0.00000489
     atom   12 type  2   force =    -0.00001137    0.00007129   -0.00012931
     atom   13 type  2   force =    -0.00013274    0.00015704    0.00008104
     atom   14 type  2   force =     0.00011876    0.00000844   -0.00000022
     atom   15 type  2   force =    -0.00000532   -0.00016711   -0.00007592
     atom   16 type  2   force =    -0.00023900   -0.00015261   -0.00004725
     atom   17 type  1   force =    -0.00008955    0.00017407   -0.00002201
     atom   18 type  1   force =    -0.00005927   -0.00018616   -0.00006472
     atom   19 type  1   force =    -0.00010900    0.00010913   -0.00003101
     atom   20 type  1   force =     0.00012539   -0.00002083   -0.00006900
     atom   21 type  1   force =    -0.00008643    0.00000547    0.00005502
     atom   22 type  1   force =    -0.00003394   -0.00000235   -0.00034606
     atom   23 type  1   force =    -0.00006394    0.00002006    0.00002813
     atom   24 type  1   force =     0.00012213    0.00000228    0.00001566
     atom   25 type  1   force =    -0.00001947   -0.00003931    0.00001654
     atom   26 type  1   force =     0.00005127   -0.00007667   -0.00008336
     atom   27 type  1   force =     0.00009408    0.00006610   -0.00004518
     atom   28 type  1   force =    -0.00027975    0.00003375   -0.00036457
     atom   29 type  1   force =    -0.00002086   -0.00012657   -0.00012850
     atom   30 type  1   force =    -0.00007491   -0.00000664    0.00008156
     atom   31 type  1   force =    -0.00020557   -0.00006559   -0.00004129
     atom   32 type  1   force =     0.00025678    0.00008409   -0.00017246
     atom   33 type  1   force =     0.00002518    0.00005076   -0.00015673
     atom   34 type  1   force =     0.00000992    0.00006431    0.00004341
     atom   35 type  1   force =     0.00002271    0.00000013   -0.00003440
     atom   36 type  1   force =    -0.00003574   -0.00004508    0.00004785
     atom   37 type  1   force =    -0.00011239    0.00001503   -0.00012277
     atom   38 type  1   force =     0.00009059   -0.00015984    0.00000870
     atom   39 type  1   force =     0.00014626    0.00003302    0.00003034
     atom   40 type  1   force =     0.00011061   -0.00003149    0.00007133
     atom   41 type  1   force =    -0.00011636    0.00005092    0.00006659
     atom   42 type  1   force =     0.00004377    0.00005755    0.00000114
     atom   43 type  1   force =    -0.00025124    0.00000623    0.00014842
     atom   44 type  1   force =    -0.00007772    0.00009853   -0.00036658
     atom   45 type  1   force =    -0.00009872   -0.00004349    0.00005458
     atom   46 type  1   force =     0.00000970    0.00003939   -0.00015286
     atom   47 type  1   force =    -0.00004576   -0.00017197   -0.00015828
     atom   48 type  1   force =    -0.00002755    0.00004812    0.00015384
     atom   49 type  3   force =     0.00096111    0.00000020   -0.00031598
     atom   50 type  3   force =    -0.00032945   -0.00079188    0.00055307
     atom   51 type  3   force =    -0.00036295   -0.00009217   -0.00014082
     atom   52 type  3   force =     0.00045224    0.00032673    0.00055224
     atom   53 type  3   force =    -0.00020215    0.00020120    0.00010930
     atom   54 type  4   force =    -0.00142890   -0.01610732   -0.01559524
     atom   55 type  5   force =     0.00006072    0.00047247   -0.00053480
     atom   56 type  6   force =     0.00201092    0.01495981    0.01537016
     atom   57 type  6   force =    -0.00000467   -0.00016688    0.00044110
     atom   58 type  6   force =    -0.00000507    0.00113783    0.00094696
     The non-local contrib.  to forces
     atom    1 type  2   force =    -0.00047865    0.00023655   -0.00009287
     atom    2 type  2   force =     0.00035555   -0.00015285   -0.00019530
     atom    3 type  2   force =    -0.00390090   -0.00385722    0.00603736
     atom    4 type  2   force =    -0.00236846   -0.00004771    0.00309737
     atom    5 type  2   force =    -0.00055029    0.00925907    0.00835587
     atom    6 type  2   force =     0.00405126   -0.00044942    0.01270137
     atom    7 type  2   force =     0.00359592   -0.00281762    0.00571418
     atom    8 type  2   force =     0.00048185    0.00022205    0.00051820
     atom    9 type  2   force =     0.00018817    0.00103091    0.00331771
     atom   10 type  2   force =    -0.00362577    0.00166060    0.01381879
     atom   11 type  2   force =    -0.00040230   -0.00030353    0.01550690
     atom   12 type  2   force =     0.00589194   -0.00340516    0.00757557
     atom   13 type  2   force =    -0.00013255    0.00028702   -0.00031531
     atom   14 type  2   force =     0.00074894    0.00161820    0.00307808
     atom   15 type  2   force =    -0.00071608   -0.00209602    0.00704378
     atom   16 type  2   force =    -0.00286180   -0.00023192    0.00573710
     atom   17 type  1   force =     0.00083886    0.00126604   -0.27570984
     atom   18 type  1   force =     0.00428947    0.00240342   -0.27657483
     atom   19 type  1   force =     0.00094970    0.00009486   -0.27534306
     atom   20 type  1   force =    -0.00088181   -0.00063949   -0.27640990
     atom   21 type  1   force =    -0.00026879    0.00141343   -0.27545327
     atom   22 type  1   force =     0.01185090    0.02359550   -0.15680818
     atom   23 type  1   force =    -0.00167881   -0.00216932   -0.18679083
     atom   24 type  1   force =     0.00274124   -0.00128461   -0.27539636
     atom   25 type  1   force =     0.00010949   -0.00086627   -0.27674395
     atom   26 type  1   force =     0.00286659    0.00952534   -0.25648234
     atom   27 type  1   force =     0.01818631    0.00617956   -0.22554868
     atom   28 type  1   force =     0.01934533   -0.01741312   -0.19305895
     atom   29 type  1   force =     0.00088770   -0.00184303   -0.27491064
     atom   30 type  1   force =    -0.00195813    0.00125083   -0.27604101
     atom   31 type  1   force =    -0.02393009   -0.01162104   -0.21282730
     atom   32 type  1   force =    -0.00973180   -0.00785662   -0.24421625
     atom   33 type  1   force =    -0.00022898    0.00030986    0.27623064
     atom   34 type  1   force =     0.00171773    0.00243361    0.27673678
     atom   35 type  1   force =     0.00154168   -0.00049388    0.27628517
     atom   36 type  1   force =    -0.00083197   -0.00082539    0.27581639
     atom   37 type  1   force =     0.00033298    0.00197118    0.27562084
     atom   38 type  1   force =     0.00295832    0.00258761    0.27716412
     atom   39 type  1   force =     0.00248787    0.00066879    0.27703309
     atom   40 type  1   force =     0.00205303   -0.00164135    0.27530927
     atom   41 type  1   force =     0.00021993    0.00048323    0.27665433
     atom   42 type  1   force =    -0.00264268    0.00246937    0.27560306
     atom   43 type  1   force =    -0.00192512   -0.00056037    0.27975645
     atom   44 type  1   force =     0.00088621   -0.00429532    0.27702119
     atom   45 type  1   force =    -0.00063638   -0.00172468    0.27610533
     atom   46 type  1   force =    -0.00124696   -0.00047856    0.27628334
     atom   47 type  1   force =    -0.00342134   -0.00009087    0.27526801
     atom   48 type  1   force =    -0.00234611   -0.00163533    0.27541240
     atom   49 type  3   force =    -0.18432807    0.03150549   -0.06019093
     atom   50 type  3   force =    -0.00820132   -0.13026600   -0.07494552
     atom   51 type  3   force =     0.19390708   -0.01620639   -0.09597342
     atom   52 type  3   force =     0.02016606    0.14051022   -0.09338920
     atom   53 type  3   force =     0.02068900    0.02873535    0.14794161
     atom   54 type  4   force =    -0.86123124   -0.26640078    0.91309594
     atom   55 type  5   force =     1.88446263    0.54238178   -1.51216189
     atom   56 type  6   force =    -0.00709999   -0.07635770   -0.06695157
     atom   57 type  6   force =     0.01167277   -0.01483950    0.09895529
     atom   58 type  6   force =    -0.02962042    0.08348646   -0.04083431
     The ionic contribution  to forces
     atom    1 type  2   force =    -0.93930517   -0.19561246   -8.51287590
     atom    2 type  2   force =    -0.97113219   -1.15704264   -8.88064818
     atom    3 type  2   force =     1.92225773    0.65021765   -9.44038324
     atom    4 type  2   force =     1.76660407    1.72478823   -9.24220558
     atom    5 type  2   force =    -0.76027618   -3.39397423  -10.32614930
     atom    6 type  2   force =    -3.93396058   -3.11191820  -14.38217544
     atom    7 type  2   force =    -3.78919677    1.11541584  -12.06385951
     atom    8 type  2   force =    -0.45961837    0.22263061   -8.34473271
     atom    9 type  2   force =     1.12831301   -2.55050475  -10.29982505
     atom   10 type  2   force =     1.18899233   -3.57210308  -19.43246506
     atom   11 type  2   force =    -2.00134065    2.17449237  -20.50306363
     atom   12 type  2   force =    -1.90164699    2.98577578  -10.56738727
     atom   13 type  2   force =     0.52975080    0.57648615   -8.42047145
     atom   14 type  2   force =     3.83230236   -2.05748356  -11.86216969
     atom   15 type  2   force =     3.84725748    1.90216005  -17.31907042
     atom   16 type  2   force =     0.57170622    4.70769225  -12.98815732
     atom   17 type  1   force =    -0.14013255   -0.66148276   32.26050281
     atom   18 type  1   force =    -2.24127525   -1.69659102   31.29295124
     atom   19 type  1   force =    -1.12789452    0.05269688   31.69825676
     atom   20 type  1   force =     1.01152140    0.86398560   32.41863356
     atom   21 type  1   force =     0.17392616   -1.94598127   32.03431210
     atom   22 type  1   force =    -2.23777092   -5.30499142   25.62126336
     atom   23 type  1   force =    -4.76125101    0.06294535   24.69022042
     atom   24 type  1   force =    -2.11329148    1.73125920   31.40473498
     atom   25 type  1   force =    -0.02603999    0.43243672   32.25559751
     atom   26 type  1   force =     2.91768110   -4.06829739   28.41095295
     atom   27 type  1   force =     1.27441730   -0.00851773   20.49326653
     atom   28 type  1   force =    -2.26277846    5.24413825   26.48484038
     atom   29 type  1   force =     0.01963820    1.75660116   32.08018211
     atom   30 type  1   force =     1.12871046   -0.96857183   32.14814462
     atom   31 type  1   force =     4.85889547    0.33657508   28.22768048
     atom   32 type  1   force =     3.17858540    3.98401920   28.83890800
     atom   33 type  1   force =    -0.05127204   -0.12669895  -39.08034826
     atom   34 type  1   force =    -0.56947860   -0.42787700  -39.19403485
     atom   35 type  1   force =    -0.28918905   -0.04256367  -39.24783150
     atom   36 type  1   force =     0.27300853    0.22244450  -39.09023129
     atom   37 type  1   force =    -0.01843662   -0.48725798  -39.20301092
     atom   38 type  1   force =    -0.41731264   -0.93188396  -40.31604300
     atom   39 type  1   force =    -0.90997970   -0.05707677  -40.68689484
     atom   40 type  1   force =    -0.52224952    0.40400574  -39.34429866
     atom   41 type  1   force =     0.05823336    0.12835072  -39.16782624
     atom   42 type  1   force =     0.64041598   -0.72203417  -40.20973320
     atom   43 type  1   force =     0.29417557    0.05132621  -41.17834185
     atom   44 type  1   force =    -0.25864582    0.97339857  -40.33019054
     atom   45 type  1   force =     0.01554299    0.50324295  -39.10220042
     atom   46 type  1   force =     0.32788513   -0.23271108  -39.01168482
     atom   47 type  1   force =     0.87995526   -0.02484660  -39.93847653
     atom   48 type  1   force =     0.55133880    0.76662090  -40.07769949
     atom   49 type  3   force =   -21.27101655    3.68311423   58.89022494
     atom   50 type  3   force =    -1.57951921  -20.68558162   58.08296719
     atom   51 type  3   force =    21.71859228   -2.58753587   61.19660473
     atom   52 type  3   force =     2.76371977   20.98117579   58.84179552
     atom   53 type  3   force =     7.92607460    2.06756727   63.36280534
     atom   54 type  4   force =     4.41189859   -0.05913454   20.55897152
     atom   55 type  5   force =   -13.34542509   -2.91959051   24.85870857
     atom   56 type  6   force =     0.55370970    2.74294468    5.43888944
     atom   57 type  6   force =    -2.24662916    0.17354440    1.35176121
     atom   58 type  6   force =     1.38095501   -3.22418731    4.82130989
     The local contribution  to forces
     atom    1 type  2   force =     0.93936910    0.19575518    8.51279782
     atom    2 type  2   force =     0.97063019    1.15667930    8.88072167
     atom    3 type  2   force =    -1.91894173   -0.64716294    9.43510294
     atom    4 type  2   force =    -1.76434934   -1.72433303    9.23947350
     atom    5 type  2   force =     0.76041376    3.38453497   10.31741343
     atom    6 type  2   force =     3.92914883    3.11094474   14.36708123
     atom    7 type  2   force =     3.78430564   -1.11229269   12.05651925
     atom    8 type  2   force =     0.45922483   -0.22287284    8.34467693
     atom    9 type  2   force =    -1.12845972    2.54889754   10.29605292
     atom   10 type  2   force =    -1.18515138    3.57096758   19.41575366
     atom   11 type  2   force =     2.00243071   -2.17379651   20.48265762
     atom   12 type  2   force =     1.89595392   -2.98214960   10.55942757
     atom   13 type  2   force =    -0.52951916   -0.57632815    8.42059846
     atom   14 type  2   force =    -3.83140291    2.05562642   11.85697216
     atom   15 type  2   force =    -3.84597870   -1.90002119   17.30740414
     atom   16 type  2   force =    -0.56919134   -4.70597182   12.98008597
     atom   17 type  1   force =     0.13917114    0.66015272  -31.98619999
     atom   18 type  1   force =     2.23628044    1.69350092  -31.01827747
     atom   19 type  1   force =     1.12654446   -0.05262159  -31.42457277
     atom   20 type  1   force =    -1.01015003   -0.86305946  -32.14369426
     atom   21 type  1   force =    -0.17363887    1.94395806  -31.76026809
     atom   22 type  1   force =     2.22581074    5.28065814  -25.46430311
     atom   23 type  1   force =     4.76147266   -0.06081305  -24.50308202
     atom   24 type  1   force =     2.10997292   -1.72941056  -31.13111442
     atom   25 type  1   force =     0.02580575   -0.43146918  -31.98022753
     atom   26 type  1   force =    -2.92066625    4.05917870  -28.15449717
     atom   27 type  1   force =    -1.29114564    0.00203627  -20.26613000
     atom   28 type  1   force =     2.24367421   -5.22606568  -26.29200708
     atom   29 type  1   force =    -0.02047668   -1.75436864  -31.80683384
     atom   30 type  1   force =    -1.12646822    0.96702484  -31.87348619
     atom   31 type  1   force =    -4.83523074   -0.32545281  -28.01440245
     atom   32 type  1   force =    -3.16936157   -3.97569716  -28.59505390
     atom   33 type  1   force =     0.05149142    0.12642851   38.80493638
     atom   34 type  1   force =     0.56777032    0.42555724   38.91834478
     atom   35 type  1   force =     0.28767805    0.04301889   38.97247746
     atom   36 type  1   force =    -0.27224031   -0.22169604   38.81544096
     atom   37 type  1   force =     0.01800408    0.48537944   38.92822817
     atom   38 type  1   force =     0.41442949    0.92911306   40.03965950
     atom   39 type  1   force =     0.90758392    0.05642990   40.41066144
     atom   40 type  1   force =     0.52039886   -0.40241738   39.07000675
     atom   41 type  1   force =    -0.05852782   -0.12875197   38.89222891
     atom   42 type  1   force =    -0.63769477    0.71962718   39.93493825
     atom   43 type  1   force =    -0.29251411   -0.05075564   40.89950566
     atom   44 type  1   force =     0.25769023   -0.96899552   40.05360049
     atom   45 type  1   force =    -0.01502421   -0.50156761   38.82714102
     atom   46 type  1   force =    -0.32666419    0.23320251   38.73625560
     atom   47 type  1   force =    -0.87661430    0.02473081   39.66384094
     atom   48 type  1   force =    -0.54901455   -0.76491528   39.80321661
     atom   49 type  3   force =    21.45291485   -3.71340481  -58.81938860
     atom   50 type  3   force =     1.59124972   20.81475819  -57.99827156
     atom   51 type  3   force =   -21.90961496    2.60221428  -61.09365905
     atom   52 type  3   force =    -2.78070603  -21.11919132  -58.73949668
     atom   53 type  3   force =    -7.94546464   -2.09516398  -63.50505028
     atom   54 type  4   force =    -3.56999485    0.30468488  -21.47514946
     atom   55 type  5   force =    11.47982775    2.38244505  -23.35799592
     atom   56 type  6   force =    -0.54464711   -2.65175717   -5.35678399
     atom   57 type  6   force =     2.23516609   -0.15873033   -1.45035391
     atom   58 type  6   force =    -1.35145424    3.14205992   -4.77966764
     The core correction contribution to forces
     atom    1 type  2   force =     0.00025924   -0.00048993   -0.00037515
     atom    2 type  2   force =    -0.00015603    0.00035587   -0.00024294
     atom    3 type  2   force =     0.00079692    0.00078241   -0.00149978
     atom    4 type  2   force =     0.00075001    0.00026043   -0.00095110
     atom    5 type  2   force =     0.00021015   -0.00077947   -0.00060685
     atom    6 type  2   force =    -0.00028737    0.00076963   -0.00009495
     atom    7 type  2   force =     0.00050981   -0.00013672    0.00031899
     atom    8 type  2   force =    -0.00002361    0.00012215   -0.00061767
     atom    9 type  2   force =     0.00000903   -0.00005601   -0.00027197
     atom   10 type  2   force =    -0.00007188   -0.00142549    0.00039461
     atom   11 type  2   force =    -0.00121328    0.00051098    0.00110334
     atom   12 type  2   force =    -0.00068014    0.00050188   -0.00079344
     atom   13 type  2   force =    -0.00018226   -0.00017960   -0.00006068
     atom   14 type  2   force =    -0.00063541   -0.00026349    0.00047238
     atom   15 type  2   force =     0.00047403    0.00032378    0.00113509
     atom   16 type  2   force =     0.00025931   -0.00056086    0.00045808
     atom   17 type  1   force =    -0.00005241   -0.00000710    0.00196463
     atom   18 type  1   force =    -0.00015896   -0.00008384    0.00203947
     atom   19 type  1   force =    -0.00004832   -0.00005479    0.00197249
     atom   20 type  1   force =    -0.00000398    0.00000145    0.00199026
     atom   21 type  1   force =    -0.00003855   -0.00003562    0.00197242
     atom   22 type  1   force =    -0.00009386   -0.00041997   -0.00040017
     atom   23 type  1   force =     0.00004714    0.00007004   -0.00003966
     atom   24 type  1   force =    -0.00006726    0.00004264    0.00198179
     atom   25 type  1   force =     0.00005172    0.00002262    0.00198616
     atom   26 type  1   force =    -0.00002148   -0.00024213    0.00142923
     atom   27 type  1   force =    -0.00046037   -0.00005865    0.00111707
     atom   28 type  1   force =    -0.00030196    0.00037730    0.00019963
     atom   29 type  1   force =    -0.00002112    0.00009990    0.00197919
     atom   30 type  1   force =     0.00007970   -0.00003680    0.00200938
     atom   31 type  1   force =     0.00052047    0.00026230    0.00063853
     atom   32 type  1   force =     0.00016298    0.00019589    0.00123038
     atom   33 type  1   force =     0.00001672   -0.00000375   -0.00193210
     atom   34 type  1   force =    -0.00003150   -0.00005385   -0.00198913
     atom   35 type  1   force =     0.00000255    0.00003604   -0.00193393
     atom   36 type  1   force =     0.00001927    0.00002512   -0.00191731
     atom   37 type  1   force =     0.00000512   -0.00004339   -0.00192647
     atom   38 type  1   force =     0.00001025    0.00001089   -0.00197470
     atom   39 type  1   force =     0.00002942    0.00002702   -0.00198058
     atom   40 type  1   force =    -0.00005813    0.00000899   -0.00192232
     atom   41 type  1   force =    -0.00003618   -0.00001291   -0.00194791
     atom   42 type  1   force =    -0.00002442   -0.00003874   -0.00193347
     atom   43 type  1   force =     0.00000268   -0.00001113   -0.00220902
     atom   44 type  1   force =    -0.00002577    0.00001936   -0.00198812
     atom   45 type  1   force =     0.00001193    0.00001601   -0.00195967
     atom   46 type  1   force =     0.00003335    0.00000919   -0.00196702
     atom   47 type  1   force =     0.00004969    0.00003150   -0.00190582
     atom   48 type  1   force =     0.00002347    0.00000557   -0.00189420
     atom   49 type  3   force =     0.00424950   -0.00133289   -0.00310442
     atom   50 type  3   force =    -0.00144875    0.00370011   -0.00371218
     atom   51 type  3   force =    -0.00463892    0.00092623   -0.00153714
     atom   52 type  3   force =    -0.00175281   -0.00488805   -0.00188460
     atom   53 type  3   force =    -0.00268809   -0.00111864   -0.00361200
     atom   54 type  4   force =     0.01779423    0.00466591   -0.01176881
     atom   55 type  5   force =    -0.01850411   -0.00482260    0.01189335
     atom   56 type  6   force =     0.00000000    0.00000000    0.00000000
     atom   57 type  6   force =     0.00000000    0.00000000    0.00000000
     atom   58 type  6   force =     0.00000000    0.00000000    0.00000000
     The Hubbard contrib.    to forces
     atom    1 type  2   force =     0.00000000    0.00000000    0.00000000
     atom    2 type  2   force =     0.00000000    0.00000000    0.00000000
     atom    3 type  2   force =     0.00000000    0.00000000    0.00000000
     atom    4 type  2   force =     0.00000000    0.00000000    0.00000000
     atom    5 type  2   force =     0.00000000    0.00000000    0.00000000
     atom    6 type  2   force =     0.00000000    0.00000000    0.00000000
     atom    7 type  2   force =     0.00000000    0.00000000    0.00000000
     atom    8 type  2   force =     0.00000000    0.00000000    0.00000000
     atom    9 type  2   force =     0.00000000    0.00000000    0.00000000
     atom   10 type  2   force =     0.00000000    0.00000000    0.00000000
     atom   11 type  2   force =     0.00000000    0.00000000    0.00000000
     atom   12 type  2   force =     0.00000000    0.00000000    0.00000000
     atom   13 type  2   force =     0.00000000    0.00000000    0.00000000
     atom   14 type  2   force =     0.00000000    0.00000000    0.00000000
     atom   15 type  2   force =     0.00000000    0.00000000    0.00000000
     atom   16 type  2   force =     0.00000000    0.00000000    0.00000000
     atom   17 type  1   force =     0.00000000    0.00000000    0.00000000
     atom   18 type  1   force =     0.00000000    0.00000000    0.00000000
     atom   19 type  1   force =     0.00000000    0.00000000    0.00000000
     atom   20 type  1   force =     0.00000000    0.00000000    0.00000000
     atom   21 type  1   force =     0.00000000    0.00000000    0.00000000
     atom   22 type  1   force =     0.00000000    0.00000000    0.00000000
     atom   23 type  1   force =     0.00000000    0.00000000    0.00000000
     atom   24 type  1   force =     0.00000000    0.00000000    0.00000000
     atom   25 type  1   force =     0.00000000    0.00000000    0.00000000
     atom   26 type  1   force =     0.00000000    0.00000000    0.00000000
     atom   27 type  1   force =     0.00000000    0.00000000    0.00000000
     atom   28 type  1   force =     0.00000000    0.00000000    0.00000000
     atom   29 type  1   force =     0.00000000    0.00000000    0.00000000
     atom   30 type  1   force =     0.00000000    0.00000000    0.00000000
     atom   31 type  1   force =     0.00000000    0.00000000    0.00000000
     atom   32 type  1   force =     0.00000000    0.00000000    0.00000000
     atom   33 type  1   force =     0.00000000    0.00000000    0.00000000
     atom   34 type  1   force =     0.00000000    0.00000000    0.00000000
     atom   35 type  1   force =     0.00000000    0.00000000    0.00000000
     atom   36 type  1   force =     0.00000000    0.00000000    0.00000000
     atom   37 type  1   force =     0.00000000    0.00000000    0.00000000
     atom   38 type  1   force =     0.00000000    0.00000000    0.00000000
     atom   39 type  1   force =     0.00000000    0.00000000    0.00000000
     atom   40 type  1   force =     0.00000000    0.00000000    0.00000000
     atom   41 type  1   force =     0.00000000    0.00000000    0.00000000
     atom   42 type  1   force =     0.00000000    0.00000000    0.00000000
     atom   43 type  1   force =     0.00000000    0.00000000    0.00000000
     atom   44 type  1   force =     0.00000000    0.00000000    0.00000000
     atom   45 type  1   force =     0.00000000    0.00000000    0.00000000
     atom   46 type  1   force =     0.00000000    0.00000000    0.00000000
     atom   47 type  1   force =     0.00000000    0.00000000    0.00000000
     atom   48 type  1   force =     0.00000000    0.00000000    0.00000000
     atom   49 type  3   force =     0.00000000    0.00000000    0.00000000
     atom   50 type  3   force =     0.00000000    0.00000000    0.00000000
     atom   51 type  3   force =     0.00000000    0.00000000    0.00000000
     atom   52 type  3   force =     0.00000000    0.00000000    0.00000000
     atom   53 type  3   force =     0.00000000    0.00000000    0.00000000
     atom   54 type  4   force =     0.00000000    0.00000000    0.00000000
     atom   55 type  5   force =     0.00000000    0.00000000    0.00000000
     atom   56 type  6   force =     0.00000000    0.00000000    0.00000000
     atom   57 type  6   force =     0.00000000    0.00000000    0.00000000
     atom   58 type  6   force =     0.00000000    0.00000000    0.00000000
     The SCF correction term to forces
     atom    1 type  2   force =     0.00000850   -0.00000044    0.00000073
     atom    2 type  2   force =    -0.00000051    0.00000838    0.00000067
     atom    3 type  2   force =    -0.00000752   -0.00000189    0.00000055
     atom    4 type  2   force =    -0.00000079   -0.00000631    0.00000083
     atom    5 type  2   force =     0.00000420    0.00000906    0.00000047
     atom    6 type  2   force =     0.00001237    0.00000403   -0.00000026
     atom    7 type  2   force =     0.00000474   -0.00000113   -0.00000013
     atom    8 type  2   force =    -0.00000109   -0.00000028    0.00000068
     atom    9 type  2   force =    -0.00000621    0.00000921    0.00000046
     atom   10 type  2   force =     0.00000024    0.00000368    0.00000005
     atom   11 type  2   force =     0.00000465   -0.00000696   -0.00000052
     atom   12 type  2   force =     0.00000078   -0.00000626    0.00000026
     atom   13 type  2   force =    -0.00000635   -0.00000019    0.00000080
     atom   14 type  2   force =    -0.00001200    0.00000849    0.00000049
     atom   15 type  2   force =    -0.00000193   -0.00000744    0.00000028
     atom   16 type  2   force =     0.00000106   -0.00001218    0.00000026
     atom   17 type  1   force =     0.00000245    0.00000020    0.00000089
     atom   18 type  1   force =     0.00000416    0.00000197    0.00000154
     atom   19 type  1   force =    -0.00000120    0.00000215    0.00000033
     atom   20 type  1   force =    -0.00000175   -0.00000221    0.00000049
     atom   21 type  1   force =    -0.00000062    0.00000324    0.00000042
     atom   22 type  1   force =     0.00000243    0.00000223   -0.00000367
     atom   23 type  1   force =     0.00000281   -0.00000091   -0.00000266
     atom   24 type  1   force =     0.00000126   -0.00000122    0.00000059
     atom   25 type  1   force =    -0.00000270   -0.00000047    0.00000178
     atom   26 type  1   force =    -0.00000234    0.00000350   -0.00000313
     atom   27 type  1   force =     0.00000095   -0.00000204   -0.00000414
     atom   28 type  1   force =     0.00000072   -0.00000301   -0.00000128
     atom   29 type  1   force =     0.00000087   -0.00000301    0.00000308
     atom   30 type  1   force =    -0.00000427    0.00000351    0.00000226
     atom   31 type  1   force =    -0.00000248   -0.00000033   -0.00000306
     atom   32 type  1   force =    -0.00000020   -0.00000372   -0.00000121
     atom   33 type  1   force =     0.00000249    0.00000031   -0.00000077
     atom   34 type  1   force =     0.00000439    0.00000225   -0.00000165
     atom   35 type  1   force =    -0.00000088    0.00000221   -0.00000039
     atom   36 type  1   force =    -0.00000173   -0.00000228   -0.00000036
     atom   37 type  1   force =    -0.00000061    0.00000336   -0.00000036
     atom   38 type  1   force =     0.00000249    0.00000267    0.00000337
     atom   39 type  1   force =     0.00000300   -0.00000081    0.00000192
     atom   40 type  1   force =     0.00000153   -0.00000149   -0.00000078
     atom   41 type  1   force =    -0.00000273   -0.00000063   -0.00000171
     atom   42 type  1   force =    -0.00000261    0.00000365    0.00000308
     atom   43 type  1   force =     0.00000058   -0.00000205    0.00000394
     atom   44 type  1   force =     0.00000062   -0.00000336    0.00000087
     atom   45 type  1   force =     0.00000087   -0.00000313   -0.00000301
     atom   46 type  1   force =    -0.00000427    0.00000358   -0.00000213
     atom   47 type  1   force =    -0.00000272   -0.00000033    0.00000315
     atom   48 type  1   force =    -0.00000044   -0.00000385    0.00000113
     atom   49 type  3   force =     0.00000160   -0.00000054   -0.00000337
     atom   50 type  3   force =     0.00000142    0.00000006   -0.00000503
     atom   51 type  3   force =     0.00000021   -0.00000031   -0.00000492
     atom   52 type  3   force =     0.00000132   -0.00000172   -0.00000352
     atom   53 type  3   force =     0.00000073   -0.00000031   -0.00000101
     atom   54 type  4   force =     0.00000030   -0.00000009    0.00000044
     atom   55 type  5   force =    -0.00000011   -0.00000021    0.00000056
     atom   56 type  6   force =     0.00000003    0.00000000    0.00000007
     atom   57 type  6   force =    -0.00000002   -0.00000004    0.00000003
     atom   58 type  6   force =     0.00000003   -0.00000003    0.00000006

     DFT-D3 dispersion contribution to forces:
     atom    1 type  2   force =     0.00014031    0.00003169    0.00039726
     atom    2 type  2   force =     0.00011259    0.00016976    0.00049313
     atom    3 type  2   force =    -0.00045774   -0.00014014    0.00073665
     atom    4 type  2   force =    -0.00035297   -0.00038082    0.00063736
     atom    5 type  2   force =     0.00018456    0.00071943    0.00098283
     atom    6 type  2   force =     0.00101635    0.00070834    0.00248498
     atom    7 type  2   force =     0.00083703   -0.00018965    0.00138814
     atom    8 type  2   force =     0.00007452   -0.00002446    0.00022411
     atom    9 type  2   force =    -0.00025652    0.00054452    0.00078166
     atom   10 type  2   force =    -0.00005515    0.00100398    0.00259840
     atom   11 type  2   force =     0.00046687   -0.00069245    0.00379145
     atom   12 type  2   force =     0.00046896   -0.00064418    0.00104804
     atom   13 type  2   force =    -0.00004338   -0.00010703    0.00032927
     atom   14 type  2   force =    -0.00088237    0.00050355    0.00164642
     atom   15 type  2   force =    -0.00104027   -0.00052512    0.00341127
     atom   16 type  2   force =    -0.00015262   -0.00106691    0.00182872
     atom   17 type  1   force =     0.00008280    0.00024614   -0.00058044
     atom   18 type  1   force =     0.00080071    0.00058356   -0.00020463
     atom   19 type  1   force =     0.00034071   -0.00000721   -0.00034472
     atom   20 type  1   force =    -0.00035860   -0.00030555   -0.00058909
     atom   21 type  1   force =    -0.00006592    0.00064881   -0.00050850
     atom   22 type  1   force =     0.00016662    0.00115435   -0.00009425
     atom   23 type  1   force =     0.00134311   -0.00001088   -0.00027706
     atom   24 type  1   force =     0.00076529   -0.00060199   -0.00019087
     atom   25 type  1   force =     0.00005611   -0.00016156   -0.00059737
     atom   26 type  1   force =     0.00019349   -0.00024353   -0.00148285
     atom   27 type  1   force =    -0.00090462    0.00042985   -0.00274591
     atom   28 type  1   force =    -0.00021975   -0.00099882   -0.00033722
     atom   29 type  1   force =    -0.00005000   -0.00061177   -0.00054835
     atom   30 type  1   force =    -0.00043461    0.00032398   -0.00054745
     atom   31 type  1   force =    -0.00045836    0.00017237   -0.00112743
     atom   32 type  1   force =     0.00060183   -0.00057234   -0.00103942
     atom   33 type  1   force =     0.00001542    0.00001594    0.00095745
     atom   34 type  1   force =     0.00002742    0.00000324    0.00098754
     atom   35 type  1   force =    -0.00000980    0.00000171    0.00096885
     atom   36 type  1   force =     0.00001033    0.00001019    0.00093951
     atom   37 type  1   force =    -0.00001751   -0.00003640    0.00096603
     atom   38 type  1   force =     0.00000252    0.00001106    0.00119946
     atom   39 type  1   force =     0.00002160   -0.00001393    0.00120936
     atom   40 type  1   force =    -0.00003531    0.00001516    0.00097713
     atom   41 type  1   force =    -0.00000308   -0.00001634    0.00095927
     atom   42 type  1   force =    -0.00000790    0.00003142    0.00112347
     atom   43 type  1   force =     0.00000900    0.00001039    0.00143330
     atom   44 type  1   force =     0.00001666   -0.00002404    0.00118959
     atom   45 type  1   force =     0.00000591   -0.00000586    0.00097140
     atom   46 type  1   force =     0.00000648    0.00001492    0.00096223
     atom   47 type  1   force =    -0.00001251    0.00000469    0.00111202
     atom   48 type  1   force =    -0.00002887   -0.00002271    0.00111744
     atom   49 type  3   force =    -0.00086038    0.00011989   -0.00785354
     atom   50 type  3   force =    -0.00241147   -0.00340145   -0.00547976
     atom   51 type  3   force =     0.00139120    0.00051107   -0.00557098
     atom   52 type  3   force =    -0.00097623    0.00272299   -0.00646921
     atom   53 type  3   force =     0.00118610    0.00018268   -0.00197430
     atom   54 type  4   force =     0.00010392    0.00007847   -0.00074482
     atom   55 type  5   force =    -0.00030052    0.00006014   -0.00097940
     atom   56 type  6   force =     0.00004813    0.00013116    0.00021627
     atom   57 type  6   force =    -0.00021451   -0.00014025    0.00007853
     atom   58 type  6   force =     0.00011439   -0.00022004    0.00013902

     Total force =     0.031251     Total SCF correction =     0.000043

     DFT-D3 dispersion Force =     0.017431


     Computing stress (Cartesian axis) and pressure


     negative rho (up, down):  4.797E-03 5.165E-03
          total   stress  (Ry/bohr**3)                   (kbar)     P=       -1.39
  -0.00001037  -0.00000078   0.00000072           -1.53       -0.12        0.11
  -0.00000078  -0.00000843   0.00000121           -0.12       -1.24        0.18
   0.00000072   0.00000121  -0.00000945            0.11        0.18       -1.39

     kinetic stress (kbar)   7256.47     -1.17     -9.36
                               -1.17   7272.92     -0.23
                               -9.36     -0.23   7301.87

     local   stress (kbar)-135463.22    -63.97    519.33
                              -63.97-134010.14    220.02
                              519.33    220.02 134100.56

     nonloc. stress (kbar)  -1419.23     -0.12      0.32
                               -0.12  -1420.46      0.30
                                0.32      0.30  -1427.32

     hartree stress (kbar)  68218.25     29.50   -249.28
                               29.50  67562.19   -102.95
                             -249.28   -102.95 -63301.30

     exc-cor stress (kbar)   2000.74      0.00     -0.00
                                0.00   2000.32     -0.04
                               -0.00     -0.04   2000.27

     corecor stress (kbar)  -3626.56      0.04      0.05
                                0.04  -3626.83      0.00
                                0.05      0.00  -3627.24

     ewald   stress (kbar)  63036.28     35.57   -260.92
                               35.57  62224.98   -116.92
                             -260.92   -116.92 -75045.67

     hubbard stress (kbar)      0.00      0.00      0.00
                                0.00      0.00      0.00
                                0.00      0.00      0.00

     DFT-D   stress (kbar)     -4.26      0.02     -0.04
                                0.02     -4.22      0.01
                               -0.04      0.01     -2.55

     XDM     stress (kbar)      0.00      0.00      0.00
                                0.00      0.00      0.00
                                0.00      0.00      0.00

     dft-nl  stress (kbar)      0.00      0.00      0.00
                                0.00      0.00      0.00
                                0.00      0.00      0.00

     TS-vdW  stress (kbar)      0.00      0.00      0.00
                                0.00      0.00      0.00
                                0.00      0.00      0.00

     MDB     stress (kbar)      0.00      0.00      0.00
                                0.00      0.00      0.00
                                0.00      0.00      0.00

     3D-RISM stress (kbar)      0.00      0.00      0.00
                                0.00      0.00      0.00
                                0.00      0.00      0.00


     Writing all to output data dir ./Ag-WS2-H2NOH.save/ :
     XML data file, charge density, pseudopotentials, collected wavefunctions

     init_run     :    180.21s CPU    184.50s WALL (       1 calls)
     electrons    :  13666.44s CPU  13932.17s WALL (       1 calls)
     forces       :     45.36s CPU     46.87s WALL (       1 calls)
     force_dftd3  :      0.12s CPU      0.14s WALL (       1 calls)
     stress       :    163.10s CPU    167.72s WALL (       1 calls)
     stres_dftd3  :      0.13s CPU      0.14s WALL (       1 calls)

     Called by init_run:
     wfcinit      :    171.74s CPU    175.31s WALL (       1 calls)
     wfcinit:atom :      0.67s CPU      0.69s WALL (      26 calls)
     wfcinit:wfcr :    167.47s CPU    170.89s WALL (      26 calls)
     potinit      :      2.85s CPU      2.98s WALL (       1 calls)
     hinit0       :      1.69s CPU      1.78s WALL (       1 calls)

     Called by electrons:
     c_bands      :  11792.95s CPU  12001.24s WALL (      38 calls)
     sum_band     :   1740.05s CPU   1782.40s WALL (      38 calls)
     v_of_rho     :     21.91s CPU     23.12s WALL (      38 calls)
     v_h          :      1.03s CPU      1.14s WALL (      38 calls)
     v_xc         :     21.98s CPU     23.13s WALL (      40 calls)
     newd         :     63.52s CPU     76.20s WALL (      38 calls)
     PAW_pot      :     42.44s CPU     42.97s WALL (      38 calls)
     mix_rho      :      5.57s CPU      5.93s WALL (      38 calls)
     energy_dftd3 :      0.06s CPU      0.06s WALL (       1 calls)

     Called by c_bands:
     init_us_2    :    137.19s CPU    140.67s WALL (    2054 calls)
     cegterg      :  11611.94s CPU  11816.59s WALL (     988 calls)

     Called by sum_band:
     sum_band:wei :      0.01s CPU      0.01s WALL (      38 calls)
     sum_band:loo :   1624.52s CPU   1651.05s WALL (      38 calls)
     sum_band:buf :     11.92s CPU     12.19s WALL (     988 calls)
     sum_band:ini :     65.76s CPU     67.41s WALL (     988 calls)
     sum_band:cal :    333.34s CPU    342.97s WALL (     988 calls)
     sum_band:bec :      4.05s CPU      4.12s WALL (     988 calls)
     addusdens    :    110.42s CPU    125.99s WALL (      38 calls)
                                        0.00s GPU  (      38 calls)
     addusd:skk   :      1.70s CPU      1.82s WALL (     228 calls)
                                        0.00s GPU  (     228 calls)

     Called by *egterg:
     cdiaghg      :    626.17s CPU    649.42s WALL (    6521 calls)
     cegterg:over :    618.87s CPU    635.16s WALL (    5559 calls)
     cegterg:upda :    291.06s CPU    296.49s WALL (    5559 calls)
     cegterg:last :    523.32s CPU    533.27s WALL (    1942 calls)
     cdiaghg:chol :     52.82s CPU     53.29s WALL (    6521 calls)
     cdiaghg:inve :      8.85s CPU      8.95s WALL (    6521 calls)
     cdiaghg:para :    178.12s CPU    191.08s WALL (   13042 calls)
     h_psi        :   8743.45s CPU   8874.19s WALL (    6573 calls)
     s_psi        :    772.33s CPU    781.63s WALL (    6573 calls)
     g_psi        :     11.21s CPU     11.55s WALL (    5559 calls)

     Called by h_psi:
     h_psi:calbec :   1042.51s CPU   1071.68s WALL (    6573 calls)
     vloc_psi     :   6865.55s CPU   6954.64s WALL (    6573 calls)
     add_vuspsi   :    804.54s CPU    814.86s WALL (    6573 calls)

     General routines
     calbec       :   1525.61s CPU   1568.66s WALL (    8003 calls)
     fft          :     25.17s CPU     26.98s WALL (     990 calls)
     ffts         :      1.97s CPU      2.11s WALL (     152 calls)
     fftw         :   7416.17s CPU   7503.80s WALL ( 1453370 calls)
     interpolate  :      3.15s CPU      3.35s WALL (      76 calls)

     Parallel routines

     PAW routines
     PAW_pot      :     42.44s CPU     42.97s WALL (      38 calls)

     PWSCF        :  14065.87s CPU  14382.37s WALL


   This run was terminated on:  17:46: 6   1Aug2026            

=------------------------------------------------------------------------------=
   JOB DONE.
=------------------------------------------------------------------------------=
