
     Program PWSCF v.7.4.1 starts on  1Aug2026 at 17:46:27 

     This program is part of the open-source Quantum ESPRESSO suite
     for quantum simulation of materials; please cite
         "P. Giannozzi et al., J. Phys.:Condens. Matter 21 395502 (2009);
         "P. Giannozzi et al., J. Phys.:Condens. Matter 29 465901 (2017);
         "P. Giannozzi et al., J. Chem. Phys. 152 154105 (2020);
          URL http://www.quantum-espresso.org", 
     in publications or presentations arising from this work. More details at
     http://www.quantum-espresso.org/quote

     Parallel version (MPI & OpenMP), running on      64 processor cores
     Number of MPI processes:                64
     Threads/MPI process:                     1

     MPI processes distributed on     1 nodes
     96578 MiB available memory on the printing compute node when the environment starts

     Reading input from disp_021_atom57_+1y.in

     Current dimensions of program PWSCF are:
     Max number of different atomic species (ntypx) = 10
     Max number of k-points (npk) =  40000
     Max angular momentum in pseudopotentials (lmaxx) =  4
     file S.pbe-n-kjpaw_psl.1.0.0.UPF: wavefunction(s)  3S 3P renormalized
     file W.pbe-spn-kjpaw_psl.1.0.0.UPF: wavefunction(s)  6S 5P 5D renormalized
     file Ag.pbe-n-kjpaw_psl.1.0.0.UPF: wavefunction(s)  5S 5P renormalized
     file N.pbe-n-kjpaw_psl.1.0.0.UPF: wavefunction(s)  2S renormalized
     file O.pbe-n-kjpaw_psl.1.0.0.UPF: wavefunction(s)  2S 2P renormalized
     file H.pbe-kjpaw_psl.1.0.0.UPF: wavefunction(s)  1S renormalized
     Message from routine setup:
     the system is metallic, specify occupations

     R & G space division:  proc/nbgrp/npool/nimage =      64
     Subspace diagonalization in iterative solution of the eigenvalue problem:
     one sub-group per band group will be used
     ELPA distributed-memory algorithm (size of sub-group:  2*  2 procs)


     Parallelization info
     --------------------
     sticks:   dense  smooth     PW     G-vecs:    dense   smooth      PW
     Min         247     123     32                39673    14017    1874
     Max         248     124     33                39680    14030    1885
     Sum       15841    7909   2065              2539249   897387  120111

     Using Slab Decomposition



     bravais-lattice index     =            0
     lattice parameter (alat)  =      23.9624  a.u.
     unit-cell volume          =   18794.0729 (a.u.)^3
     number of atoms/cell      =           58
     number of atomic types    =            6
     number of electrons       =       485.00 (up: 243.00, down: 242.00)
     number of Kohn-Sham states=          243
     kinetic-energy cutoff     =      50.0000  Ry
     charge density cutoff     =     400.0000  Ry
     scf convergence threshold =      1.0E-10
     mixing beta               =       0.4000
     number of iterations used =            8  plain     mixing
     Exchange-correlation= SLA  PW   PBX  PBC
                           (   1   4   3   4   0   0   0)

     celldm(1)=  23.962422  celldm(2)=   0.000000  celldm(3)=   0.000000
     celldm(4)=   0.000000  celldm(5)=   0.000000  celldm(6)=   0.000000

     crystal axes: (cart. coord. in units of alat)
               a(1) = (   1.000000   0.000000   0.000000 )  
               a(2) = (  -0.500000   0.866025   0.000000 )  
               a(3) = (   0.000000   0.000000   1.577241 )  

     reciprocal axes: (cart. coord. in units 2 pi/alat)
               b(1) = (  1.000000  0.577350 -0.000000 )  
               b(2) = (  0.000000  1.154701  0.000000 )  
               b(3) = (  0.000000 -0.000000  0.634018 )  


     PseudoPot. # 1 for S  read from file:
     /share/work_r640/fmigm008/pseudo/S.pbe-n-kjpaw_psl.1.0.0.UPF
     MD5 check sum: fb45dfebcf3e72a4e1bd4a866ec2e262
     Pseudo is Projector augmented-wave + core cor, Zval =  6.0
     Generated using &quot;atomic&quot; code by A. Dal Corso  v.6.3
     Shape of augmentation charge: PSQ
     Using radial grid of 1151 points,  6 beta functions with: 
                l(1) =   0
                l(2) =   0
                l(3) =   1
                l(4) =   1
                l(5) =   2
                l(6) =   2
     Q(r) pseudized with 0 coefficients 


     PseudoPot. # 2 for W  read from file:
     /share/work_r640/fmigm008/pseudo/W.pbe-spn-kjpaw_psl.1.0.0.UPF
     MD5 check sum: 03c3df5b60893f488392c7401945500a
     Pseudo is Projector augmented-wave + core cor, Zval = 14.0
     Generated using &quot;atomic&quot; code by A. Dal Corso  v.6.2.2
     Shape of augmentation charge: PSQ
     Using radial grid of 1273 points,  6 beta functions with: 
                l(1) =   0
                l(2) =   0
                l(3) =   1
                l(4) =   1
                l(5) =   2
                l(6) =   2
     Q(r) pseudized with 0 coefficients 


     PseudoPot. # 3 for Ag read from file:
     /share/work_r640/fmigm008/pseudo/Ag.pbe-n-kjpaw_psl.1.0.0.UPF
     MD5 check sum: 51099775af2a3182a6a1caffb86952a3
     Pseudo is Projector augmented-wave + core cor, Zval = 11.0
     Generated using &quot;atomic&quot; code by A. Dal Corso  v.6.2.2
     Shape of augmentation charge: PSQ
     Using radial grid of 1237 points,  6 beta functions with: 
                l(1) =   0
                l(2) =   0
                l(3) =   1
                l(4) =   1
                l(5) =   2
                l(6) =   2
     Q(r) pseudized with 0 coefficients 


     PseudoPot. # 4 for N  read from file:
     /share/work_r640/fmigm008/pseudo/N.pbe-n-kjpaw_psl.1.0.0.UPF
     MD5 check sum: 14c48229446f9f2d411169a3abcbc3fa
     Pseudo is Projector augmented-wave + core cor, Zval =  5.0
     Generated using &quot;atomic&quot; code by A. Dal Corso  v.6.3
     Shape of augmentation charge: PSQ
     Using radial grid of 1085 points,  4 beta functions with: 
                l(1) =   0
                l(2) =   0
                l(3) =   1
                l(4) =   1
     Q(r) pseudized with 0 coefficients 


     PseudoPot. # 5 for O  read from file:
     /share/work_r640/fmigm008/pseudo/O.pbe-n-kjpaw_psl.1.0.0.UPF
     MD5 check sum: e99d9cef9b487d1ca56f5b95ecd0fd7a
     Pseudo is Projector augmented-wave + core cor, Zval =  6.0
     Generated using &quot;atomic&quot; code by A. Dal Corso  v.6.3
     Shape of augmentation charge: PSQ
     Using radial grid of 1095 points,  4 beta functions with: 
                l(1) =   0
                l(2) =   0
                l(3) =   1
                l(4) =   1
     Q(r) pseudized with 0 coefficients 


     PseudoPot. # 6 for H  read from file:
     /share/work_r640/fmigm008/pseudo/H.pbe-kjpaw_psl.1.0.0.UPF
     MD5 check sum: d81a744832360e4a8af0b0b5b123bc2a
     Pseudo is Projector augmented-wave, Zval =  1.0
     Generated using &quot;atomic&quot; code by A. Dal Corso  v.6.3MaX
     Shape of augmentation charge: PSQ
     Using radial grid of  929 points,  2 beta functions with: 
                l(1) =   0
                l(2) =   0
     Q(r) pseudized with 0 coefficients 


     atomic species   valence    mass     pseudopotential
     S                 6.00    32.06500     S ( 1.00)
     W                14.00   183.84000     W ( 1.00)
     Ag               11.00   107.87000     Ag( 1.00)
     N                 5.00    14.00700     N ( 1.00)
     O                 6.00    15.99900     O ( 1.00)
     H                 1.00     1.00800     H ( 1.00)

     Starting magnetic structure 
     atomic species   magnetization
     S               0.000
     W               0.000
     Ag              0.000
     N               0.000
     O               0.000
     H               0.000

     No symmetry found


                                    s                        frac. trans.

      isym =  1     identity                                     

 cryst.   s( 1) = (     1          0          0      )
                  (     0          1          0      )
                  (     0          0          1      )

 cart.    s( 1) = (  1.0000000  0.0000000  0.0000000 )
                  (  0.0000000  1.0000000  0.0000000 )
                  (  0.0000000  0.0000000  1.0000000 )


   Cartesian axes

     site n.     atom                  positions (alat units)
         1        W      tau(   1) = (  -0.0028587   0.1395947   0.2444812  )
         2        W      tau(   2) = (  -0.1282026   0.3564836   0.2443568  )
         3        W      tau(   3) = (  -0.2537731   0.5727289   0.2442261  )
         4        W      tau(   4) = (  -0.3783723   0.7888166   0.2441498  )
         5        W      tau(   5) = (   0.2469096   0.1395426   0.2440120  )
         6        W      tau(   6) = (   0.1225026   0.3570726   0.2432304  )
         7        W      tau(   7) = (  -0.0034888   0.5727502   0.2429844  )
         8        W      tau(   8) = (  -0.1283671   0.7891505   0.2439766  )
         9        W      tau(   9) = (   0.4969194   0.1397378   0.2430413  )
        10        W      tau(  10) = (   0.3721499   0.3552416   0.2405337  )
        11        W      tau(  11) = (   0.2452295   0.5727639   0.2402480  )
        12        W      tau(  12) = (   0.1220165   0.7890246   0.2436243  )
        13        W      tau(  13) = (   0.7467445   0.1394449   0.2440642  )
        14        W      tau(  14) = (   0.6211264   0.3563823   0.2436826  )
        15        W      tau(  15) = (   0.4971469   0.5732720   0.2421413  )
        16        W      tau(  16) = (   0.3721785   0.7886524   0.2428338  )
        17        S      tau(  17) = (   0.1219502   0.0672380   0.3684592  )
        18        S      tau(  18) = (  -0.0024014   0.2846735   0.3681910  )
        19        S      tau(  19) = (  -0.1281525   0.5008469   0.3682441  )
        20        S      tau(  20) = (  -0.2533258   0.7170167   0.3685687  )
        21        S      tau(  21) = (   0.3722606   0.0676427   0.3679766  )
        22        S      tau(  22) = (   0.2484890   0.2849851   0.3676532  )
        23        S      tau(  23) = (   0.1218721   0.5017515   0.3660861  )
        24        S      tau(  24) = (  -0.0030403   0.7167922   0.3679041  )
        25        S      tau(  25) = (   0.6215745   0.0674060   0.3678624  )
        26        S      tau(  26) = (   0.4959803   0.2843589   0.3667029  )
        27        S      tau(  27) = (   0.3710177   0.5007270   0.3638206  )
        28        S      tau(  28) = (   0.2481984   0.7153351   0.3669892  )
        29        S      tau(  29) = (   0.8717811   0.0668114   0.3679626  )
        30        S      tau(  30) = (   0.7463862   0.2840842   0.3681041  )
        31        S      tau(  31) = (   0.6195449   0.5004430   0.3687043  )
        32        S      tau(  32) = (   0.4956231   0.7159829   0.3681683  )
        33        S      tau(  33) = (   0.1218639   0.0672424   0.1203644  )
        34        S      tau(  34) = (  -0.0031686   0.2839920   0.1203246  )
        35        S      tau(  35) = (  -0.1290559   0.5005458   0.1199474  )
        36        S      tau(  36) = (  -0.2533637   0.7168463   0.1201865  )
        37        S      tau(  37) = (   0.3715067   0.0672515   0.1197328  )
        38        S      tau(  38) = (   0.2459712   0.2831895   0.1185177  )
        39        S      tau(  39) = (   0.1200987   0.4999851   0.1172124  )
        40        S      tau(  40) = (  -0.0034124   0.7174366   0.1195727  )
        41        S      tau(  41) = (   0.6220409   0.0671938   0.1195919  )
        42        S      tau(  42) = (   0.4978914   0.2834015   0.1177695  )
        43        S      tau(  43) = (   0.3720771   0.5008174   0.1169455  )
        44        S      tau(  44) = (   0.2466393   0.7180153   0.1180007  )
        45        S      tau(  45) = (   0.8722199   0.0680125   0.1199081  )
        46        S      tau(  46) = (   0.7469729   0.2840633   0.1202901  )
        47        S      tau(  47) = (   0.6222799   0.5003741   0.1191499  )
        48        S      tau(  48) = (   0.4972527   0.7176301   0.1185580  )
        49        Ag     tau(  49) = (   0.1547683   0.5150674   0.5753024  )
        50        Ag     tau(  50) = (   0.3069329   0.3595674   0.5464056  )
        51        Ag     tau(  51) = (   0.5024756   0.4743393   0.5615070  )
        52        Ag     tau(  52) = (   0.3399570   0.6321033   0.5430870  )
        53        Ag     tau(  53) = (   0.3428646   0.4953663   0.7084671  )
        54        N      tau(  54) = (   0.2596825   0.4648737   0.8674395  )
        55        O      tau(  55) = (   0.1477385   0.4509631   0.8500100  )
        56        H      tau(  56) = (   0.2650389   0.5234661   0.9229976  )
        57        H      tau(  57) = (   0.1408570   0.4645004   0.7729758  )
        58        H      tau(  58) = (   0.2837088   0.3964009   0.9032094  )

     --------------------------------------------
     DFT-D3 Dispersion Correction (3-body terms):
     --------------------------------------------
       Reference C6 values for interpolation: 

         atom   Coordination number   C6
         H          0.912             6.05
         H          0.000            15.18
         N          0.000            50.54
         N          0.994            44.25
         N          2.014            39.35
         N          2.990            31.16
         O          0.000            31.01
         O          0.993            25.63
         O          1.989            20.74
         S          0.000           268.01
         S          0.995           261.99
         S          1.990           251.62
         Ag         0.000           853.49
         Ag         0.968           537.23
         W          0.000          1628.72
         W          1.929          1086.81
         W         10.915           796.19

       Values used:

         atom   Coordination number  R0_AB[au]  C6      C8
         W          9.805            3.766    796.19 128250.55
         W          9.806            3.766    796.19 128250.55
         W          9.854            3.766    796.19 128250.55
         W          9.866            3.766    796.19 128250.55
         W          9.842            3.766    796.19 128250.55
         W          9.851            3.766    796.19 128250.55
         W          9.870            3.766    796.19 128250.55
         W          9.833            3.766    796.19 128250.55
         W          9.854            3.766    796.19 128250.55
         W          9.880            3.766    796.19 128250.55
         W          9.879            3.766    796.19 128250.55
         W          9.846            3.766    796.19 128250.55
         W          9.811            3.766    796.19 128250.55
         W          9.849            3.766    796.19 128250.55
         W          9.870            3.766    796.19 128250.55
         W          9.855            3.766    796.19 128250.55
         S          3.670            3.128    251.62  12327.25
         S          3.672            3.128    251.62  12327.25
         S          3.679            3.128    251.62  12327.25
         S          3.675            3.128    251.62  12327.25
         S          3.690            3.128    251.62  12327.25
         S          4.579            3.128    251.62  12327.25
         S          4.512            3.128    251.62  12327.25
         S          3.693            3.128    251.62  12327.25
         S          3.676            3.128    251.62  12327.25
         S          3.843            3.128    251.62  12327.25
         S          4.976            3.128    251.62  12327.25
         S          4.443            3.128    251.62  12327.25
         S          3.677            3.128    251.62  12327.25
         S          3.672            3.128    251.62  12327.25
         S          4.198            3.128    251.62  12327.25
         S          3.918            3.128    251.62  12327.25
         S          3.700            3.128    251.62  12327.25
         S          3.699            3.128    251.62  12327.25
         S          3.697            3.128    251.62  12327.25
         S          3.697            3.128    251.62  12327.25
         S          3.689            3.128    251.62  12327.25
         S          3.673            3.128    251.62  12327.25
         S          3.669            3.128    251.62  12327.25
         S          3.689            3.128    251.62  12327.25
         S          3.693            3.128    251.62  12327.25
         S          3.672            3.128    251.62  12327.25
         S          3.662            3.128    251.62  12327.25
         S          3.672            3.128    251.62  12327.25
         S          3.693            3.128    251.62  12327.25
         S          3.697            3.128    251.62  12327.25
         S          3.686            3.128    251.62  12327.25
         S          3.680            3.128    251.62  12327.25
         Ag         3.221            3.147    537.23  47741.54
         Ag         3.973            3.147    537.23  47741.54
         Ag         3.317            3.147    537.23  47741.54
         Ag         4.158            3.147    537.23  47741.54
         Ag         4.123            3.147    537.23  47741.54
         N          3.752            2.478     31.16    687.50
         O          2.000            2.345     20.82    420.13
         H          1.005            2.062      6.18     74.66
         H          1.030            2.062      6.16     74.42
         H          1.007            2.062      6.18     74.65

         Molecular C6 ( Ry / a.u.^6 ) =   1190031.85


   Crystallographic axes

     site n.     atom                  positions (cryst. coord.)
         1        W      tau(   1) = (  0.0777364  0.1611901  0.1550056  )
         2        W      tau(   2) = (  0.0776133  0.4116318  0.1549267  )
         3        W      tau(   3) = (  0.0768921  0.6613303  0.1548438  )
         4        W      tau(   4) = (  0.0770512  0.9108469  0.1547955  )
         5        W      tau(   5) = (  0.3274746  0.1611299  0.1547081  )
         6        W      tau(   6) = (  0.3286586  0.4123119  0.1542125  )
         7        W      tau(   7) = (  0.3271886  0.6613549  0.1540566  )
         8        W      tau(   8) = (  0.3272492  0.9112326  0.1546856  )
         9        W      tau(   9) = (  0.5775970  0.1613553  0.1540926  )
        10        W      tau(  10) = (  0.5772488  0.4101977  0.1525028  )
        11        W      tau(  11) = (  0.5759149  0.6613708  0.1523217  )
        12        W      tau(  12) = (  0.5775601  0.9110871  0.1544623  )
        13        W      tau(  13) = (  0.8272530  0.1610171  0.1547412  )
        14        W      tau(  14) = (  0.8268839  0.4115149  0.1544993  )
        15        W      tau(  15) = (  0.8281256  0.6619575  0.1535220  )
        16        W      tau(  16) = (  0.8275072  0.9106573  0.1539611  )
        17        S      tau(  17) = (  0.1607701  0.0776397  0.2336099  )
        18        S      tau(  18) = (  0.1619549  0.3287126  0.2334399  )
        19        S      tau(  19) = (  0.1610116  0.5783281  0.2334735  )
        20        S      tau(  20) = (  0.1606439  0.8279395  0.2336794  )
        21        S      tau(  21) = (  0.4113141  0.0781070  0.2333040  )
        22        S      tau(  22) = (  0.4130252  0.3290725  0.2330989  )
        23        S      tau(  23) = (  0.4115585  0.5793727  0.2321053  )
        24        S      tau(  24) = (  0.4107998  0.8276803  0.2332579  )
        25        S      tau(  25) = (  0.6604913  0.0778337  0.2332315  )
        26        S      tau(  26) = (  0.6601550  0.3283494  0.2324963  )
        27        S      tau(  27) = (  0.6601125  0.5781897  0.2306689  )
        28        S      tau(  28) = (  0.6611973  0.8259978  0.2326779  )
        29        S      tau(  29) = (  0.9103547  0.0771472  0.2332950  )
        30        S      tau(  30) = (  0.9104023  0.3280322  0.2333848  )
        31        S      tau(  31) = (  0.9084758  0.5778618  0.2337653  )
        32        S      tau(  32) = (  0.9089960  0.8267459  0.2334255  )
        33        S      tau(  33) = (  0.1606863  0.0776448  0.0763132  )
        34        S      tau(  34) = (  0.1607942  0.3279257  0.0762880  )
        35        S      tau(  35) = (  0.1599344  0.5779805  0.0760488  )
        36        S      tau(  36) = (  0.1605077  0.8277428  0.0762004  )
        37        S      tau(  37) = (  0.4103343  0.0776554  0.0759128  )
        38        S      tau(  38) = (  0.4094707  0.3269991  0.0751424  )
        39        S      tau(  39) = (  0.4087652  0.5773330  0.0743148  )
        40        S      tau(  40) = (  0.4107999  0.8284245  0.0758113  )
        41        S      tau(  41) = (  0.6608352  0.0775887  0.0758235  )
        42        S      tau(  42) = (  0.6615133  0.3272438  0.0746680  )
        43        S      tau(  43) = (  0.6612241  0.5782941  0.0741456  )
        44        S      tau(  44) = (  0.6611856  0.8290927  0.0748146  )
        45        S      tau(  45) = (  0.9114869  0.0785340  0.0760239  )
        46        S      tau(  46) = (  0.9109769  0.3280081  0.0762661  )
        47        S      tau(  47) = (  0.9111710  0.5777822  0.0755432  )
        48        S      tau(  48) = (  0.9115766  0.8286478  0.0751680  )
        49        Ag     tau(  49) = (  0.4521427  0.5947486  0.3647523  )
        50        Ag     tau(  50) = (  0.5145293  0.4151927  0.3464312  )
        51        Ag     tau(  51) = (  0.7763355  0.5477198  0.3560058  )
        52        Ag     tau(  52) = (  0.7049020  0.7298900  0.3443271  )
        53        Ag     tau(  53) = (  0.6288645  0.5719998  0.4491812  )
        54        N      tau(  54) = (  0.5280775  0.5367899  0.5499726  )
        55        O      tau(  55) = (  0.4081021  0.5207274  0.5389220  )
        56        H      tau(  56) = (  0.5672622  0.6044466  0.5851974  )
        57        H      tau(  57) = (  0.4090365  0.5363589  0.4900809  )
        58        H      tau(  58) = (  0.5125710  0.4577243  0.5726514  )

     number of k points=    13
                       cart. coord. in units 2pi/alat
        k(    1) = (   0.0000000   0.0000000   0.0000000), wk =   0.0400000
        k(    2) = (   0.0000000   0.2309401   0.0000000), wk =   0.0800000
        k(    3) = (   0.0000000   0.4618802   0.0000000), wk =   0.0800000
        k(    4) = (   0.2000000   0.3464102   0.0000000), wk =   0.0800000
        k(    5) = (   0.2000000   0.5773503   0.0000000), wk =   0.0800000
        k(    6) = (  -0.2000000   0.1154701   0.0000000), wk =   0.0800000
        k(    7) = (   0.2000000   0.1154701   0.0000000), wk =   0.0800000
        k(    8) = (  -0.4000000   0.2309401   0.0000000), wk =   0.0800000
        k(    9) = (   0.4000000   0.2309401   0.0000000), wk =   0.0800000
        k(   10) = (  -0.2000000   0.3464102   0.0000000), wk =   0.0800000
        k(   11) = (   0.4000000  -0.0000000   0.0000000), wk =   0.0800000
        k(   12) = (  -0.4000000   0.4618802   0.0000000), wk =   0.0800000
        k(   13) = (   0.6000000   0.1154701   0.0000000), wk =   0.0800000

                       cryst. coord.
        k(    1) = (   0.0000000   0.0000000   0.0000000), wk =   0.0400000
        k(    2) = (   0.0000000   0.2000000   0.0000000), wk =   0.0800000
        k(    3) = (   0.0000000   0.4000000   0.0000000), wk =   0.0800000
        k(    4) = (   0.2000000   0.2000000   0.0000000), wk =   0.0800000
        k(    5) = (   0.2000000   0.4000000   0.0000000), wk =   0.0800000
        k(    6) = (  -0.2000000   0.2000000   0.0000000), wk =   0.0800000
        k(    7) = (   0.2000000   0.0000000   0.0000000), wk =   0.0800000
        k(    8) = (  -0.4000000   0.4000000   0.0000000), wk =   0.0800000
        k(    9) = (   0.4000000   0.0000000   0.0000000), wk =   0.0800000
        k(   10) = (  -0.2000000   0.4000000   0.0000000), wk =   0.0800000
        k(   11) = (   0.4000000  -0.2000000   0.0000000), wk =   0.0800000
        k(   12) = (  -0.4000000   0.6000000   0.0000000), wk =   0.0800000
        k(   13) = (   0.6000000  -0.2000000   0.0000000), wk =   0.0800000

     Dense  grid:  2539249 G-vectors     FFT dimensions: ( 160, 160, 243)

     Smooth grid:   897387 G-vectors     FFT dimensions: ( 108, 108, 180)

     Dynamical RAM for                 wfc:       6.50 MB

     Dynamical RAM for     wfc (w. buffer):     175.50 MB

     Dynamical RAM for           str. fact:       3.63 MB

     Dynamical RAM for           local pot:       0.00 MB

     Dynamical RAM for          nlocal pot:      26.11 MB

     Dynamical RAM for                qrad:       9.63 MB

     Dynamical RAM for          rho,v,vnew:       8.32 MB

     Dynamical RAM for               rhoin:       2.77 MB

     Dynamical RAM for            rho*nmix:      19.38 MB

     Dynamical RAM for           G-vectors:       2.38 MB

     Dynamical RAM for          h,s,v(r/c):       2.70 MB

     Dynamical RAM for          <psi|beta>:       3.62 MB

     Dynamical RAM for                 psi:      13.00 MB

     Dynamical RAM for                hpsi:      13.00 MB

     Dynamical RAM for                spsi:      13.00 MB

     Dynamical RAM for      wfcinit/wfcrot:      14.35 MB

     Dynamical RAM for           addusdens:     132.60 MB

     Dynamical RAM for          addusforce:     170.39 MB

     Dynamical RAM for         addusstress:     122.61 MB

     Estimated static dynamical RAM per process >     237.27 MB

     Estimated max dynamical RAM per process >     427.03 MB

     Estimated total dynamical RAM >      26.69 GB
     Generating pointlists ...
     new r_m :   0.0782 (alat units)  1.8731 (a.u.) for type    1
     new r_m :   0.0782 (alat units)  1.8731 (a.u.) for type    2
     new r_m :   0.0751 (alat units)  1.7989 (a.u.) for type    3
     new r_m :   0.0334 (alat units)  0.7997 (a.u.) for type    4
     new r_m :   0.0324 (alat units)  0.7761 (a.u.) for type    5
     new r_m :   0.0324 (alat units)  0.7761 (a.u.) for type    6

     Initial potential from superposition of free atoms

     starting charge     484.9880, renormalised to     485.0000

     negative rho (up, down):  1.010E-03 1.010E-03
     Starting wfcs are  392 randomized atomic wfcs
     Checking if some PAW data can be deallocated... 
       PAW data deallocated on   32 nodes for type:  1
       PAW data deallocated on   42 nodes for type:  2
       PAW data deallocated on   59 nodes for type:  3
       PAW data deallocated on   63 nodes for type:  4
       PAW data deallocated on   63 nodes for type:  5
       PAW data deallocated on   61 nodes for type:  6

     total cpu time spent up to now is      186.5 secs

     per-process dynamical memory:   308.7 Mb

     Self-consistent Calculation

     iteration #  1     ecut=    50.00 Ry     beta= 0.40
     Davidson diagonalization with overlap

---- Real-time Memory Report at c_bands before calling an iterative solver
           370 MiB given to the printing process from OS
           301 MiB allocation reported by mallinfo(arena+hblkhd)
         78671 MiB available memory on the node where the printing process lives
------------------
     ethr =  1.00E-02,  avg # of iterations =  2.0

     Threshold (ethr) on eigenvalues was too large:
     Diagonalizing with lowered threshold

     Davidson diagonalization with overlap

---- Real-time Memory Report at c_bands before calling an iterative solver
           473 MiB given to the printing process from OS
           304 MiB allocation reported by mallinfo(arena+hblkhd)
         77232 MiB available memory on the node where the printing process lives
------------------
     ethr =  4.33E-04,  avg # of iterations =  4.8

     negative rho (up, down):  1.027E-02 6.721E-03

     total cpu time spent up to now is      928.6 secs

     total energy              =  -16138.22527520 Ry
     estimated scf accuracy    <       2.44023937 Ry

     total magnetization       =     1.00 Bohr mag/cell
     absolute magnetization    =     4.14 Bohr mag/cell

     iteration #  2     ecut=    50.00 Ry     beta= 0.40
     Davidson diagonalization with overlap

---- Real-time Memory Report at c_bands before calling an iterative solver
           481 MiB given to the printing process from OS
           311 MiB allocation reported by mallinfo(arena+hblkhd)
         75094 MiB available memory on the node where the printing process lives
------------------
     ethr =  5.03E-04,  avg # of iterations =  7.4

     negative rho (up, down):  3.216E-02 2.301E-02

     total cpu time spent up to now is     1319.4 secs

     total energy              =  -16138.44608042 Ry
     estimated scf accuracy    <       0.41311274 Ry

     total magnetization       =     1.00 Bohr mag/cell
     absolute magnetization    =     3.05 Bohr mag/cell

     iteration #  3     ecut=    50.00 Ry     beta= 0.40
     Davidson diagonalization with overlap

---- Real-time Memory Report at c_bands before calling an iterative solver
           484 MiB given to the printing process from OS
           313 MiB allocation reported by mallinfo(arena+hblkhd)
         75143 MiB available memory on the node where the printing process lives
------------------
     ethr =  8.52E-05,  avg # of iterations =  8.4

     negative rho (up, down):  3.687E-02 2.755E-02

     total cpu time spent up to now is     1724.8 secs

     total energy              =  -16138.51405867 Ry
     estimated scf accuracy    <       0.22464049 Ry

     total magnetization       =     1.00 Bohr mag/cell
     absolute magnetization    =     2.37 Bohr mag/cell

     iteration #  4     ecut=    50.00 Ry     beta= 0.40
     Davidson diagonalization with overlap

---- Real-time Memory Report at c_bands before calling an iterative solver
           485 MiB given to the printing process from OS
           314 MiB allocation reported by mallinfo(arena+hblkhd)
         75010 MiB available memory on the node where the printing process lives
------------------
     ethr =  4.63E-05,  avg # of iterations =  9.8

     negative rho (up, down):  3.079E-02 2.394E-02

     total cpu time spent up to now is     2099.4 secs

     total energy              =  -16138.54497477 Ry
     estimated scf accuracy    <       0.05165538 Ry

     total magnetization       =     1.00 Bohr mag/cell
     absolute magnetization    =     1.99 Bohr mag/cell

     iteration #  5     ecut=    50.00 Ry     beta= 0.40
     Davidson diagonalization with overlap

---- Real-time Memory Report at c_bands before calling an iterative solver
           515 MiB given to the printing process from OS
           346 MiB allocation reported by mallinfo(arena+hblkhd)
         74514 MiB available memory on the node where the printing process lives
------------------
     ethr =  1.07E-05,  avg # of iterations =  7.2

     negative rho (up, down):  2.128E-02 1.692E-02

     total cpu time spent up to now is     2488.7 secs

     total energy              =  -16138.55005684 Ry
     estimated scf accuracy    <       0.03194544 Ry

     total magnetization       =     1.00 Bohr mag/cell
     absolute magnetization    =     1.71 Bohr mag/cell

     iteration #  6     ecut=    50.00 Ry     beta= 0.40
     Davidson diagonalization with overlap

---- Real-time Memory Report at c_bands before calling an iterative solver
           519 MiB given to the printing process from OS
           348 MiB allocation reported by mallinfo(arena+hblkhd)
         74046 MiB available memory on the node where the printing process lives
------------------
     ethr =  6.59E-06,  avg # of iterations =  7.3

     negative rho (up, down):  1.386E-02 1.144E-02

     total cpu time spent up to now is     2844.7 secs

     total energy              =  -16138.55326913 Ry
     estimated scf accuracy    <       0.01662653 Ry

     total magnetization       =     1.00 Bohr mag/cell
     absolute magnetization    =     1.49 Bohr mag/cell

     iteration #  7     ecut=    50.00 Ry     beta= 0.40
     Davidson diagonalization with overlap

---- Real-time Memory Report at c_bands before calling an iterative solver
           519 MiB given to the printing process from OS
           350 MiB allocation reported by mallinfo(arena+hblkhd)
         74102 MiB available memory on the node where the printing process lives
------------------
     ethr =  3.43E-06,  avg # of iterations =  5.7

     negative rho (up, down):  2.014E-02 2.070E-02

     total cpu time spent up to now is     3182.5 secs

     total energy              =  -16138.55184380 Ry
     estimated scf accuracy    <       0.00834703 Ry

     total magnetization       =     1.00 Bohr mag/cell
     absolute magnetization    =     1.34 Bohr mag/cell

     iteration #  8     ecut=    50.00 Ry     beta= 0.40
     Davidson diagonalization with overlap

---- Real-time Memory Report at c_bands before calling an iterative solver
           521 MiB given to the printing process from OS
           350 MiB allocation reported by mallinfo(arena+hblkhd)
         74074 MiB available memory on the node where the printing process lives
------------------
     ethr =  1.72E-06,  avg # of iterations =  7.8

     negative rho (up, down):  2.090E-02 2.202E-02

     total cpu time spent up to now is     3525.6 secs

     total energy              =  -16138.55157979 Ry
     estimated scf accuracy    <       0.00216865 Ry

     total magnetization       =     1.00 Bohr mag/cell
     absolute magnetization    =     1.22 Bohr mag/cell

     iteration #  9     ecut=    50.00 Ry     beta= 0.40
     Davidson diagonalization with overlap

---- Real-time Memory Report at c_bands before calling an iterative solver
           521 MiB given to the printing process from OS
           351 MiB allocation reported by mallinfo(arena+hblkhd)
         73975 MiB available memory on the node where the printing process lives
------------------
     ethr =  4.47E-07,  avg # of iterations =  7.8

     negative rho (up, down):  1.519E-02 1.611E-02

     total cpu time spent up to now is     3920.7 secs

     total energy              =  -16138.55346204 Ry
     estimated scf accuracy    <       0.00049774 Ry

     total magnetization       =     1.00 Bohr mag/cell
     absolute magnetization    =     1.17 Bohr mag/cell

     iteration # 10     ecut=    50.00 Ry     beta= 0.40
     Davidson diagonalization with overlap

---- Real-time Memory Report at c_bands before calling an iterative solver
           522 MiB given to the printing process from OS
           352 MiB allocation reported by mallinfo(arena+hblkhd)
         73926 MiB available memory on the node where the printing process lives
------------------
     ethr =  1.03E-07,  avg # of iterations =  7.5

     negative rho (up, down):  1.096E-02 1.172E-02

     total cpu time spent up to now is     4324.1 secs

     total energy              =  -16138.55453380 Ry
     estimated scf accuracy    <       0.00016512 Ry

     total magnetization       =     1.00 Bohr mag/cell
     absolute magnetization    =     1.15 Bohr mag/cell

     iteration # 11     ecut=    50.00 Ry     beta= 0.40
     Davidson diagonalization with overlap

---- Real-time Memory Report at c_bands before calling an iterative solver
           525 MiB given to the printing process from OS
           354 MiB allocation reported by mallinfo(arena+hblkhd)
         73728 MiB available memory on the node where the printing process lives
------------------
     ethr =  3.40E-08,  avg # of iterations =  8.1

     negative rho (up, down):  7.870E-03 8.460E-03

     total cpu time spent up to now is     4761.2 secs

     total energy              =  -16138.55513803 Ry
     estimated scf accuracy    <       0.00009027 Ry

     total magnetization       =     1.00 Bohr mag/cell
     absolute magnetization    =     1.14 Bohr mag/cell

     iteration # 12     ecut=    50.00 Ry     beta= 0.40
     Davidson diagonalization with overlap

---- Real-time Memory Report at c_bands before calling an iterative solver
           526 MiB given to the printing process from OS
           354 MiB allocation reported by mallinfo(arena+hblkhd)
         73801 MiB available memory on the node where the printing process lives
------------------
     ethr =  1.86E-08,  avg # of iterations =  6.6

     negative rho (up, down):  6.036E-03 6.499E-03

     total cpu time spent up to now is     5162.0 secs

     total energy              =  -16138.55539918 Ry
     estimated scf accuracy    <       0.00002993 Ry

     total magnetization       =     1.00 Bohr mag/cell
     absolute magnetization    =     1.13 Bohr mag/cell

     iteration # 13     ecut=    50.00 Ry     beta= 0.40
     Davidson diagonalization with overlap

---- Real-time Memory Report at c_bands before calling an iterative solver
           526 MiB given to the printing process from OS
           354 MiB allocation reported by mallinfo(arena+hblkhd)
         73742 MiB available memory on the node where the printing process lives
------------------
     ethr =  6.17E-09,  avg # of iterations =  7.0

     negative rho (up, down):  5.224E-03 5.630E-03

     total cpu time spent up to now is     5570.4 secs

     total energy              =  -16138.55549179 Ry
     estimated scf accuracy    <       0.00001347 Ry

     total magnetization       =     1.00 Bohr mag/cell
     absolute magnetization    =     1.12 Bohr mag/cell

     iteration # 14     ecut=    50.00 Ry     beta= 0.40
     Davidson diagonalization with overlap

---- Real-time Memory Report at c_bands before calling an iterative solver
           526 MiB given to the printing process from OS
           354 MiB allocation reported by mallinfo(arena+hblkhd)
         73866 MiB available memory on the node where the printing process lives
------------------
     ethr =  2.78E-09,  avg # of iterations =  2.1

     negative rho (up, down):  4.893E-03 5.274E-03

     total cpu time spent up to now is     5893.7 secs

     total energy              =  -16138.55552862 Ry
     estimated scf accuracy    <       0.00000918 Ry

     total magnetization       =     1.00 Bohr mag/cell
     absolute magnetization    =     1.12 Bohr mag/cell

     iteration # 15     ecut=    50.00 Ry     beta= 0.40
     Davidson diagonalization with overlap

---- Real-time Memory Report at c_bands before calling an iterative solver
           526 MiB given to the printing process from OS
           354 MiB allocation reported by mallinfo(arena+hblkhd)
         73823 MiB available memory on the node where the printing process lives
------------------
     ethr =  1.89E-09,  avg # of iterations =  2.0

     negative rho (up, down):  4.819E-03 5.195E-03

     total cpu time spent up to now is     6191.0 secs

     total energy              =  -16138.55553829 Ry
     estimated scf accuracy    <       0.00000760 Ry

     total magnetization       =     1.00 Bohr mag/cell
     absolute magnetization    =     1.12 Bohr mag/cell

     iteration # 16     ecut=    50.00 Ry     beta= 0.40
     Davidson diagonalization with overlap

---- Real-time Memory Report at c_bands before calling an iterative solver
           526 MiB given to the printing process from OS
           354 MiB allocation reported by mallinfo(arena+hblkhd)
         73813 MiB available memory on the node where the printing process lives
------------------
     ethr =  1.57E-09,  avg # of iterations =  1.6

     negative rho (up, down):  5.777E-03 6.205E-03

     total cpu time spent up to now is     6476.8 secs

     total energy              =  -16138.55544010 Ry
     estimated scf accuracy    <       0.00000635 Ry

     total magnetization       =     1.00 Bohr mag/cell
     absolute magnetization    =     1.12 Bohr mag/cell

     iteration # 17     ecut=    50.00 Ry     beta= 0.40
     Davidson diagonalization with overlap

---- Real-time Memory Report at c_bands before calling an iterative solver
           526 MiB given to the printing process from OS
           354 MiB allocation reported by mallinfo(arena+hblkhd)
         73687 MiB available memory on the node where the printing process lives
------------------
     ethr =  1.31E-09,  avg # of iterations =  8.1

     negative rho (up, down):  5.119E-03 5.511E-03

     total cpu time spent up to now is     6879.4 secs

     total energy              =  -16138.55550415 Ry
     estimated scf accuracy    <       0.00001439 Ry

     total magnetization       =     1.00 Bohr mag/cell
     absolute magnetization    =     1.12 Bohr mag/cell

     iteration # 18     ecut=    50.00 Ry     beta= 0.40
     Davidson diagonalization with overlap

---- Real-time Memory Report at c_bands before calling an iterative solver
           526 MiB given to the printing process from OS
           354 MiB allocation reported by mallinfo(arena+hblkhd)
         73750 MiB available memory on the node where the printing process lives
------------------
     ethr =  1.31E-09,  avg # of iterations =  8.0

     negative rho (up, down):  4.863E-03 5.240E-03

     total cpu time spent up to now is     7305.6 secs

     total energy              =  -16138.55553222 Ry
     estimated scf accuracy    <       0.00000414 Ry

     total magnetization       =     1.00 Bohr mag/cell
     absolute magnetization    =     1.12 Bohr mag/cell

     iteration # 19     ecut=    50.00 Ry     beta= 0.40
     Davidson diagonalization with overlap

---- Real-time Memory Report at c_bands before calling an iterative solver
           526 MiB given to the printing process from OS
           354 MiB allocation reported by mallinfo(arena+hblkhd)
         73860 MiB available memory on the node where the printing process lives
------------------
     ethr =  8.54E-10,  avg # of iterations =  2.0

     negative rho (up, down):  4.808E-03 5.177E-03

     total cpu time spent up to now is     7614.3 secs

     total energy              =  -16138.55553850 Ry
     estimated scf accuracy    <       0.00000237 Ry

     total magnetization       =     1.00 Bohr mag/cell
     absolute magnetization    =     1.12 Bohr mag/cell

     iteration # 20     ecut=    50.00 Ry     beta= 0.40
     Davidson diagonalization with overlap

---- Real-time Memory Report at c_bands before calling an iterative solver
           526 MiB given to the printing process from OS
           354 MiB allocation reported by mallinfo(arena+hblkhd)
         73674 MiB available memory on the node where the printing process lives
------------------
     ethr =  4.88E-10,  avg # of iterations =  7.5

     negative rho (up, down):  4.802E-03 5.170E-03

     total cpu time spent up to now is     8044.6 secs

     total energy              =  -16138.55553957 Ry
     estimated scf accuracy    <       0.00000153 Ry

     total magnetization       =     1.00 Bohr mag/cell
     absolute magnetization    =     1.12 Bohr mag/cell

     iteration # 21     ecut=    50.00 Ry     beta= 0.40
     Davidson diagonalization with overlap

---- Real-time Memory Report at c_bands before calling an iterative solver
           526 MiB given to the printing process from OS
           354 MiB allocation reported by mallinfo(arena+hblkhd)
         73824 MiB available memory on the node where the printing process lives
------------------
     ethr =  3.15E-10,  avg # of iterations =  2.7

     negative rho (up, down):  4.800E-03 5.167E-03

     total cpu time spent up to now is     8359.4 secs

     total energy              =  -16138.55553986 Ry
     estimated scf accuracy    <       0.00000110 Ry

     total magnetization       =     1.00 Bohr mag/cell
     absolute magnetization    =     1.12 Bohr mag/cell

     iteration # 22     ecut=    50.00 Ry     beta= 0.40
     Davidson diagonalization with overlap

---- Real-time Memory Report at c_bands before calling an iterative solver
           526 MiB given to the printing process from OS
           354 MiB allocation reported by mallinfo(arena+hblkhd)
         73626 MiB available memory on the node where the printing process lives
------------------
     ethr =  2.27E-10,  avg # of iterations =  2.6

     negative rho (up, down):  4.799E-03 5.166E-03

     total cpu time spent up to now is     8665.2 secs

     total energy              =  -16138.55553979 Ry
     estimated scf accuracy    <       0.00000049 Ry

     total magnetization       =     1.00 Bohr mag/cell
     absolute magnetization    =     1.12 Bohr mag/cell

     iteration # 23     ecut=    50.00 Ry     beta= 0.40
     Davidson diagonalization with overlap

---- Real-time Memory Report at c_bands before calling an iterative solver
           526 MiB given to the printing process from OS
           354 MiB allocation reported by mallinfo(arena+hblkhd)
         73564 MiB available memory on the node where the printing process lives
------------------
     ethr =  1.01E-10,  avg # of iterations =  9.5

     negative rho (up, down):  4.798E-03 5.165E-03

     total cpu time spent up to now is     9131.0 secs

     total energy              =  -16138.55553997 Ry
     estimated scf accuracy    <       0.00000067 Ry

     total magnetization       =     1.00 Bohr mag/cell
     absolute magnetization    =     1.12 Bohr mag/cell

     iteration # 24     ecut=    50.00 Ry     beta= 0.40
     Davidson diagonalization with overlap

---- Real-time Memory Report at c_bands before calling an iterative solver
           526 MiB given to the printing process from OS
           355 MiB allocation reported by mallinfo(arena+hblkhd)
         73444 MiB available memory on the node where the printing process lives
------------------
     ethr =  1.01E-10,  avg # of iterations =  2.0

     negative rho (up, down):  4.797E-03 5.165E-03

     total cpu time spent up to now is     9429.3 secs

     total energy              =  -16138.55553989 Ry
     estimated scf accuracy    <       0.00000038 Ry

     total magnetization       =     1.00 Bohr mag/cell
     absolute magnetization    =     1.12 Bohr mag/cell

     iteration # 25     ecut=    50.00 Ry     beta= 0.40
     Davidson diagonalization with overlap

---- Real-time Memory Report at c_bands before calling an iterative solver
           526 MiB given to the printing process from OS
           355 MiB allocation reported by mallinfo(arena+hblkhd)
         73612 MiB available memory on the node where the printing process lives
------------------
     ethr =  7.91E-11,  avg # of iterations =  7.2

     negative rho (up, down):  4.797E-03 5.164E-03

     total cpu time spent up to now is     9845.9 secs

     total energy              =  -16138.55553997 Ry
     estimated scf accuracy    <       0.00000008 Ry

     total magnetization       =     1.00 Bohr mag/cell
     absolute magnetization    =     1.12 Bohr mag/cell

     iteration # 26     ecut=    50.00 Ry     beta= 0.40
     Davidson diagonalization with overlap

---- Real-time Memory Report at c_bands before calling an iterative solver
           526 MiB given to the printing process from OS
           355 MiB allocation reported by mallinfo(arena+hblkhd)
         73226 MiB available memory on the node where the printing process lives
------------------
     ethr =  1.58E-11,  avg # of iterations =  2.0

     negative rho (up, down):  4.796E-03 5.164E-03

     total cpu time spent up to now is    10140.9 secs

     total energy              =  -16138.55553996 Ry
     estimated scf accuracy    <       0.00000005 Ry

     total magnetization       =     1.00 Bohr mag/cell
     absolute magnetization    =     1.12 Bohr mag/cell

     iteration # 27     ecut=    50.00 Ry     beta= 0.40
     Davidson diagonalization with overlap

---- Real-time Memory Report at c_bands before calling an iterative solver
           526 MiB given to the printing process from OS
           355 MiB allocation reported by mallinfo(arena+hblkhd)
         95752 MiB available memory on the node where the printing process lives
------------------
     ethr =  1.04E-11,  avg # of iterations =  7.6

     negative rho (up, down):  4.796E-03 5.164E-03

     total cpu time spent up to now is    10490.6 secs

     total energy              =  -16138.55553997 Ry
     estimated scf accuracy    <       0.00000003 Ry

     total magnetization       =     1.00 Bohr mag/cell
     absolute magnetization    =     1.12 Bohr mag/cell

     iteration # 28     ecut=    50.00 Ry     beta= 0.40
     Davidson diagonalization with overlap

---- Real-time Memory Report at c_bands before calling an iterative solver
           526 MiB given to the printing process from OS
           355 MiB allocation reported by mallinfo(arena+hblkhd)
         95955 MiB available memory on the node where the printing process lives
------------------
     ethr =  6.82E-12,  avg # of iterations =  5.8

     negative rho (up, down):  4.796E-03 5.164E-03

     total cpu time spent up to now is    10752.7 secs

     total energy              =  -16138.55553997 Ry
     estimated scf accuracy    <          5.5E-09 Ry

     total magnetization       =     1.00 Bohr mag/cell
     absolute magnetization    =     1.12 Bohr mag/cell

     iteration # 29     ecut=    50.00 Ry     beta= 0.40
     Davidson diagonalization with overlap

---- Real-time Memory Report at c_bands before calling an iterative solver
           526 MiB given to the printing process from OS
           355 MiB allocation reported by mallinfo(arena+hblkhd)
         95884 MiB available memory on the node where the printing process lives
------------------
     ethr =  1.13E-12,  avg # of iterations = 10.2

     negative rho (up, down):  4.796E-03 5.164E-03

     total cpu time spent up to now is    11158.1 secs

     total energy              =  -16138.55553997 Ry
     estimated scf accuracy    <       0.00000001 Ry

     total magnetization       =     1.00 Bohr mag/cell
     absolute magnetization    =     1.12 Bohr mag/cell

     iteration # 30     ecut=    50.00 Ry     beta= 0.40
     Davidson diagonalization with overlap

---- Real-time Memory Report at c_bands before calling an iterative solver
           526 MiB given to the printing process from OS
           355 MiB allocation reported by mallinfo(arena+hblkhd)
         95822 MiB available memory on the node where the printing process lives
------------------
     ethr =  1.13E-12,  avg # of iterations =  6.2

     negative rho (up, down):  4.796E-03 5.164E-03

     total cpu time spent up to now is    11424.7 secs

     total energy              =  -16138.55553997 Ry
     estimated scf accuracy    <          3.1E-09 Ry

     total magnetization       =     1.00 Bohr mag/cell
     absolute magnetization    =     1.12 Bohr mag/cell

     iteration # 31     ecut=    50.00 Ry     beta= 0.40
     Davidson diagonalization with overlap

---- Real-time Memory Report at c_bands before calling an iterative solver
           526 MiB given to the printing process from OS
           355 MiB allocation reported by mallinfo(arena+hblkhd)
         95914 MiB available memory on the node where the printing process lives
------------------
     ethr =  6.48E-13,  avg # of iterations =  7.1

     negative rho (up, down):  4.796E-03 5.164E-03

     total cpu time spent up to now is    11763.3 secs

     total energy              =  -16138.55553997 Ry
     estimated scf accuracy    <          9.3E-10 Ry

     total magnetization       =     1.00 Bohr mag/cell
     absolute magnetization    =     1.12 Bohr mag/cell

     iteration # 32     ecut=    50.00 Ry     beta= 0.40
     Davidson diagonalization with overlap

---- Real-time Memory Report at c_bands before calling an iterative solver
           526 MiB given to the printing process from OS
           355 MiB allocation reported by mallinfo(arena+hblkhd)
         95833 MiB available memory on the node where the printing process lives
------------------
     ethr =  1.91E-13,  avg # of iterations =  2.9

     negative rho (up, down):  4.796E-03 5.164E-03

     total cpu time spent up to now is    12020.6 secs

     total energy              =  -16138.55553997 Ry
     estimated scf accuracy    <          1.6E-09 Ry

     total magnetization       =     1.00 Bohr mag/cell
     absolute magnetization    =     1.12 Bohr mag/cell

     iteration # 33     ecut=    50.00 Ry     beta= 0.40
     Davidson diagonalization with overlap

---- Real-time Memory Report at c_bands before calling an iterative solver
           526 MiB given to the printing process from OS
           355 MiB allocation reported by mallinfo(arena+hblkhd)
         95885 MiB available memory on the node where the printing process lives
------------------
     ethr =  1.91E-13,  avg # of iterations =  3.0

     negative rho (up, down):  4.796E-03 5.164E-03

     total cpu time spent up to now is    12263.7 secs

     total energy              =  -16138.55553997 Ry
     estimated scf accuracy    <          6.0E-10 Ry

     total magnetization       =     1.00 Bohr mag/cell
     absolute magnetization    =     1.12 Bohr mag/cell

     iteration # 34     ecut=    50.00 Ry     beta= 0.40
     Davidson diagonalization with overlap

---- Real-time Memory Report at c_bands before calling an iterative solver
           526 MiB given to the printing process from OS
           355 MiB allocation reported by mallinfo(arena+hblkhd)
         95872 MiB available memory on the node where the printing process lives
------------------
     ethr =  1.24E-13,  avg # of iterations =  7.5

     negative rho (up, down):  4.796E-03 5.164E-03

     total cpu time spent up to now is    12605.2 secs

     total energy              =  -16138.55553997 Ry
     estimated scf accuracy    <          1.7E-10 Ry

     total magnetization       =     1.00 Bohr mag/cell
     absolute magnetization    =     1.12 Bohr mag/cell

     iteration # 35     ecut=    50.00 Ry     beta= 0.40
     Davidson diagonalization with overlap

---- Real-time Memory Report at c_bands before calling an iterative solver
           526 MiB given to the printing process from OS
           355 MiB allocation reported by mallinfo(arena+hblkhd)
         95825 MiB available memory on the node where the printing process lives
------------------
     ethr =  1.00E-13,  avg # of iterations =  1.0

     negative rho (up, down):  4.796E-03 5.164E-03

     total cpu time spent up to now is    12825.4 secs

     total energy              =  -16138.55553997 Ry
     estimated scf accuracy    <          1.7E-10 Ry

     total magnetization       =     1.00 Bohr mag/cell
     absolute magnetization    =     1.12 Bohr mag/cell

     iteration # 36     ecut=    50.00 Ry     beta= 0.40
     Davidson diagonalization with overlap

---- Real-time Memory Report at c_bands before calling an iterative solver
           526 MiB given to the printing process from OS
           355 MiB allocation reported by mallinfo(arena+hblkhd)
         95841 MiB available memory on the node where the printing process lives
------------------
     ethr =  1.00E-13,  avg # of iterations =  1.0

     negative rho (up, down):  4.796E-03 5.164E-03

     total cpu time spent up to now is    13046.0 secs

     total energy              =  -16138.55553997 Ry
     estimated scf accuracy    <          1.6E-10 Ry

     total magnetization       =     1.00 Bohr mag/cell
     absolute magnetization    =     1.12 Bohr mag/cell

     iteration # 37     ecut=    50.00 Ry     beta= 0.40
     Davidson diagonalization with overlap

---- Real-time Memory Report at c_bands before calling an iterative solver
           526 MiB given to the printing process from OS
           355 MiB allocation reported by mallinfo(arena+hblkhd)
         95830 MiB available memory on the node where the printing process lives
------------------
     ethr =  1.00E-13,  avg # of iterations =  1.0

     negative rho (up, down):  4.796E-03 5.164E-03

     total cpu time spent up to now is    13266.0 secs

     total energy              =  -16138.55553997 Ry
     estimated scf accuracy    <          1.6E-10 Ry

     total magnetization       =     1.00 Bohr mag/cell
     absolute magnetization    =     1.12 Bohr mag/cell

     iteration # 38     ecut=    50.00 Ry     beta= 0.40
     Davidson diagonalization with overlap

---- Real-time Memory Report at c_bands before calling an iterative solver
           526 MiB given to the printing process from OS
           355 MiB allocation reported by mallinfo(arena+hblkhd)
         95793 MiB available memory on the node where the printing process lives
------------------
     ethr =  1.00E-13,  avg # of iterations =  1.0

     negative rho (up, down):  4.796E-03 5.164E-03

     total cpu time spent up to now is    13486.5 secs

     total energy              =  -16138.55553997 Ry
     estimated scf accuracy    <          1.5E-10 Ry

     total magnetization       =     1.00 Bohr mag/cell
     absolute magnetization    =     1.12 Bohr mag/cell

     iteration # 39     ecut=    50.00 Ry     beta= 0.40
     Davidson diagonalization with overlap

---- Real-time Memory Report at c_bands before calling an iterative solver
           526 MiB given to the printing process from OS
           355 MiB allocation reported by mallinfo(arena+hblkhd)
         95876 MiB available memory on the node where the printing process lives
------------------
     ethr =  1.00E-13,  avg # of iterations =  2.0

     negative rho (up, down):  4.796E-03 5.164E-03

     Magnetic moment per site  (integrated on atomic sphere of radius R)
     atom   1 (R=0.078)  charge= 10.3731  magn=  0.0015
     atom   2 (R=0.078)  charge= 10.3731  magn=  0.0080
     atom   3 (R=0.078)  charge= 10.3740  magn= -0.0007
     atom   4 (R=0.078)  charge= 10.3743  magn=  0.0148
     atom   5 (R=0.078)  charge= 10.3763  magn=  0.0112
     atom   6 (R=0.078)  charge= 10.3757  magn=  0.0063
     atom   7 (R=0.078)  charge= 10.3783  magn=  0.0052
     atom   8 (R=0.078)  charge= 10.3749  magn=  0.0108
     atom   9 (R=0.078)  charge= 10.3753  magn=  0.0033
     atom  10 (R=0.078)  charge= 10.3820  magn=  0.0365
     atom  11 (R=0.078)  charge= 10.3836  magn=  0.0167
     atom  12 (R=0.078)  charge= 10.3743  magn=  0.0164
     atom  13 (R=0.078)  charge= 10.3731  magn=  0.0029
     atom  14 (R=0.078)  charge= 10.3740  magn= -0.0006
     atom  15 (R=0.078)  charge= 10.3816  magn=  0.0172
     atom  16 (R=0.078)  charge= 10.3760  magn=  0.0042
     atom  17 (R=0.078)  charge=  4.1591  magn=  0.0027
     atom  18 (R=0.078)  charge=  4.1558  magn=  0.0017
     atom  19 (R=0.078)  charge=  4.1586  magn= -0.0000
     atom  20 (R=0.078)  charge=  4.1590  magn=  0.0027
     atom  21 (R=0.078)  charge=  4.1594  magn=  0.0025
     atom  22 (R=0.078)  charge=  4.1750  magn=  0.0122
     atom  23 (R=0.078)  charge=  4.1788  magn=  0.0050
     atom  24 (R=0.078)  charge=  4.1586  magn=  0.0036
     atom  25 (R=0.078)  charge=  4.1591  magn=  0.0022
     atom  26 (R=0.078)  charge=  4.1626  magn=  0.0026
     atom  27 (R=0.078)  charge=  4.1805  magn=  0.0068
     atom  28 (R=0.078)  charge=  4.1668  magn=  0.0125
     atom  29 (R=0.078)  charge=  4.1578  magn=  0.0030
     atom  30 (R=0.078)  charge=  4.1574  magn=  0.0007
     atom  31 (R=0.078)  charge=  4.1566  magn=  0.0017
     atom  32 (R=0.078)  charge=  4.1575  magn=  0.0062
     atom  33 (R=0.078)  charge=  4.1610  magn=  0.0008
     atom  34 (R=0.078)  charge=  4.1591  magn=  0.0009
     atom  35 (R=0.078)  charge=  4.1606  magn= -0.0002
     atom  36 (R=0.078)  charge=  4.1609  magn=  0.0001
     atom  37 (R=0.078)  charge=  4.1601  magn=  0.0005
     atom  38 (R=0.078)  charge=  4.1589  magn=  0.0036
     atom  39 (R=0.078)  charge=  4.1568  magn=  0.0010
     atom  40 (R=0.078)  charge=  4.1595  magn= -0.0001
     atom  41 (R=0.078)  charge=  4.1602  magn=  0.0005
     atom  42 (R=0.078)  charge=  4.1579  magn=  0.0018
     atom  43 (R=0.078)  charge=  4.1526  magn=  0.0025
     atom  44 (R=0.078)  charge=  4.1584  magn=  0.0032
     atom  45 (R=0.078)  charge=  4.1594  magn=  0.0015
     atom  46 (R=0.078)  charge=  4.1597  magn=  0.0002
     atom  47 (R=0.078)  charge=  4.1603  magn=  0.0006
     atom  48 (R=0.078)  charge=  4.1598  magn=  0.0022
     atom  49 (R=0.075)  charge=  8.3761  magn=  0.0118
     atom  50 (R=0.075)  charge=  8.3725  magn=  0.0310
     atom  51 (R=0.075)  charge=  8.3760  magn=  0.0134
     atom  52 (R=0.075)  charge=  8.3726  magn=  0.0330
     atom  53 (R=0.075)  charge=  8.3617  magn=  0.0185
     atom  54 (R=0.033)  charge=  1.3261  magn= -0.0002
     atom  55 (R=0.032)  charge=  2.0363  magn=  0.0004
     atom  56 (R=0.032)  charge=  0.4205  magn=  0.0002
     atom  57 (R=0.032)  charge=  0.4032  magn=  0.0000
     atom  58 (R=0.032)  charge=  0.4204  magn=  0.0001

     total cpu time spent up to now is    13717.9 secs

     End of self-consistent calculation

 ------ SPIN UP ------------


          k = 0.0000 0.0000 0.0000 (112117 PWs)   bands (ev):

   -73.8180 -73.8146 -73.8116 -73.8091 -73.8071 -73.8062 -73.8036 -73.8016
   -73.7968 -73.7949 -73.7921 -73.7901 -73.7883 -73.7555 -73.7507 -73.7413
   -38.2260 -38.2210 -38.2199 -38.1650 -38.1642 -38.1593 -38.1589 -38.1525
   -38.1447 -38.0609 -38.0580 -38.0554 -38.0548 -38.0497 -38.0476 -38.0458
   -38.0323 -38.0306 -38.0280 -38.0274 -38.0236 -38.0229 -38.0206 -38.0185
   -38.0179 -38.0151 -38.0134 -38.0056 -37.9967 -37.9937 -37.9924 -37.9894
   -37.9878 -37.9836 -37.9698 -37.9597 -37.9584 -37.9555 -37.9529 -37.9476
   -37.9264 -37.9195 -37.9150 -37.9144 -37.9106 -37.9057 -37.8714 -37.8681
   -21.4929 -15.4070 -14.6000 -13.7134 -13.7002 -13.6761 -13.6457 -13.6324
   -13.6222 -12.9846 -12.7150 -12.6795 -12.6570 -12.6412 -12.6047 -12.5830
   -12.5416 -12.5088 -12.4748 -12.4585 -12.4472 -12.4452 -12.4238 -12.4225
   -12.4177 -12.2253 -12.2033 -12.1920 -12.1763 -12.1593 -12.1554 -12.1517
   -12.1485 -12.1460  -7.9166  -7.5431  -6.3449  -6.3293  -6.3112  -6.2864
    -6.1624  -5.6172  -5.5759  -5.5538  -5.5355  -5.5304  -5.4966  -5.4480
    -5.4172  -5.3945  -5.3168  -5.2867  -5.2646  -5.1088  -5.0967  -5.0674
    -5.0624  -5.0579  -5.0568  -5.0023  -5.0009  -4.9919  -4.5275  -4.4445
    -4.4052  -4.3503  -4.2971  -4.2873  -4.2713  -4.2503  -4.2360  -4.1859
    -4.0838  -4.0139  -3.9819  -3.9658  -3.9396  -3.7988  -3.7637  -3.7617
    -3.7068  -3.6814  -3.6778  -3.6168  -3.5185  -3.4777  -3.4106  -3.4062
    -3.3769  -3.3693  -3.3017  -3.2289  -3.2004  -3.1864  -3.1676  -3.1464
    -3.1368  -3.1289  -3.1148  -3.1114  -3.0663  -2.9648  -2.8250  -2.7741
    -2.7264  -2.6813  -2.6521  -2.5952  -2.5867  -2.5269  -2.5167  -2.4694
    -2.4645  -2.4378  -2.4362  -2.4305  -2.4040  -2.3463  -2.2968  -2.2130
    -2.1358  -2.0891  -1.9838  -1.9810  -1.9581  -1.9364  -1.8734  -1.8410
    -1.8184  -1.7864  -1.7724  -1.7681  -1.7551  -1.7548  -1.7466  -1.7411
    -1.7396  -1.7126  -1.6986  -1.6704  -1.6635  -1.6488  -1.6390  -1.6133
    -1.5855  -1.5353  -1.5271  -1.5092  -1.4566  -1.4215  -1.3768  -1.3603
    -1.3147  -1.2786  -1.2084  -1.1015  -1.0594  -1.0331  -1.0176  -0.9989
    -0.7320  -0.6967  -0.6924  -0.6903  -0.6810  -0.6771  -0.6519  -0.6488
    -0.6327  -0.3997  -0.3911  -0.3796  -0.3646  -0.3522  -0.3440  -0.3256
     0.1946   1.2524   1.5337

     occupation numbers 
     1.0000   1.0000   1.0000   1.0000   1.0000   1.0000   1.0000   1.0000
     1.0000   1.0000   1.0000   1.0000   1.0000   1.0000   1.0000   1.0000
     1.0000   1.0000   1.0000   1.0000   1.0000   1.0000   1.0000   1.0000
     1.0000   1.0000   1.0000   1.0000   1.0000   1.0000   1.0000   1.0000
     1.0000   1.0000   1.0000   1.0000   1.0000   1.0000   1.0000   1.0000
     1.0000   1.0000   1.0000   1.0000   1.0000   1.0000   1.0000   1.0000
     1.0000   1.0000   1.0000   1.0000   1.0000   1.0000   1.0000   1.0000
     1.0000   1.0000   1.0000   1.0000   1.0000   1.0000   1.0000   1.0000
     1.0000   1.0000   1.0000   1.0000   1.0000   1.0000   1.0000   1.0000
     1.0000   1.0000   1.0000   1.0000   1.0000   1.0000   1.0000   1.0000
     1.0000   1.0000   1.0000   1.0000   1.0000   1.0000   1.0000   1.0000
     1.0000   1.0000   1.0000   1.0000   1.0000   1.0000   1.0000   1.0000
     1.0000   1.0000   1.0000   1.0000   1.0000   1.0000   1.0000   1.0000
     1.0000   1.0000   1.0000   1.0000   1.0000   1.0000   1.0000   1.0000
     1.0000   1.0000   1.0000   1.0000   1.0000   1.0000   1.0000   1.0000
     1.0000   1.0000   1.0000   1.0000   1.0000   1.0000   1.0000   1.0000
     1.0000   1.0000   1.0000   1.0000   1.0000   1.0000   1.0000   1.0000
     1.0000   1.0000   1.0000   1.0000   1.0000   1.0000   1.0000   1.0000
     1.0000   1.0000   1.0000   1.0000   1.0000   1.0000   1.0000   1.0000
     1.0000   1.0000   1.0000   1.0000   1.0000   1.0000   1.0000   1.0000
     1.0000   1.0000   1.0000   1.0000   1.0000   1.0000   1.0000   1.0000
     1.0000   1.0000   1.0000   1.0000   1.0000   1.0000   1.0000   1.0000
     1.0000   1.0000   1.0000   1.0000   1.0000   1.0000   1.0000   1.0000
     1.0000   1.0000   1.0000   1.0000   1.0000   1.0000   1.0000   1.0000
     1.0000   1.0000   1.0000   1.0000   1.0000   1.0000   1.0000   1.0000
     1.0000   1.0000   1.0000   1.0000   1.0000   1.0000   1.0000   1.0000
     1.0000   1.0000   1.0000   1.0000   1.0000   1.0000   1.0000   1.0000
     1.0000   1.0000   1.0000   1.0000   1.0000   1.0000   1.0000   1.0000
     1.0000   1.0000   1.0000   1.0000   1.0000   1.0000   1.0000   1.0000
     1.0000   1.0000   1.0000   1.0000   1.0000   1.0000   1.0000   1.0000
     1.0000   1.0000   1.0000

          k = 0.0000 0.2309 0.0000 (112171 PWs)   bands (ev):

   -73.8179 -73.8148 -73.8116 -73.8093 -73.8069 -73.8062 -73.8036 -73.8016
   -73.7970 -73.7949 -73.7920 -73.7902 -73.7883 -73.7555 -73.7507 -73.7413
   -38.2207 -38.2158 -38.2136 -38.1714 -38.1668 -38.1635 -38.1566 -38.1490
   -38.1420 -38.1047 -38.0800 -38.0778 -38.0539 -38.0502 -38.0467 -38.0338
   -38.0304 -38.0276 -38.0253 -38.0227 -38.0195 -38.0174 -38.0145 -38.0127
   -38.0056 -38.0002 -37.9984 -37.9970 -37.9951 -37.9932 -37.9897 -37.9883
   -37.9869 -37.9835 -37.9701 -37.9630 -37.9608 -37.9559 -37.9529 -37.9477
   -37.9337 -37.9240 -37.9231 -37.9126 -37.9094 -37.9021 -37.8788 -37.8697
   -21.4929 -15.4070 -14.5584 -13.9788 -13.8040 -13.7869 -13.4959 -13.4629
   -13.3262 -12.9687 -12.8086 -12.7369 -12.6991 -12.6892 -12.6566 -12.5892
   -12.5566 -12.5446 -12.4960 -12.4784 -12.4586 -12.4388 -12.4250 -12.3185
   -12.2866 -12.2648 -12.2456 -12.2157 -12.1869 -12.1760 -12.1696 -12.1541
   -12.0968 -12.0816  -7.9166  -7.5431  -6.2834  -6.2720  -6.2400  -6.2383
    -6.1607  -5.6726  -5.6493  -5.6321  -5.5616  -5.5205  -5.4913  -5.4731
    -5.4321  -5.4200  -5.3979  -5.3230  -5.3188  -5.2894  -5.2722  -5.0753
    -5.0682  -5.0200  -5.0040  -4.9582  -4.7415  -4.7362  -4.5938  -4.4873
    -4.4560  -4.3882  -4.3250  -4.2908  -4.2121  -4.1633  -4.1489  -4.1225
    -4.1018  -4.0648  -4.0456  -4.0033  -3.9871  -3.9148  -3.9117  -3.9032
    -3.6766  -3.5776  -3.5450  -3.5113  -3.4714  -3.4458  -3.4406  -3.3861
    -3.3661  -3.3176  -3.2994  -3.2825  -3.2780  -3.2114  -3.1969  -3.1515
    -3.1061  -2.9993  -2.9676  -2.9368  -2.8614  -2.7972  -2.7788  -2.7512
    -2.7268  -2.7203  -2.7016  -2.6890  -2.6610  -2.6379  -2.6126  -2.5470
    -2.5251  -2.5077  -2.4799  -2.4452  -2.3662  -2.3185  -2.2071  -2.1668
    -2.1269  -2.0899  -2.0206  -2.0064  -1.9874  -1.9711  -1.9399  -1.9132
    -1.8937  -1.8658  -1.8553  -1.8206  -1.7943  -1.7662  -1.7485  -1.7332
    -1.7215  -1.7055  -1.6908  -1.6689  -1.6530  -1.6118  -1.5881  -1.5548
    -1.5387  -1.4976  -1.4868  -1.4639  -1.4360  -1.3751  -1.3392  -1.3294
    -1.2993  -1.2838  -1.2494  -1.2280  -1.1704  -1.0746  -1.0497  -1.0286
    -0.8993  -0.7823  -0.7647  -0.7522  -0.5751  -0.5670  -0.5551  -0.5368
    -0.5238  -0.5139  -0.4152  -0.3795  -0.3680  -0.2689  -0.1727  -0.1478
     0.1756   1.2588   1.5651

     occupation numbers 
     1.0000   1.0000   1.0000   1.0000   1.0000   1.0000   1.0000   1.0000
     1.0000   1.0000   1.0000   1.0000   1.0000   1.0000   1.0000   1.0000
     1.0000   1.0000   1.0000   1.0000   1.0000   1.0000   1.0000   1.0000
     1.0000   1.0000   1.0000   1.0000   1.0000   1.0000   1.0000   1.0000
     1.0000   1.0000   1.0000   1.0000   1.0000   1.0000   1.0000   1.0000
     1.0000   1.0000   1.0000   1.0000   1.0000   1.0000   1.0000   1.0000
     1.0000   1.0000   1.0000   1.0000   1.0000   1.0000   1.0000   1.0000
     1.0000   1.0000   1.0000   1.0000   1.0000   1.0000   1.0000   1.0000
     1.0000   1.0000   1.0000   1.0000   1.0000   1.0000   1.0000   1.0000
     1.0000   1.0000   1.0000   1.0000   1.0000   1.0000   1.0000   1.0000
     1.0000   1.0000   1.0000   1.0000   1.0000   1.0000   1.0000   1.0000
     1.0000   1.0000   1.0000   1.0000   1.0000   1.0000   1.0000   1.0000
     1.0000   1.0000   1.0000   1.0000   1.0000   1.0000   1.0000   1.0000
     1.0000   1.0000   1.0000   1.0000   1.0000   1.0000   1.0000   1.0000
     1.0000   1.0000   1.0000   1.0000   1.0000   1.0000   1.0000   1.0000
     1.0000   1.0000   1.0000   1.0000   1.0000   1.0000   1.0000   1.0000
     1.0000   1.0000   1.0000   1.0000   1.0000   1.0000   1.0000   1.0000
     1.0000   1.0000   1.0000   1.0000   1.0000   1.0000   1.0000   1.0000
     1.0000   1.0000   1.0000   1.0000   1.0000   1.0000   1.0000   1.0000
     1.0000   1.0000   1.0000   1.0000   1.0000   1.0000   1.0000   1.0000
     1.0000   1.0000   1.0000   1.0000   1.0000   1.0000   1.0000   1.0000
     1.0000   1.0000   1.0000   1.0000   1.0000   1.0000   1.0000   1.0000
     1.0000   1.0000   1.0000   1.0000   1.0000   1.0000   1.0000   1.0000
     1.0000   1.0000   1.0000   1.0000   1.0000   1.0000   1.0000   1.0000
     1.0000   1.0000   1.0000   1.0000   1.0000   1.0000   1.0000   1.0000
     1.0000   1.0000   1.0000   1.0000   1.0000   1.0000   1.0000   1.0000
     1.0000   1.0000   1.0000   1.0000   1.0000   1.0000   1.0000   1.0000
     1.0000   1.0000   1.0000   1.0000   1.0000   1.0000   1.0000   1.0000
     1.0000   1.0000   1.0000   1.0000   1.0000   1.0000   1.0000   1.0000
     1.0000   1.0000   1.0000   1.0000   1.0000   1.0000   1.0000   1.0000
     1.0000   1.0000   1.0000

          k = 0.0000 0.4619 0.0000 (112236 PWs)   bands (ev):

   -73.8176 -73.8152 -73.8117 -73.8094 -73.8066 -73.8061 -73.8036 -73.8014
   -73.7972 -73.7949 -73.7918 -73.7904 -73.7882 -73.7555 -73.7507 -73.7413
   -38.2075 -38.2050 -38.1916 -38.1890 -38.1771 -38.1674 -38.1611 -38.1481
   -38.1321 -38.1273 -38.1067 -38.1022 -38.0649 -38.0596 -38.0484 -38.0396
   -38.0325 -38.0216 -38.0180 -38.0137 -38.0104 -38.0077 -38.0040 -38.0017
   -37.9998 -37.9984 -37.9979 -37.9923 -37.9895 -37.9867 -37.9834 -37.9798
   -37.9747 -37.9712 -37.9680 -37.9666 -37.9542 -37.9526 -37.9505 -37.9489
   -37.9441 -37.9374 -37.9327 -37.9171 -37.9122 -37.8963 -37.8947 -37.8726
   -21.4929 -15.4070 -14.4368 -14.2354 -13.8738 -13.8550 -13.2669 -13.2316
   -13.0220 -13.0011 -12.9718 -12.9190 -12.8345 -12.7325 -12.7062 -12.6904
   -12.5233 -12.5161 -12.4645 -12.4513 -12.4383 -12.4261 -12.3839 -12.3706
   -12.3520 -12.2856 -12.2179 -12.2032 -12.1787 -12.1604 -12.1585 -12.1541
   -12.0576 -12.0408  -7.9166  -7.5431  -6.1749  -6.1277  -6.1153  -6.0932
    -6.0289  -5.8749  -5.8626  -5.8401  -5.7163  -5.5364  -5.5018  -5.4904
    -5.4622  -5.4477  -5.4393  -5.3955  -5.3758  -5.3281  -5.3035  -5.0686
    -5.0653  -5.0325  -5.0110  -4.8129  -4.6344  -4.5314  -4.4889  -4.4424
    -4.3963  -4.3774  -4.3513  -4.3156  -4.2471  -4.2340  -4.1936  -4.1626
    -4.1316  -4.1209  -4.1050  -4.0788  -4.0673  -4.0540  -4.0445  -3.6998
    -3.5775  -3.5132  -3.4844  -3.4459  -3.4230  -3.3944  -3.3725  -3.3128
    -3.2989  -3.2843  -3.2650  -3.2424  -3.2232  -3.1909  -3.1661  -3.1098
    -3.0691  -3.0632  -3.0123  -2.9742  -2.9557  -2.9180  -2.8667  -2.7792
    -2.7550  -2.7110  -2.6708  -2.6417  -2.6137  -2.5752  -2.5426  -2.4993
    -2.4540  -2.4348  -2.4001  -2.3217  -2.2821  -2.2574  -2.2443  -2.1891
    -2.1299  -2.1005  -2.0486  -2.0224  -2.0128  -2.0026  -1.9855  -1.9568
    -1.9351  -1.9112  -1.8826  -1.8760  -1.8583  -1.8459  -1.8415  -1.8297
    -1.7768  -1.7654  -1.7249  -1.7194  -1.6964  -1.6716  -1.6360  -1.6229
    -1.5963  -1.5571  -1.5360  -1.5068  -1.4371  -1.3927  -1.3041  -1.2919
    -1.2386  -1.2058  -1.1938  -1.1529  -1.1226  -1.1004  -1.0514  -1.0103
    -0.9799  -0.8969  -0.7360  -0.7248  -0.6434  -0.6272  -0.4974  -0.4596
    -0.4460  -0.4357  -0.4003  -0.3828  -0.3159  -0.0966  -0.0003   0.0228
     0.1259   1.2686   1.6176

     occupation numbers 
     1.0000   1.0000   1.0000   1.0000   1.0000   1.0000   1.0000   1.0000
     1.0000   1.0000   1.0000   1.0000   1.0000   1.0000   1.0000   1.0000
     1.0000   1.0000   1.0000   1.0000   1.0000   1.0000   1.0000   1.0000
     1.0000   1.0000   1.0000   1.0000   1.0000   1.0000   1.0000   1.0000
     1.0000   1.0000   1.0000   1.0000   1.0000   1.0000   1.0000   1.0000
     1.0000   1.0000   1.0000   1.0000   1.0000   1.0000   1.0000   1.0000
     1.0000   1.0000   1.0000   1.0000   1.0000   1.0000   1.0000   1.0000
     1.0000   1.0000   1.0000   1.0000   1.0000   1.0000   1.0000   1.0000
     1.0000   1.0000   1.0000   1.0000   1.0000   1.0000   1.0000   1.0000
     1.0000   1.0000   1.0000   1.0000   1.0000   1.0000   1.0000   1.0000
     1.0000   1.0000   1.0000   1.0000   1.0000   1.0000   1.0000   1.0000
     1.0000   1.0000   1.0000   1.0000   1.0000   1.0000   1.0000   1.0000
     1.0000   1.0000   1.0000   1.0000   1.0000   1.0000   1.0000   1.0000
     1.0000   1.0000   1.0000   1.0000   1.0000   1.0000   1.0000   1.0000
     1.0000   1.0000   1.0000   1.0000   1.0000   1.0000   1.0000   1.0000
     1.0000   1.0000   1.0000   1.0000   1.0000   1.0000   1.0000   1.0000
     1.0000   1.0000   1.0000   1.0000   1.0000   1.0000   1.0000   1.0000
     1.0000   1.0000   1.0000   1.0000   1.0000   1.0000   1.0000   1.0000
     1.0000   1.0000   1.0000   1.0000   1.0000   1.0000   1.0000   1.0000
     1.0000   1.0000   1.0000   1.0000   1.0000   1.0000   1.0000   1.0000
     1.0000   1.0000   1.0000   1.0000   1.0000   1.0000   1.0000   1.0000
     1.0000   1.0000   1.0000   1.0000   1.0000   1.0000   1.0000   1.0000
     1.0000   1.0000   1.0000   1.0000   1.0000   1.0000   1.0000   1.0000
     1.0000   1.0000   1.0000   1.0000   1.0000   1.0000   1.0000   1.0000
     1.0000   1.0000   1.0000   1.0000   1.0000   1.0000   1.0000   1.0000
     1.0000   1.0000   1.0000   1.0000   1.0000   1.0000   1.0000   1.0000
     1.0000   1.0000   1.0000   1.0000   1.0000   1.0000   1.0000   1.0000
     1.0000   1.0000   1.0000   1.0000   1.0000   1.0000   1.0000   1.0000
     1.0000   1.0000   1.0000   1.0000   1.0000   1.0000   1.0000   1.0000
     1.0000   1.0000   1.0000   1.0000   1.0000   1.0000   1.0000   1.0000
     1.0000   1.0000   1.0000

          k = 0.2000 0.3464 0.0000 (112231 PWs)   bands (ev):

   -73.8176 -73.8153 -73.8116 -73.8093 -73.8068 -73.8060 -73.8037 -73.8016
   -73.7969 -73.7951 -73.7918 -73.7904 -73.7882 -73.7555 -73.7507 -73.7413
   -38.2130 -38.2043 -38.2010 -38.1802 -38.1772 -38.1654 -38.1567 -38.1492
   -38.1333 -38.1248 -38.1175 -38.0786 -38.0607 -38.0570 -38.0486 -38.0383
   -38.0332 -38.0301 -38.0263 -38.0207 -38.0170 -38.0105 -38.0041 -38.0012
   -37.9965 -37.9937 -37.9920 -37.9902 -37.9879 -37.9852 -37.9837 -37.9824
   -37.9773 -37.9737 -37.9702 -37.9669 -37.9601 -37.9561 -37.9530 -37.9484
   -37.9422 -37.9330 -37.9272 -37.9222 -37.9061 -37.9010 -37.8877 -37.8732
   -21.4929 -15.4070 -14.4767 -14.1051 -14.0603 -13.5685 -13.5657 -13.1763
   -13.1199 -13.0110 -12.9369 -12.8115 -12.7912 -12.7120 -12.6729 -12.6070
   -12.5965 -12.5779 -12.5730 -12.4591 -12.4261 -12.3926 -12.3783 -12.3147
   -12.2915 -12.2744 -12.2535 -12.2337 -12.2219 -12.1562 -12.1517 -12.1092
   -12.0965 -12.0370  -7.9166  -7.5431  -6.1864  -6.1757  -6.1467  -6.1290
    -6.1067  -5.7679  -5.7389  -5.7226  -5.6829  -5.6458  -5.6034  -5.5681
    -5.5068  -5.4752  -5.3571  -5.3361  -5.2858  -5.2775  -5.2449  -5.2303
    -5.0969  -4.9070  -4.8915  -4.8175  -4.7526  -4.6082  -4.4932  -4.4722
    -4.3998  -4.3687  -4.3395  -4.3061  -4.2776  -4.2647  -4.2364  -4.2283
    -4.1746  -4.1243  -4.1090  -4.0936  -4.0570  -3.7680  -3.7381  -3.7282
    -3.7203  -3.6955  -3.6150  -3.4997  -3.4329  -3.4030  -3.3538  -3.3244
    -3.3004  -3.2478  -3.2280  -3.2086  -3.1710  -3.1522  -3.1099  -3.0931
    -3.0433  -3.0172  -2.9922  -2.9534  -2.9457  -2.9279  -2.9177  -2.9022
    -2.8207  -2.7458  -2.7246  -2.6557  -2.6377  -2.5647  -2.5241  -2.4814
    -2.4680  -2.4409  -2.3890  -2.3644  -2.3176  -2.2228  -2.1867  -2.1667
    -2.1333  -2.1266  -2.0982  -2.0900  -2.0202  -2.0009  -1.9833  -1.9535
    -1.9304  -1.9082  -1.8852  -1.8591  -1.8396  -1.8302  -1.8017  -1.7498
    -1.7362  -1.7210  -1.7103  -1.6805  -1.6735  -1.6246  -1.5974  -1.5769
    -1.5682  -1.5434  -1.5394  -1.5103  -1.4301  -1.3949  -1.3827  -1.3675
    -1.2933  -1.2279  -1.2098  -1.1873  -1.1585  -1.1204  -1.0356  -1.0179
    -0.8765  -0.8499  -0.6832  -0.6739  -0.6404  -0.6331  -0.6175  -0.5433
    -0.5345  -0.4406  -0.3776  -0.2572  -0.2128  -0.2015  -0.1609   0.0699
     0.1387   1.2814   1.5899

     occupation numbers 
     1.0000   1.0000   1.0000   1.0000   1.0000   1.0000   1.0000   1.0000
     1.0000   1.0000   1.0000   1.0000   1.0000   1.0000   1.0000   1.0000
     1.0000   1.0000   1.0000   1.0000   1.0000   1.0000   1.0000   1.0000
     1.0000   1.0000   1.0000   1.0000   1.0000   1.0000   1.0000   1.0000
     1.0000   1.0000   1.0000   1.0000   1.0000   1.0000   1.0000   1.0000
     1.0000   1.0000   1.0000   1.0000   1.0000   1.0000   1.0000   1.0000
     1.0000   1.0000   1.0000   1.0000   1.0000   1.0000   1.0000   1.0000
     1.0000   1.0000   1.0000   1.0000   1.0000   1.0000   1.0000   1.0000
     1.0000   1.0000   1.0000   1.0000   1.0000   1.0000   1.0000   1.0000
     1.0000   1.0000   1.0000   1.0000   1.0000   1.0000   1.0000   1.0000
     1.0000   1.0000   1.0000   1.0000   1.0000   1.0000   1.0000   1.0000
     1.0000   1.0000   1.0000   1.0000   1.0000   1.0000   1.0000   1.0000
     1.0000   1.0000   1.0000   1.0000   1.0000   1.0000   1.0000   1.0000
     1.0000   1.0000   1.0000   1.0000   1.0000   1.0000   1.0000   1.0000
     1.0000   1.0000   1.0000   1.0000   1.0000   1.0000   1.0000   1.0000
     1.0000   1.0000   1.0000   1.0000   1.0000   1.0000   1.0000   1.0000
     1.0000   1.0000   1.0000   1.0000   1.0000   1.0000   1.0000   1.0000
     1.0000   1.0000   1.0000   1.0000   1.0000   1.0000   1.0000   1.0000
     1.0000   1.0000   1.0000   1.0000   1.0000   1.0000   1.0000   1.0000
     1.0000   1.0000   1.0000   1.0000   1.0000   1.0000   1.0000   1.0000
     1.0000   1.0000   1.0000   1.0000   1.0000   1.0000   1.0000   1.0000
     1.0000   1.0000   1.0000   1.0000   1.0000   1.0000   1.0000   1.0000
     1.0000   1.0000   1.0000   1.0000   1.0000   1.0000   1.0000   1.0000
     1.0000   1.0000   1.0000   1.0000   1.0000   1.0000   1.0000   1.0000
     1.0000   1.0000   1.0000   1.0000   1.0000   1.0000   1.0000   1.0000
     1.0000   1.0000   1.0000   1.0000   1.0000   1.0000   1.0000   1.0000
     1.0000   1.0000   1.0000   1.0000   1.0000   1.0000   1.0000   1.0000
     1.0000   1.0000   1.0000   1.0000   1.0000   1.0000   1.0000   1.0000
     1.0000   1.0000   1.0000   1.0000   1.0000   1.0000   1.0000   1.0000
     1.0000   1.0000   1.0000   1.0000   1.0000   1.0000   1.0000   1.0000
     1.0000   1.0000   1.0000

          k = 0.2000 0.5774 0.0000 (112237 PWs)   bands (ev):

   -73.8175 -73.8153 -73.8117 -73.8095 -73.8066 -73.8058 -73.8037 -73.8015
   -73.7971 -73.7950 -73.7918 -73.7904 -73.7882 -73.7555 -73.7507 -73.7413
   -38.2019 -38.1980 -38.1878 -38.1845 -38.1777 -38.1723 -38.1664 -38.1516
   -38.1483 -38.1339 -38.0937 -38.0922 -38.0881 -38.0520 -38.0465 -38.0410
   -38.0349 -38.0316 -38.0186 -38.0182 -38.0085 -38.0060 -38.0037 -38.0020
   -38.0009 -37.9982 -37.9932 -37.9895 -37.9868 -37.9832 -37.9761 -37.9717
   -37.9703 -37.9677 -37.9628 -37.9601 -37.9573 -37.9541 -37.9515 -37.9472
   -37.9436 -37.9388 -37.9330 -37.9301 -37.9186 -37.8985 -37.8895 -37.8763
   -21.4929 -15.4070 -14.3377 -14.2942 -14.1159 -13.5969 -13.3032 -13.2949
   -12.9556 -12.9500 -12.8899 -12.8548 -12.8432 -12.8034 -12.7941 -12.6596
   -12.6322 -12.6044 -12.4935 -12.4856 -12.3854 -12.3737 -12.3602 -12.3247
   -12.3108 -12.2982 -12.2600 -12.2346 -12.2335 -12.1319 -12.1218 -12.1195
   -12.0799 -12.0175  -7.9166  -7.5431  -6.1702  -6.0593  -6.0108  -5.9877
    -5.9228  -5.8976  -5.8774  -5.8513  -5.8106  -5.7449  -5.6885  -5.6256
    -5.6144  -5.5423  -5.3650  -5.2681  -5.2565  -5.2208  -5.2056  -5.1723
    -5.1563  -4.8577  -4.8334  -4.7551  -4.6354  -4.5800  -4.5495  -4.5229
    -4.4761  -4.4199  -4.4003  -4.3207  -4.3134  -4.2406  -4.2341  -4.2141
    -4.1903  -4.1665  -4.1237  -4.0967  -3.9550  -3.9514  -3.7942  -3.6647
    -3.6531  -3.5687  -3.4434  -3.3946  -3.3632  -3.3307  -3.3107  -3.2876
    -3.2742  -3.2631  -3.2461  -3.2358  -3.2172  -3.2025  -3.1450  -3.1266
    -3.1034  -3.0819  -3.0635  -3.0368  -3.0093  -2.9606  -2.8804  -2.8327
    -2.7550  -2.7294  -2.6996  -2.6739  -2.6346  -2.5585  -2.5209  -2.4592
    -2.4001  -2.3351  -2.3216  -2.3099  -2.2561  -2.2080  -2.1811  -2.1367
    -2.1222  -2.1116  -2.0812  -2.0631  -2.0192  -1.9886  -1.9685  -1.9574
    -1.9401  -1.9198  -1.8989  -1.8822  -1.8713  -1.8577  -1.8450  -1.8368
    -1.8251  -1.7840  -1.7625  -1.7371  -1.7085  -1.6867  -1.6821  -1.6527
    -1.6198  -1.5743  -1.5630  -1.5097  -1.4801  -1.4679  -1.4160  -1.3355
    -1.2862  -1.1971  -1.1622  -1.1457  -1.0989  -1.0825  -1.0095  -0.9995
    -0.8152  -0.8007  -0.7035  -0.6927  -0.6615  -0.6470  -0.5942  -0.5846
    -0.5677  -0.4168  -0.2804  -0.2717  -0.1904  -0.1266  -0.0682   0.0886
     0.1868   1.2905   1.6061

     occupation numbers 
     1.0000   1.0000   1.0000   1.0000   1.0000   1.0000   1.0000   1.0000
     1.0000   1.0000   1.0000   1.0000   1.0000   1.0000   1.0000   1.0000
     1.0000   1.0000   1.0000   1.0000   1.0000   1.0000   1.0000   1.0000
     1.0000   1.0000   1.0000   1.0000   1.0000   1.0000   1.0000   1.0000
     1.0000   1.0000   1.0000   1.0000   1.0000   1.0000   1.0000   1.0000
     1.0000   1.0000   1.0000   1.0000   1.0000   1.0000   1.0000   1.0000
     1.0000   1.0000   1.0000   1.0000   1.0000   1.0000   1.0000   1.0000
     1.0000   1.0000   1.0000   1.0000   1.0000   1.0000   1.0000   1.0000
     1.0000   1.0000   1.0000   1.0000   1.0000   1.0000   1.0000   1.0000
     1.0000   1.0000   1.0000   1.0000   1.0000   1.0000   1.0000   1.0000
     1.0000   1.0000   1.0000   1.0000   1.0000   1.0000   1.0000   1.0000
     1.0000   1.0000   1.0000   1.0000   1.0000   1.0000   1.0000   1.0000
     1.0000   1.0000   1.0000   1.0000   1.0000   1.0000   1.0000   1.0000
     1.0000   1.0000   1.0000   1.0000   1.0000   1.0000   1.0000   1.0000
     1.0000   1.0000   1.0000   1.0000   1.0000   1.0000   1.0000   1.0000
     1.0000   1.0000   1.0000   1.0000   1.0000   1.0000   1.0000   1.0000
     1.0000   1.0000   1.0000   1.0000   1.0000   1.0000   1.0000   1.0000
     1.0000   1.0000   1.0000   1.0000   1.0000   1.0000   1.0000   1.0000
     1.0000   1.0000   1.0000   1.0000   1.0000   1.0000   1.0000   1.0000
     1.0000   1.0000   1.0000   1.0000   1.0000   1.0000   1.0000   1.0000
     1.0000   1.0000   1.0000   1.0000   1.0000   1.0000   1.0000   1.0000
     1.0000   1.0000   1.0000   1.0000   1.0000   1.0000   1.0000   1.0000
     1.0000   1.0000   1.0000   1.0000   1.0000   1.0000   1.0000   1.0000
     1.0000   1.0000   1.0000   1.0000   1.0000   1.0000   1.0000   1.0000
     1.0000   1.0000   1.0000   1.0000   1.0000   1.0000   1.0000   1.0000
     1.0000   1.0000   1.0000   1.0000   1.0000   1.0000   1.0000   1.0000
     1.0000   1.0000   1.0000   1.0000   1.0000   1.0000   1.0000   1.0000
     1.0000   1.0000   1.0000   1.0000   1.0000   1.0000   1.0000   1.0000
     1.0000   1.0000   1.0000   1.0000   1.0000   1.0000   1.0000   1.0000
     1.0000   1.0000   1.0000   1.0000   1.0000   1.0000   1.0000   1.0000
     1.0000   1.0000   1.0000

          k =-0.2000 0.1155 0.0000 (112171 PWs)   bands (ev):

   -73.8179 -73.8147 -73.8116 -73.8095 -73.8069 -73.8059 -73.8037 -73.8016
   -73.7968 -73.7950 -73.7921 -73.7901 -73.7883 -73.7555 -73.7507 -73.7413
   -38.2208 -38.2160 -38.2132 -38.1700 -38.1662 -38.1650 -38.1600 -38.1474
   -38.1409 -38.1041 -38.0813 -38.0772 -38.0523 -38.0497 -38.0457 -38.0354
   -38.0293 -38.0288 -38.0262 -38.0250 -38.0178 -38.0170 -38.0148 -38.0134
   -38.0052 -38.0018 -37.9987 -37.9973 -37.9945 -37.9929 -37.9893 -37.9875
   -37.9867 -37.9834 -37.9701 -37.9634 -37.9609 -37.9553 -37.9529 -37.9477
   -37.9339 -37.9258 -37.9219 -37.9117 -37.9096 -37.9015 -37.8759 -37.8728
   -21.4929 -15.4070 -14.5585 -13.9776 -13.8041 -13.7896 -13.4808 -13.4761
   -13.3268 -12.9691 -12.7937 -12.7609 -12.6935 -12.6837 -12.6589 -12.5889
   -12.5666 -12.5232 -12.4993 -12.4804 -12.4715 -12.4340 -12.4233 -12.3096
   -12.2962 -12.2631 -12.2457 -12.2149 -12.1882 -12.1772 -12.1692 -12.1520
   -12.0965 -12.0824  -7.9166  -7.5431  -6.2875  -6.2667  -6.2462  -6.2334
    -6.1608  -5.6809  -5.6416  -5.6272  -5.5514  -5.5337  -5.4945  -5.4709
    -5.4408  -5.4221  -5.3860  -5.3301  -5.3127  -5.2844  -5.2785  -5.0840
    -5.0648  -5.0178  -5.0016  -4.9535  -4.7423  -4.7373  -4.5756  -4.5174
    -4.4525  -4.3745  -4.3424  -4.2825  -4.2103  -4.1642  -4.1496  -4.1247
    -4.1019  -4.0683  -4.0423  -3.9983  -3.9859  -3.9173  -3.9076  -3.8989
    -3.6716  -3.5924  -3.5384  -3.5054  -3.4807  -3.4630  -3.4471  -3.3774
    -3.3682  -3.3213  -3.2976  -3.2813  -3.2673  -3.2084  -3.1969  -3.1569
    -3.1054  -2.9886  -2.9673  -2.9326  -2.8364  -2.8053  -2.7790  -2.7524
    -2.7336  -2.7170  -2.7008  -2.6927  -2.6787  -2.6552  -2.6087  -2.5494
    -2.5228  -2.4868  -2.4723  -2.4490  -2.3726  -2.3156  -2.2001  -2.1780
    -2.1366  -2.0916  -2.0242  -2.0080  -1.9821  -1.9687  -1.9473  -1.9101
    -1.8878  -1.8688  -1.8441  -1.8238  -1.8078  -1.7759  -1.7426  -1.7273
    -1.7127  -1.7003  -1.6877  -1.6694  -1.6560  -1.6112  -1.5789  -1.5581
    -1.5313  -1.5079  -1.4978  -1.4380  -1.4288  -1.3756  -1.3540  -1.3321
    -1.3161  -1.2785  -1.2587  -1.2260  -1.1679  -1.0834  -1.0479  -1.0173
    -0.9024  -0.7783  -0.7612  -0.7429  -0.5880  -0.5713  -0.5548  -0.5356
    -0.5209  -0.5126  -0.4173  -0.3853  -0.3612  -0.2669  -0.1745  -0.1476
     0.1743   1.2806   1.5412

     occupation numbers 
     1.0000   1.0000   1.0000   1.0000   1.0000   1.0000   1.0000   1.0000
     1.0000   1.0000   1.0000   1.0000   1.0000   1.0000   1.0000   1.0000
     1.0000   1.0000   1.0000   1.0000   1.0000   1.0000   1.0000   1.0000
     1.0000   1.0000   1.0000   1.0000   1.0000   1.0000   1.0000   1.0000
     1.0000   1.0000   1.0000   1.0000   1.0000   1.0000   1.0000   1.0000
     1.0000   1.0000   1.0000   1.0000   1.0000   1.0000   1.0000   1.0000
     1.0000   1.0000   1.0000   1.0000   1.0000   1.0000   1.0000   1.0000
     1.0000   1.0000   1.0000   1.0000   1.0000   1.0000   1.0000   1.0000
     1.0000   1.0000   1.0000   1.0000   1.0000   1.0000   1.0000   1.0000
     1.0000   1.0000   1.0000   1.0000   1.0000   1.0000   1.0000   1.0000
     1.0000   1.0000   1.0000   1.0000   1.0000   1.0000   1.0000   1.0000
     1.0000   1.0000   1.0000   1.0000   1.0000   1.0000   1.0000   1.0000
     1.0000   1.0000   1.0000   1.0000   1.0000   1.0000   1.0000   1.0000
     1.0000   1.0000   1.0000   1.0000   1.0000   1.0000   1.0000   1.0000
     1.0000   1.0000   1.0000   1.0000   1.0000   1.0000   1.0000   1.0000
     1.0000   1.0000   1.0000   1.0000   1.0000   1.0000   1.0000   1.0000
     1.0000   1.0000   1.0000   1.0000   1.0000   1.0000   1.0000   1.0000
     1.0000   1.0000   1.0000   1.0000   1.0000   1.0000   1.0000   1.0000
     1.0000   1.0000   1.0000   1.0000   1.0000   1.0000   1.0000   1.0000
     1.0000   1.0000   1.0000   1.0000   1.0000   1.0000   1.0000   1.0000
     1.0000   1.0000   1.0000   1.0000   1.0000   1.0000   1.0000   1.0000
     1.0000   1.0000   1.0000   1.0000   1.0000   1.0000   1.0000   1.0000
     1.0000   1.0000   1.0000   1.0000   1.0000   1.0000   1.0000   1.0000
     1.0000   1.0000   1.0000   1.0000   1.0000   1.0000   1.0000   1.0000
     1.0000   1.0000   1.0000   1.0000   1.0000   1.0000   1.0000   1.0000
     1.0000   1.0000   1.0000   1.0000   1.0000   1.0000   1.0000   1.0000
     1.0000   1.0000   1.0000   1.0000   1.0000   1.0000   1.0000   1.0000
     1.0000   1.0000   1.0000   1.0000   1.0000   1.0000   1.0000   1.0000
     1.0000   1.0000   1.0000   1.0000   1.0000   1.0000   1.0000   1.0000
     1.0000   1.0000   1.0000   1.0000   1.0000   1.0000   1.0000   1.0000
     1.0000   1.0000   1.0000

          k = 0.2000 0.1155 0.0000 (112171 PWs)   bands (ev):

   -73.8179 -73.8149 -73.8116 -73.8092 -73.8070 -73.8060 -73.8037 -73.8016
   -73.7967 -73.7951 -73.7920 -73.7902 -73.7883 -73.7555 -73.7507 -73.7413
   -38.2205 -38.2166 -38.2129 -38.1707 -38.1671 -38.1639 -38.1589 -38.1476
   -38.1410 -38.1043 -38.0811 -38.0775 -38.0525 -38.0500 -38.0463 -38.0355
   -38.0294 -38.0274 -38.0264 -38.0245 -38.0181 -38.0161 -38.0153 -38.0136
   -38.0055 -38.0009 -37.9988 -37.9973 -37.9947 -37.9925 -37.9905 -37.9875
   -37.9865 -37.9833 -37.9700 -37.9627 -37.9616 -37.9555 -37.9528 -37.9477
   -37.9339 -37.9251 -37.9214 -37.9137 -37.9089 -37.9017 -37.8775 -37.8711
   -21.4929 -15.4070 -14.5585 -13.9778 -13.8031 -13.7902 -13.4799 -13.4777
   -13.3260 -12.9691 -12.7938 -12.7602 -12.6931 -12.6849 -12.6593 -12.5889
   -12.5679 -12.5216 -12.4971 -12.4823 -12.4710 -12.4363 -12.4226 -12.3050
   -12.2959 -12.2662 -12.2488 -12.2101 -12.1938 -12.1741 -12.1723 -12.1495
   -12.0936 -12.0848  -7.9166  -7.5431  -6.2820  -6.2684  -6.2490  -6.2349
    -6.1607  -5.6747  -5.6451  -5.6248  -5.5525  -5.5381  -5.4916  -5.4736
    -5.4465  -5.4259  -5.3730  -5.3296  -5.3161  -5.2850  -5.2774  -5.0797
    -5.0726  -5.0156  -5.0053  -4.9480  -4.7432  -4.7380  -4.5713  -4.5134
    -4.4498  -4.3963  -4.3414  -4.2761  -4.2095  -4.1647  -4.1516  -4.1250
    -4.1015  -4.0584  -4.0423  -4.0054  -3.9842  -3.9148  -3.9118  -3.9013
    -3.6640  -3.5727  -3.5536  -3.5125  -3.4707  -3.4596  -3.4433  -3.3861
    -3.3742  -3.3137  -3.3038  -3.2848  -3.2616  -3.2154  -3.1989  -3.1495
    -3.1117  -3.0045  -2.9624  -2.9149  -2.8328  -2.8111  -2.7862  -2.7549
    -2.7405  -2.7149  -2.7011  -2.6948  -2.6703  -2.6409  -2.6017  -2.5525
    -2.5362  -2.5031  -2.4774  -2.4330  -2.3694  -2.3090  -2.2053  -2.1836
    -2.1256  -2.0936  -2.0217  -2.0028  -1.9751  -1.9713  -1.9332  -1.9111
    -1.9031  -1.8803  -1.8409  -1.8272  -1.8102  -1.7840  -1.7445  -1.7351
    -1.7110  -1.6951  -1.6831  -1.6606  -1.6425  -1.6289  -1.5929  -1.5472
    -1.5351  -1.5073  -1.4621  -1.4477  -1.4272  -1.4070  -1.3589  -1.3137
    -1.3077  -1.2993  -1.2535  -1.2131  -1.1727  -1.0671  -1.0479  -1.0306
    -0.9014  -0.7685  -0.7600  -0.7573  -0.5996  -0.5643  -0.5503  -0.5350
    -0.5233  -0.5175  -0.4126  -0.3861  -0.3575  -0.2676  -0.1707  -0.1515
     0.1750   1.2752   1.5477

     occupation numbers 
     1.0000   1.0000   1.0000   1.0000   1.0000   1.0000   1.0000   1.0000
     1.0000   1.0000   1.0000   1.0000   1.0000   1.0000   1.0000   1.0000
     1.0000   1.0000   1.0000   1.0000   1.0000   1.0000   1.0000   1.0000
     1.0000   1.0000   1.0000   1.0000   1.0000   1.0000   1.0000   1.0000
     1.0000   1.0000   1.0000   1.0000   1.0000   1.0000   1.0000   1.0000
     1.0000   1.0000   1.0000   1.0000   1.0000   1.0000   1.0000   1.0000
     1.0000   1.0000   1.0000   1.0000   1.0000   1.0000   1.0000   1.0000
     1.0000   1.0000   1.0000   1.0000   1.0000   1.0000   1.0000   1.0000
     1.0000   1.0000   1.0000   1.0000   1.0000   1.0000   1.0000   1.0000
     1.0000   1.0000   1.0000   1.0000   1.0000   1.0000   1.0000   1.0000
     1.0000   1.0000   1.0000   1.0000   1.0000   1.0000   1.0000   1.0000
     1.0000   1.0000   1.0000   1.0000   1.0000   1.0000   1.0000   1.0000
     1.0000   1.0000   1.0000   1.0000   1.0000   1.0000   1.0000   1.0000
     1.0000   1.0000   1.0000   1.0000   1.0000   1.0000   1.0000   1.0000
     1.0000   1.0000   1.0000   1.0000   1.0000   1.0000   1.0000   1.0000
     1.0000   1.0000   1.0000   1.0000   1.0000   1.0000   1.0000   1.0000
     1.0000   1.0000   1.0000   1.0000   1.0000   1.0000   1.0000   1.0000
     1.0000   1.0000   1.0000   1.0000   1.0000   1.0000   1.0000   1.0000
     1.0000   1.0000   1.0000   1.0000   1.0000   1.0000   1.0000   1.0000
     1.0000   1.0000   1.0000   1.0000   1.0000   1.0000   1.0000   1.0000
     1.0000   1.0000   1.0000   1.0000   1.0000   1.0000   1.0000   1.0000
     1.0000   1.0000   1.0000   1.0000   1.0000   1.0000   1.0000   1.0000
     1.0000   1.0000   1.0000   1.0000   1.0000   1.0000   1.0000   1.0000
     1.0000   1.0000   1.0000   1.0000   1.0000   1.0000   1.0000   1.0000
     1.0000   1.0000   1.0000   1.0000   1.0000   1.0000   1.0000   1.0000
     1.0000   1.0000   1.0000   1.0000   1.0000   1.0000   1.0000   1.0000
     1.0000   1.0000   1.0000   1.0000   1.0000   1.0000   1.0000   1.0000
     1.0000   1.0000   1.0000   1.0000   1.0000   1.0000   1.0000   1.0000
     1.0000   1.0000   1.0000   1.0000   1.0000   1.0000   1.0000   1.0000
     1.0000   1.0000   1.0000   1.0000   1.0000   1.0000   1.0000   1.0000
     1.0000   1.0000   1.0000

          k =-0.4000 0.2309 0.0000 (112236 PWs)   bands (ev):

   -73.8177 -73.8150 -73.8117 -73.8099 -73.8067 -73.8053 -73.8039 -73.8015
   -73.7968 -73.7951 -73.7921 -73.7901 -73.7883 -73.7555 -73.7507 -73.7413
   -38.2088 -38.2030 -38.1915 -38.1852 -38.1842 -38.1654 -38.1623 -38.1482
   -38.1315 -38.1251 -38.1070 -38.1021 -38.0642 -38.0591 -38.0482 -38.0410
   -38.0303 -38.0258 -38.0156 -38.0133 -38.0106 -38.0093 -38.0053 -38.0008
   -37.9997 -37.9985 -37.9964 -37.9938 -37.9887 -37.9870 -37.9834 -37.9805
   -37.9763 -37.9706 -37.9672 -37.9664 -37.9544 -37.9525 -37.9506 -37.9479
   -37.9457 -37.9394 -37.9309 -37.9182 -37.9102 -37.8933 -37.8917 -37.8773
   -21.4929 -15.4070 -14.4373 -14.2342 -13.8711 -13.8593 -13.2510 -13.2453
   -13.0265 -12.9991 -12.9767 -12.9123 -12.8339 -12.7346 -12.7052 -12.6864
   -12.5380 -12.5108 -12.4631 -12.4543 -12.4319 -12.4246 -12.3878 -12.3648
   -12.3543 -12.2834 -12.2235 -12.2016 -12.1772 -12.1628 -12.1561 -12.1535
   -12.0576 -12.0414  -7.9166  -7.5431  -6.1746  -6.1341  -6.1154  -6.0908
    -6.0244  -5.8782  -5.8579  -5.8412  -5.7132  -5.5360  -5.5129  -5.4917
    -5.4560  -5.4483  -5.4391  -5.3907  -5.3813  -5.3189  -5.3115  -5.0840
    -5.0597  -5.0254  -5.0072  -4.8065  -4.6112  -4.5587  -4.4840  -4.4439
    -4.4156  -4.3752  -4.3541  -4.3131  -4.2482  -4.2243  -4.1974  -4.1635
    -4.1240  -4.1158  -4.1035  -4.0766  -4.0704  -4.0558  -4.0446  -3.6937
    -3.5737  -3.5265  -3.4806  -3.4614  -3.4279  -3.4009  -3.3607  -3.3208
    -3.3038  -3.2828  -3.2624  -3.2442  -3.2172  -3.2014  -3.1527  -3.1179
    -3.0752  -3.0503  -3.0167  -2.9751  -2.9406  -2.9087  -2.8431  -2.7836
    -2.7461  -2.7173  -2.6692  -2.6356  -2.6176  -2.5903  -2.5590  -2.5018
    -2.4352  -2.4291  -2.4028  -2.3394  -2.2878  -2.2565  -2.2474  -2.1796
    -2.1296  -2.1203  -2.0627  -2.0343  -2.0206  -1.9969  -1.9672  -1.9391
    -1.9203  -1.9033  -1.8927  -1.8724  -1.8674  -1.8545  -1.8410  -1.8267
    -1.7911  -1.7611  -1.7139  -1.6999  -1.6975  -1.6745  -1.6554  -1.6173
    -1.5951  -1.5664  -1.5076  -1.4809  -1.4546  -1.3623  -1.3351  -1.3044
    -1.2684  -1.2240  -1.1761  -1.1313  -1.1239  -1.1057  -1.0799  -0.9916
    -0.9731  -0.8819  -0.7381  -0.7225  -0.6435  -0.6262  -0.5126  -0.4583
    -0.4524  -0.4272  -0.4063  -0.3796  -0.3065  -0.1036  -0.0015   0.0289
     0.1204   1.3267   1.5530

     occupation numbers 
     1.0000   1.0000   1.0000   1.0000   1.0000   1.0000   1.0000   1.0000
     1.0000   1.0000   1.0000   1.0000   1.0000   1.0000   1.0000   1.0000
     1.0000   1.0000   1.0000   1.0000   1.0000   1.0000   1.0000   1.0000
     1.0000   1.0000   1.0000   1.0000   1.0000   1.0000   1.0000   1.0000
     1.0000   1.0000   1.0000   1.0000   1.0000   1.0000   1.0000   1.0000
     1.0000   1.0000   1.0000   1.0000   1.0000   1.0000   1.0000   1.0000
     1.0000   1.0000   1.0000   1.0000   1.0000   1.0000   1.0000   1.0000
     1.0000   1.0000   1.0000   1.0000   1.0000   1.0000   1.0000   1.0000
     1.0000   1.0000   1.0000   1.0000   1.0000   1.0000   1.0000   1.0000
     1.0000   1.0000   1.0000   1.0000   1.0000   1.0000   1.0000   1.0000
     1.0000   1.0000   1.0000   1.0000   1.0000   1.0000   1.0000   1.0000
     1.0000   1.0000   1.0000   1.0000   1.0000   1.0000   1.0000   1.0000
     1.0000   1.0000   1.0000   1.0000   1.0000   1.0000   1.0000   1.0000
     1.0000   1.0000   1.0000   1.0000   1.0000   1.0000   1.0000   1.0000
     1.0000   1.0000   1.0000   1.0000   1.0000   1.0000   1.0000   1.0000
     1.0000   1.0000   1.0000   1.0000   1.0000   1.0000   1.0000   1.0000
     1.0000   1.0000   1.0000   1.0000   1.0000   1.0000   1.0000   1.0000
     1.0000   1.0000   1.0000   1.0000   1.0000   1.0000   1.0000   1.0000
     1.0000   1.0000   1.0000   1.0000   1.0000   1.0000   1.0000   1.0000
     1.0000   1.0000   1.0000   1.0000   1.0000   1.0000   1.0000   1.0000
     1.0000   1.0000   1.0000   1.0000   1.0000   1.0000   1.0000   1.0000
     1.0000   1.0000   1.0000   1.0000   1.0000   1.0000   1.0000   1.0000
     1.0000   1.0000   1.0000   1.0000   1.0000   1.0000   1.0000   1.0000
     1.0000   1.0000   1.0000   1.0000   1.0000   1.0000   1.0000   1.0000
     1.0000   1.0000   1.0000   1.0000   1.0000   1.0000   1.0000   1.0000
     1.0000   1.0000   1.0000   1.0000   1.0000   1.0000   1.0000   1.0000
     1.0000   1.0000   1.0000   1.0000   1.0000   1.0000   1.0000   1.0000
     1.0000   1.0000   1.0000   1.0000   1.0000   1.0000   1.0000   1.0000
     1.0000   1.0000   1.0000   1.0000   1.0000   1.0000   1.0000   1.0000
     1.0000   1.0000   1.0000   1.0000   1.0000   1.0000   1.0000   1.0000
     1.0000   1.0000   1.0000

          k = 0.4000 0.2309 0.0000 (112236 PWs)   bands (ev):

   -73.8174 -73.8155 -73.8116 -73.8093 -73.8069 -73.8056 -73.8040 -73.8017
   -73.7965 -73.7953 -73.7918 -73.7904 -73.7882 -73.7555 -73.7507 -73.7413
   -38.2071 -38.2051 -38.1912 -38.1879 -38.1815 -38.1643 -38.1627 -38.1481
   -38.1310 -38.1256 -38.1076 -38.1025 -38.0637 -38.0601 -38.0480 -38.0412
   -38.0295 -38.0259 -38.0148 -38.0125 -38.0117 -38.0105 -38.0054 -38.0011
   -37.9989 -37.9976 -37.9959 -37.9926 -37.9906 -37.9871 -37.9831 -37.9804
   -37.9777 -37.9704 -37.9678 -37.9653 -37.9539 -37.9515 -37.9510 -37.9477
   -37.9458 -37.9385 -37.9311 -37.9190 -37.9106 -37.8952 -37.8927 -37.8749
   -21.4929 -15.4070 -14.4371 -14.2344 -13.8704 -13.8598 -13.2509 -13.2464
   -13.0231 -12.9991 -12.9786 -12.9115 -12.8348 -12.7323 -12.7071 -12.6872
   -12.5448 -12.5035 -12.4674 -12.4519 -12.4309 -12.4248 -12.3882 -12.3634
   -12.3519 -12.2834 -12.2303 -12.1995 -12.1791 -12.1618 -12.1565 -12.1509
   -12.0546 -12.0439  -7.9166  -7.5431  -6.1743  -6.1261  -6.1158  -6.0907
    -6.0382  -5.8709  -5.8576  -5.8378  -5.7182  -5.5371  -5.5114  -5.4945
    -5.4506  -5.4499  -5.4417  -5.3902  -5.3846  -5.3167  -5.3106  -5.0753
    -5.0714  -5.0237  -5.0120  -4.7786  -4.6246  -4.5629  -4.4923  -4.4543
    -4.4218  -4.3742  -4.3522  -4.3071  -4.2425  -4.2286  -4.1932  -4.1610
    -4.1275  -4.1173  -4.1046  -4.0785  -4.0654  -4.0534  -4.0451  -3.6808
    -3.5662  -3.5278  -3.4711  -3.4537  -3.4337  -3.4045  -3.3633  -3.3302
    -3.2938  -3.2868  -3.2574  -3.2426  -3.2216  -3.2075  -3.1420  -3.1209
    -3.0932  -3.0593  -3.0231  -2.9732  -2.9429  -2.9084  -2.8543  -2.7840
    -2.7495  -2.6941  -2.6598  -2.6358  -2.6232  -2.6076  -2.5243  -2.5079
    -2.4647  -2.4344  -2.3790  -2.3377  -2.2802  -2.2623  -2.2483  -2.1635
    -2.1283  -2.1214  -2.0477  -2.0188  -2.0132  -1.9894  -1.9826  -1.9669
    -1.9429  -1.9078  -1.8971  -1.8717  -1.8595  -1.8500  -1.8412  -1.8259
    -1.8085  -1.7462  -1.7345  -1.7079  -1.7004  -1.6519  -1.6384  -1.6305
    -1.6015  -1.5593  -1.5156  -1.5025  -1.4283  -1.3660  -1.3168  -1.2971
    -1.2639  -1.2409  -1.1955  -1.1373  -1.1212  -1.0677  -1.0581  -1.0068
    -0.9797  -0.8929  -0.7333  -0.7288  -0.6420  -0.6326  -0.5224  -0.4619
    -0.4512  -0.4254  -0.4073  -0.3697  -0.3001  -0.1053  -0.0001   0.0248
     0.1236   1.3096   1.5740

     occupation numbers 
     1.0000   1.0000   1.0000   1.0000   1.0000   1.0000   1.0000   1.0000
     1.0000   1.0000   1.0000   1.0000   1.0000   1.0000   1.0000   1.0000
     1.0000   1.0000   1.0000   1.0000   1.0000   1.0000   1.0000   1.0000
     1.0000   1.0000   1.0000   1.0000   1.0000   1.0000   1.0000   1.0000
     1.0000   1.0000   1.0000   1.0000   1.0000   1.0000   1.0000   1.0000
     1.0000   1.0000   1.0000   1.0000   1.0000   1.0000   1.0000   1.0000
     1.0000   1.0000   1.0000   1.0000   1.0000   1.0000   1.0000   1.0000
     1.0000   1.0000   1.0000   1.0000   1.0000   1.0000   1.0000   1.0000
     1.0000   1.0000   1.0000   1.0000   1.0000   1.0000   1.0000   1.0000
     1.0000   1.0000   1.0000   1.0000   1.0000   1.0000   1.0000   1.0000
     1.0000   1.0000   1.0000   1.0000   1.0000   1.0000   1.0000   1.0000
     1.0000   1.0000   1.0000   1.0000   1.0000   1.0000   1.0000   1.0000
     1.0000   1.0000   1.0000   1.0000   1.0000   1.0000   1.0000   1.0000
     1.0000   1.0000   1.0000   1.0000   1.0000   1.0000   1.0000   1.0000
     1.0000   1.0000   1.0000   1.0000   1.0000   1.0000   1.0000   1.0000
     1.0000   1.0000   1.0000   1.0000   1.0000   1.0000   1.0000   1.0000
     1.0000   1.0000   1.0000   1.0000   1.0000   1.0000   1.0000   1.0000
     1.0000   1.0000   1.0000   1.0000   1.0000   1.0000   1.0000   1.0000
     1.0000   1.0000   1.0000   1.0000   1.0000   1.0000   1.0000   1.0000
     1.0000   1.0000   1.0000   1.0000   1.0000   1.0000   1.0000   1.0000
     1.0000   1.0000   1.0000   1.0000   1.0000   1.0000   1.0000   1.0000
     1.0000   1.0000   1.0000   1.0000   1.0000   1.0000   1.0000   1.0000
     1.0000   1.0000   1.0000   1.0000   1.0000   1.0000   1.0000   1.0000
     1.0000   1.0000   1.0000   1.0000   1.0000   1.0000   1.0000   1.0000
     1.0000   1.0000   1.0000   1.0000   1.0000   1.0000   1.0000   1.0000
     1.0000   1.0000   1.0000   1.0000   1.0000   1.0000   1.0000   1.0000
     1.0000   1.0000   1.0000   1.0000   1.0000   1.0000   1.0000   1.0000
     1.0000   1.0000   1.0000   1.0000   1.0000   1.0000   1.0000   1.0000
     1.0000   1.0000   1.0000   1.0000   1.0000   1.0000   1.0000   1.0000
     1.0000   1.0000   1.0000   1.0000   1.0000   1.0000   1.0000   1.0000
     1.0000   1.0000   1.0000

          k =-0.2000 0.3464 0.0000 (112231 PWs)   bands (ev):

   -73.8177 -73.8150 -73.8117 -73.8097 -73.8067 -73.8058 -73.8037 -73.8015
   -73.7970 -73.7950 -73.7920 -73.7902 -73.7883 -73.7555 -73.7507 -73.7413
   -38.2133 -38.2032 -38.2017 -38.1803 -38.1767 -38.1654 -38.1566 -38.1504
   -38.1339 -38.1266 -38.1141 -38.0781 -38.0620 -38.0566 -38.0490 -38.0382
   -38.0333 -38.0296 -38.0262 -38.0214 -38.0171 -38.0093 -38.0046 -38.0008
   -37.9973 -37.9943 -37.9923 -37.9895 -37.9875 -37.9850 -37.9833 -37.9821
   -37.9777 -37.9747 -37.9706 -37.9662 -37.9594 -37.9564 -37.9529 -37.9483
   -37.9426 -37.9335 -37.9278 -37.9226 -37.9045 -37.8997 -37.8878 -37.8743
   -21.4929 -15.4070 -14.4767 -14.1042 -14.0611 -13.5754 -13.5583 -13.1770
   -13.1205 -13.0110 -12.9367 -12.8098 -12.7928 -12.7078 -12.6739 -12.6213
   -12.5865 -12.5782 -12.5702 -12.4564 -12.4275 -12.3951 -12.3808 -12.3117
   -12.2932 -12.2754 -12.2528 -12.2280 -12.2242 -12.1580 -12.1512 -12.1097
   -12.0968 -12.0367  -7.9166  -7.5431  -6.1941  -6.1768  -6.1434  -6.1232
    -6.1048  -5.7706  -5.7396  -5.7185  -5.7012  -5.6280  -5.6040  -5.5656
    -5.5094  -5.4777  -5.3580  -5.3328  -5.3018  -5.2670  -5.2437  -5.2229
    -5.0994  -4.9158  -4.8964  -4.7985  -4.7576  -4.6109  -4.5193  -4.4499
    -4.3974  -4.3464  -4.3371  -4.3112  -4.2823  -4.2625  -4.2474  -4.2293
    -4.1660  -4.1319  -4.1130  -4.0949  -4.0558  -3.7767  -3.7420  -3.7307
    -3.7106  -3.6939  -3.6167  -3.5100  -3.4253  -3.3849  -3.3760  -3.3110
    -3.2965  -3.2450  -3.2352  -3.2059  -3.1687  -3.1493  -3.1294  -3.0858
    -3.0651  -3.0146  -2.9764  -2.9478  -2.9357  -2.9290  -2.9256  -2.9038
    -2.8003  -2.7464  -2.7245  -2.6796  -2.6325  -2.5667  -2.5333  -2.4801
    -2.4660  -2.4126  -2.3924  -2.3676  -2.3251  -2.2236  -2.2000  -2.1602
    -2.1399  -2.1256  -2.1104  -2.0851  -2.0402  -1.9926  -1.9856  -1.9461
    -1.9226  -1.9037  -1.8717  -1.8571  -1.8282  -1.8199  -1.7993  -1.7764
    -1.7461  -1.7104  -1.7040  -1.6820  -1.6576  -1.6409  -1.5917  -1.5856
    -1.5634  -1.5509  -1.5332  -1.5133  -1.4455  -1.3994  -1.3875  -1.3488
    -1.2922  -1.2505  -1.1991  -1.1755  -1.1606  -1.1244  -1.0493  -1.0055
    -0.8785  -0.8397  -0.6896  -0.6733  -0.6400  -0.6301  -0.6124  -0.5451
    -0.5383  -0.4306  -0.3877  -0.2597  -0.2085  -0.2011  -0.1632   0.0706
     0.1370   1.2894   1.5797

     occupation numbers 
     1.0000   1.0000   1.0000   1.0000   1.0000   1.0000   1.0000   1.0000
     1.0000   1.0000   1.0000   1.0000   1.0000   1.0000   1.0000   1.0000
     1.0000   1.0000   1.0000   1.0000   1.0000   1.0000   1.0000   1.0000
     1.0000   1.0000   1.0000   1.0000   1.0000   1.0000   1.0000   1.0000
     1.0000   1.0000   1.0000   1.0000   1.0000   1.0000   1.0000   1.0000
     1.0000   1.0000   1.0000   1.0000   1.0000   1.0000   1.0000   1.0000
     1.0000   1.0000   1.0000   1.0000   1.0000   1.0000   1.0000   1.0000
     1.0000   1.0000   1.0000   1.0000   1.0000   1.0000   1.0000   1.0000
     1.0000   1.0000   1.0000   1.0000   1.0000   1.0000   1.0000   1.0000
     1.0000   1.0000   1.0000   1.0000   1.0000   1.0000   1.0000   1.0000
     1.0000   1.0000   1.0000   1.0000   1.0000   1.0000   1.0000   1.0000
     1.0000   1.0000   1.0000   1.0000   1.0000   1.0000   1.0000   1.0000
     1.0000   1.0000   1.0000   1.0000   1.0000   1.0000   1.0000   1.0000
     1.0000   1.0000   1.0000   1.0000   1.0000   1.0000   1.0000   1.0000
     1.0000   1.0000   1.0000   1.0000   1.0000   1.0000   1.0000   1.0000
     1.0000   1.0000   1.0000   1.0000   1.0000   1.0000   1.0000   1.0000
     1.0000   1.0000   1.0000   1.0000   1.0000   1.0000   1.0000   1.0000
     1.0000   1.0000   1.0000   1.0000   1.0000   1.0000   1.0000   1.0000
     1.0000   1.0000   1.0000   1.0000   1.0000   1.0000   1.0000   1.0000
     1.0000   1.0000   1.0000   1.0000   1.0000   1.0000   1.0000   1.0000
     1.0000   1.0000   1.0000   1.0000   1.0000   1.0000   1.0000   1.0000
     1.0000   1.0000   1.0000   1.0000   1.0000   1.0000   1.0000   1.0000
     1.0000   1.0000   1.0000   1.0000   1.0000   1.0000   1.0000   1.0000
     1.0000   1.0000   1.0000   1.0000   1.0000   1.0000   1.0000   1.0000
     1.0000   1.0000   1.0000   1.0000   1.0000   1.0000   1.0000   1.0000
     1.0000   1.0000   1.0000   1.0000   1.0000   1.0000   1.0000   1.0000
     1.0000   1.0000   1.0000   1.0000   1.0000   1.0000   1.0000   1.0000
     1.0000   1.0000   1.0000   1.0000   1.0000   1.0000   1.0000   1.0000
     1.0000   1.0000   1.0000   1.0000   1.0000   1.0000   1.0000   1.0000
     1.0000   1.0000   1.0000   1.0000   1.0000   1.0000   1.0000   1.0000
     1.0000   1.0000   1.0000

          k = 0.4000-0.0000 0.0000 (112231 PWs)   bands (ev):

   -73.8176 -73.8151 -73.8117 -73.8095 -73.8069 -73.8055 -73.8039 -73.8016
   -73.7966 -73.7952 -73.7920 -73.7902 -73.7883 -73.7555 -73.7507 -73.7413
   -38.2133 -38.2039 -38.2007 -38.1801 -38.1769 -38.1666 -38.1572 -38.1505
   -38.1331 -38.1251 -38.1136 -38.0779 -38.0628 -38.0572 -38.0488 -38.0389
   -38.0318 -38.0298 -38.0264 -38.0229 -38.0151 -38.0103 -38.0050 -37.9996
   -37.9971 -37.9946 -37.9923 -37.9901 -37.9888 -37.9862 -37.9831 -37.9811
   -37.9762 -37.9757 -37.9704 -37.9665 -37.9594 -37.9560 -37.9527 -37.9480
   -37.9432 -37.9329 -37.9289 -37.9232 -37.9027 -37.8993 -37.8866 -37.8762
   -21.4929 -15.4070 -14.4768 -14.1007 -14.0647 -13.5698 -13.5647 -13.1720
   -13.1238 -13.0149 -12.9305 -12.8058 -12.7968 -12.7125 -12.6831 -12.6036
   -12.6007 -12.5752 -12.5622 -12.4581 -12.4247 -12.4140 -12.3659 -12.3088
   -12.2943 -12.2723 -12.2555 -12.2359 -12.2213 -12.1588 -12.1487 -12.1076
   -12.0982 -12.0372  -7.9166  -7.5431  -6.1843  -6.1825  -6.1470  -6.1207
    -6.1099  -5.7602  -5.7445  -5.7225  -5.6895  -5.6384  -5.6104  -5.5631
    -5.5073  -5.4749  -5.3535  -5.3367  -5.2944  -5.2734  -5.2462  -5.2311
    -5.0990  -4.9036  -4.8883  -4.8120  -4.7578  -4.5740  -4.5409  -4.4677
    -4.4116  -4.3485  -4.3397  -4.3150  -4.2773  -4.2661  -4.2453  -4.2125
    -4.1769  -4.1192  -4.1119  -4.0916  -4.0559  -3.7657  -3.7366  -3.7294
    -3.7099  -3.7005  -3.6286  -3.4878  -3.4328  -3.4047  -3.3743  -3.3284
    -3.2897  -3.2483  -3.2384  -3.2046  -3.1792  -3.1468  -3.1291  -3.0843
    -3.0455  -3.0078  -2.9714  -2.9540  -2.9430  -2.9256  -2.9099  -2.9021
    -2.7916  -2.7602  -2.7248  -2.6641  -2.6354  -2.5861  -2.5497  -2.4735
    -2.4697  -2.4230  -2.3903  -2.3489  -2.3229  -2.2291  -2.1827  -2.1646
    -2.1339  -2.1265  -2.1096  -2.1035  -2.0156  -1.9968  -1.9786  -1.9527
    -1.9291  -1.9030  -1.8851  -1.8671  -1.8550  -1.8236  -1.7925  -1.7703
    -1.7321  -1.7121  -1.6958  -1.6769  -1.6632  -1.6316  -1.5973  -1.5747
    -1.5590  -1.5493  -1.5350  -1.5086  -1.4520  -1.4148  -1.3720  -1.3423
    -1.2901  -1.2694  -1.2039  -1.1812  -1.1539  -1.1126  -1.0517  -1.0040
    -0.8697  -0.8518  -0.6840  -0.6766  -0.6411  -0.6250  -0.6168  -0.5433
    -0.5375  -0.4451  -0.3852  -0.2544  -0.2093  -0.1960  -0.1648   0.0679
     0.1371   1.3190   1.5488

     occupation numbers 
     1.0000   1.0000   1.0000   1.0000   1.0000   1.0000   1.0000   1.0000
     1.0000   1.0000   1.0000   1.0000   1.0000   1.0000   1.0000   1.0000
     1.0000   1.0000   1.0000   1.0000   1.0000   1.0000   1.0000   1.0000
     1.0000   1.0000   1.0000   1.0000   1.0000   1.0000   1.0000   1.0000
     1.0000   1.0000   1.0000   1.0000   1.0000   1.0000   1.0000   1.0000
     1.0000   1.0000   1.0000   1.0000   1.0000   1.0000   1.0000   1.0000
     1.0000   1.0000   1.0000   1.0000   1.0000   1.0000   1.0000   1.0000
     1.0000   1.0000   1.0000   1.0000   1.0000   1.0000   1.0000   1.0000
     1.0000   1.0000   1.0000   1.0000   1.0000   1.0000   1.0000   1.0000
     1.0000   1.0000   1.0000   1.0000   1.0000   1.0000   1.0000   1.0000
     1.0000   1.0000   1.0000   1.0000   1.0000   1.0000   1.0000   1.0000
     1.0000   1.0000   1.0000   1.0000   1.0000   1.0000   1.0000   1.0000
     1.0000   1.0000   1.0000   1.0000   1.0000   1.0000   1.0000   1.0000
     1.0000   1.0000   1.0000   1.0000   1.0000   1.0000   1.0000   1.0000
     1.0000   1.0000   1.0000   1.0000   1.0000   1.0000   1.0000   1.0000
     1.0000   1.0000   1.0000   1.0000   1.0000   1.0000   1.0000   1.0000
     1.0000   1.0000   1.0000   1.0000   1.0000   1.0000   1.0000   1.0000
     1.0000   1.0000   1.0000   1.0000   1.0000   1.0000   1.0000   1.0000
     1.0000   1.0000   1.0000   1.0000   1.0000   1.0000   1.0000   1.0000
     1.0000   1.0000   1.0000   1.0000   1.0000   1.0000   1.0000   1.0000
     1.0000   1.0000   1.0000   1.0000   1.0000   1.0000   1.0000   1.0000
     1.0000   1.0000   1.0000   1.0000   1.0000   1.0000   1.0000   1.0000
     1.0000   1.0000   1.0000   1.0000   1.0000   1.0000   1.0000   1.0000
     1.0000   1.0000   1.0000   1.0000   1.0000   1.0000   1.0000   1.0000
     1.0000   1.0000   1.0000   1.0000   1.0000   1.0000   1.0000   1.0000
     1.0000   1.0000   1.0000   1.0000   1.0000   1.0000   1.0000   1.0000
     1.0000   1.0000   1.0000   1.0000   1.0000   1.0000   1.0000   1.0000
     1.0000   1.0000   1.0000   1.0000   1.0000   1.0000   1.0000   1.0000
     1.0000   1.0000   1.0000   1.0000   1.0000   1.0000   1.0000   1.0000
     1.0000   1.0000   1.0000   1.0000   1.0000   1.0000   1.0000   1.0000
     1.0000   1.0000   1.0000

          k =-0.4000 0.4619 0.0000 (112237 PWs)   bands (ev):

   -73.8175 -73.8152 -73.8117 -73.8098 -73.8067 -73.8054 -73.8039 -73.8015
   -73.7968 -73.7951 -73.7920 -73.7902 -73.7883 -73.7555 -73.7507 -73.7413
   -38.2029 -38.1961 -38.1867 -38.1833 -38.1807 -38.1744 -38.1669 -38.1501
   -38.1474 -38.1338 -38.0954 -38.0912 -38.0860 -38.0531 -38.0458 -38.0422
   -38.0341 -38.0323 -38.0221 -38.0139 -38.0093 -38.0063 -38.0046 -38.0012
   -38.0001 -37.9973 -37.9946 -37.9891 -37.9870 -37.9832 -37.9758 -37.9727
   -37.9706 -37.9690 -37.9622 -37.9588 -37.9557 -37.9540 -37.9510 -37.9488
   -37.9466 -37.9392 -37.9349 -37.9280 -37.9159 -37.8971 -37.8864 -37.8806
   -21.4929 -15.4070 -14.3404 -14.2905 -14.1170 -13.5978 -13.2997 -13.2961
   -12.9629 -12.9508 -12.8879 -12.8579 -12.8288 -12.8023 -12.7975 -12.6669
   -12.6355 -12.5973 -12.4953 -12.4848 -12.3892 -12.3767 -12.3493 -12.3272
   -12.3106 -12.2984 -12.2623 -12.2359 -12.2306 -12.1351 -12.1211 -12.1161
   -12.0810 -12.0176  -7.9166  -7.5431  -6.1700  -6.0609  -6.0263  -5.9708
    -5.9165  -5.8918  -5.8788  -5.8609  -5.8094  -5.7460  -5.6906  -5.6272
    -5.6117  -5.5426  -5.3592  -5.2880  -5.2490  -5.2181  -5.2031  -5.1700
    -5.1590  -4.8559  -4.8342  -4.7474  -4.6217  -4.5916  -4.5460  -4.5266
    -4.4929  -4.4282  -4.3860  -4.3273  -4.3097  -4.2435  -4.2285  -4.2104
    -4.1949  -4.1653  -4.1216  -4.0957  -3.9585  -3.9484  -3.7940  -3.6727
    -3.6286  -3.5911  -3.4357  -3.3989  -3.3649  -3.3275  -3.3099  -3.2828
    -3.2800  -3.2687  -3.2435  -3.2332  -3.2214  -3.2154  -3.1509  -3.1226
    -3.0986  -3.0866  -3.0605  -3.0480  -2.9989  -2.9546  -2.8525  -2.8168
    -2.7459  -2.7322  -2.7140  -2.6837  -2.6330  -2.5974  -2.5132  -2.4218
    -2.4018  -2.3324  -2.3245  -2.3193  -2.2694  -2.2002  -2.1760  -2.1613
    -2.1478  -2.0914  -2.0815  -2.0535  -2.0301  -1.9805  -1.9702  -1.9502
    -1.9338  -1.9197  -1.8961  -1.8852  -1.8701  -1.8564  -1.8463  -1.8436
    -1.8199  -1.7954  -1.7566  -1.7253  -1.7072  -1.6924  -1.6745  -1.6554
    -1.6281  -1.5869  -1.5377  -1.5068  -1.4858  -1.4631  -1.4224  -1.3193
    -1.2857  -1.2381  -1.1719  -1.1179  -1.0952  -1.0779  -1.0459  -0.9737
    -0.8157  -0.7896  -0.7039  -0.6932  -0.6595  -0.6478  -0.6014  -0.5853
    -0.5689  -0.4159  -0.2824  -0.2761  -0.1807  -0.1208  -0.0789   0.0890
     0.1856   1.3274   1.5659

     occupation numbers 
     1.0000   1.0000   1.0000   1.0000   1.0000   1.0000   1.0000   1.0000
     1.0000   1.0000   1.0000   1.0000   1.0000   1.0000   1.0000   1.0000
     1.0000   1.0000   1.0000   1.0000   1.0000   1.0000   1.0000   1.0000
     1.0000   1.0000   1.0000   1.0000   1.0000   1.0000   1.0000   1.0000
     1.0000   1.0000   1.0000   1.0000   1.0000   1.0000   1.0000   1.0000
     1.0000   1.0000   1.0000   1.0000   1.0000   1.0000   1.0000   1.0000
     1.0000   1.0000   1.0000   1.0000   1.0000   1.0000   1.0000   1.0000
     1.0000   1.0000   1.0000   1.0000   1.0000   1.0000   1.0000   1.0000
     1.0000   1.0000   1.0000   1.0000   1.0000   1.0000   1.0000   1.0000
     1.0000   1.0000   1.0000   1.0000   1.0000   1.0000   1.0000   1.0000
     1.0000   1.0000   1.0000   1.0000   1.0000   1.0000   1.0000   1.0000
     1.0000   1.0000   1.0000   1.0000   1.0000   1.0000   1.0000   1.0000
     1.0000   1.0000   1.0000   1.0000   1.0000   1.0000   1.0000   1.0000
     1.0000   1.0000   1.0000   1.0000   1.0000   1.0000   1.0000   1.0000
     1.0000   1.0000   1.0000   1.0000   1.0000   1.0000   1.0000   1.0000
     1.0000   1.0000   1.0000   1.0000   1.0000   1.0000   1.0000   1.0000
     1.0000   1.0000   1.0000   1.0000   1.0000   1.0000   1.0000   1.0000
     1.0000   1.0000   1.0000   1.0000   1.0000   1.0000   1.0000   1.0000
     1.0000   1.0000   1.0000   1.0000   1.0000   1.0000   1.0000   1.0000
     1.0000   1.0000   1.0000   1.0000   1.0000   1.0000   1.0000   1.0000
     1.0000   1.0000   1.0000   1.0000   1.0000   1.0000   1.0000   1.0000
     1.0000   1.0000   1.0000   1.0000   1.0000   1.0000   1.0000   1.0000
     1.0000   1.0000   1.0000   1.0000   1.0000   1.0000   1.0000   1.0000
     1.0000   1.0000   1.0000   1.0000   1.0000   1.0000   1.0000   1.0000
     1.0000   1.0000   1.0000   1.0000   1.0000   1.0000   1.0000   1.0000
     1.0000   1.0000   1.0000   1.0000   1.0000   1.0000   1.0000   1.0000
     1.0000   1.0000   1.0000   1.0000   1.0000   1.0000   1.0000   1.0000
     1.0000   1.0000   1.0000   1.0000   1.0000   1.0000   1.0000   1.0000
     1.0000   1.0000   1.0000   1.0000   1.0000   1.0000   1.0000   1.0000
     1.0000   1.0000   1.0000   1.0000   1.0000   1.0000   1.0000   1.0000
     1.0000   1.0000   1.0000

          k = 0.6000 0.1155 0.0000 (112237 PWs)   bands (ev):

   -73.8173 -73.8155 -73.8117 -73.8094 -73.8068 -73.8055 -73.8040 -73.8016
   -73.7967 -73.7952 -73.7918 -73.7904 -73.7882 -73.7555 -73.7507 -73.7413
   -38.2016 -38.1977 -38.1875 -38.1848 -38.1778 -38.1744 -38.1665 -38.1499
   -38.1481 -38.1335 -38.0948 -38.0932 -38.0856 -38.0527 -38.0459 -38.0420
   -38.0342 -38.0325 -38.0217 -38.0131 -38.0100 -38.0070 -38.0040 -38.0015
   -38.0005 -37.9959 -37.9943 -37.9900 -37.9871 -37.9831 -37.9757 -37.9728
   -37.9705 -37.9698 -37.9620 -37.9587 -37.9562 -37.9542 -37.9514 -37.9487
   -37.9427 -37.9399 -37.9332 -37.9304 -37.9171 -37.8979 -37.8879 -37.8784
   -21.4929 -15.4070 -14.3398 -14.2913 -14.1168 -13.5977 -13.3070 -13.2887
   -12.9689 -12.9447 -12.8829 -12.8615 -12.8292 -12.8027 -12.7981 -12.6694
   -12.6344 -12.5955 -12.5052 -12.4747 -12.3959 -12.3734 -12.3455 -12.3226
   -12.3115 -12.3006 -12.2655 -12.2364 -12.2315 -12.1329 -12.1219 -12.1165
   -12.0803 -12.0178  -7.9166  -7.5431  -6.1700  -6.0578  -6.0213  -5.9699
    -5.9300  -5.9081  -5.8782  -5.8365  -5.8086  -5.7510  -5.6925  -5.6250
    -5.6139  -5.5391  -5.3581  -5.2843  -5.2576  -5.2269  -5.1983  -5.1739
    -5.1498  -4.8579  -4.8409  -4.6973  -4.6487  -4.6113  -4.5531  -4.5160
    -4.4959  -4.4371  -4.3864  -4.3229  -4.3037  -4.2435  -4.2329  -4.2010
    -4.1933  -4.1690  -4.1213  -4.0973  -3.9592  -3.9487  -3.7905  -3.6703
    -3.6301  -3.5820  -3.4373  -3.3777  -3.3689  -3.3359  -3.3044  -3.2886
    -3.2860  -3.2628  -3.2469  -3.2361  -3.2223  -3.2045  -3.1815  -3.1449
    -3.0888  -3.0804  -3.0547  -3.0230  -3.0080  -2.9672  -2.8504  -2.8146
    -2.7539  -2.7335  -2.7273  -2.6596  -2.6423  -2.5603  -2.5224  -2.4696
    -2.3968  -2.3374  -2.3175  -2.2985  -2.2483  -2.2163  -2.1758  -2.1523
    -2.1304  -2.1063  -2.0786  -2.0500  -2.0213  -1.9860  -1.9700  -1.9607
    -1.9398  -1.9144  -1.9046  -1.8836  -1.8740  -1.8638  -1.8550  -1.8458
    -1.8128  -1.7986  -1.7471  -1.7336  -1.7045  -1.6955  -1.6673  -1.6458
    -1.6286  -1.6068  -1.5404  -1.5230  -1.4780  -1.4358  -1.4080  -1.3312
    -1.2944  -1.2322  -1.1621  -1.1411  -1.0971  -1.0593  -1.0232  -0.9935
    -0.8120  -0.7960  -0.6995  -0.6977  -0.6605  -0.6540  -0.6021  -0.5967
    -0.5544  -0.4173  -0.2844  -0.2692  -0.1781  -0.1258  -0.0782   0.0898
     0.1859   1.3171   1.5785

     occupation numbers 
     1.0000   1.0000   1.0000   1.0000   1.0000   1.0000   1.0000   1.0000
     1.0000   1.0000   1.0000   1.0000   1.0000   1.0000   1.0000   1.0000
     1.0000   1.0000   1.0000   1.0000   1.0000   1.0000   1.0000   1.0000
     1.0000   1.0000   1.0000   1.0000   1.0000   1.0000   1.0000   1.0000
     1.0000   1.0000   1.0000   1.0000   1.0000   1.0000   1.0000   1.0000
     1.0000   1.0000   1.0000   1.0000   1.0000   1.0000   1.0000   1.0000
     1.0000   1.0000   1.0000   1.0000   1.0000   1.0000   1.0000   1.0000
     1.0000   1.0000   1.0000   1.0000   1.0000   1.0000   1.0000   1.0000
     1.0000   1.0000   1.0000   1.0000   1.0000   1.0000   1.0000   1.0000
     1.0000   1.0000   1.0000   1.0000   1.0000   1.0000   1.0000   1.0000
     1.0000   1.0000   1.0000   1.0000   1.0000   1.0000   1.0000   1.0000
     1.0000   1.0000   1.0000   1.0000   1.0000   1.0000   1.0000   1.0000
     1.0000   1.0000   1.0000   1.0000   1.0000   1.0000   1.0000   1.0000
     1.0000   1.0000   1.0000   1.0000   1.0000   1.0000   1.0000   1.0000
     1.0000   1.0000   1.0000   1.0000   1.0000   1.0000   1.0000   1.0000
     1.0000   1.0000   1.0000   1.0000   1.0000   1.0000   1.0000   1.0000
     1.0000   1.0000   1.0000   1.0000   1.0000   1.0000   1.0000   1.0000
     1.0000   1.0000   1.0000   1.0000   1.0000   1.0000   1.0000   1.0000
     1.0000   1.0000   1.0000   1.0000   1.0000   1.0000   1.0000   1.0000
     1.0000   1.0000   1.0000   1.0000   1.0000   1.0000   1.0000   1.0000
     1.0000   1.0000   1.0000   1.0000   1.0000   1.0000   1.0000   1.0000
     1.0000   1.0000   1.0000   1.0000   1.0000   1.0000   1.0000   1.0000
     1.0000   1.0000   1.0000   1.0000   1.0000   1.0000   1.0000   1.0000
     1.0000   1.0000   1.0000   1.0000   1.0000   1.0000   1.0000   1.0000
     1.0000   1.0000   1.0000   1.0000   1.0000   1.0000   1.0000   1.0000
     1.0000   1.0000   1.0000   1.0000   1.0000   1.0000   1.0000   1.0000
     1.0000   1.0000   1.0000   1.0000   1.0000   1.0000   1.0000   1.0000
     1.0000   1.0000   1.0000   1.0000   1.0000   1.0000   1.0000   1.0000
     1.0000   1.0000   1.0000   1.0000   1.0000   1.0000   1.0000   1.0000
     1.0000   1.0000   1.0000   1.0000   1.0000   1.0000   1.0000   1.0000
     1.0000   1.0000   1.0000

 ------ SPIN DOWN ----------


          k = 0.0000 0.0000 0.0000 (112117 PWs)   bands (ev):

   -73.8147 -73.8102 -73.8072 -73.8054 -73.8032 -73.8024 -73.7992 -73.7969
   -73.7946 -73.7896 -73.7887 -73.7872 -73.7830 -73.7421 -73.7324 -73.7295
   -38.2169 -38.2156 -38.2136 -38.1576 -38.1569 -38.1528 -38.1481 -38.1470
   -38.1357 -38.0565 -38.0515 -38.0489 -38.0483 -38.0423 -38.0393 -38.0380
   -38.0252 -38.0233 -38.0214 -38.0202 -38.0176 -38.0173 -38.0159 -38.0129
   -38.0098 -38.0065 -38.0051 -38.0001 -37.9933 -37.9898 -37.9874 -37.9858
   -37.9843 -37.9772 -37.9532 -37.9522 -37.9493 -37.9456 -37.9363 -37.9256
   -37.9197 -37.9088 -37.9065 -37.9050 -37.9025 -37.8918 -37.8593 -37.8573
   -21.4916 -15.4059 -14.5955 -13.7067 -13.6921 -13.6721 -13.6434 -13.6293
   -13.6201 -12.9801 -12.7059 -12.6755 -12.6512 -12.6367 -12.6015 -12.5808
   -12.5334 -12.5046 -12.4686 -12.4559 -12.4442 -12.4425 -12.4214 -12.4199
   -12.4161 -12.2212 -12.1989 -12.1892 -12.1725 -12.1569 -12.1530 -12.1486
   -12.1466 -12.1442  -7.9147  -7.5413  -6.3367  -6.3236  -6.3059  -6.2759
    -6.1606  -5.6009  -5.5693  -5.5453  -5.5295  -5.5254  -5.4928  -5.4387
    -5.4058  -5.3872  -5.3118  -5.2805  -5.2606  -5.0998  -5.0908  -5.0627
    -5.0580  -5.0540  -5.0532  -4.9972  -4.9966  -4.9881  -4.5123  -4.4330
    -4.3932  -4.3439  -4.2901  -4.2811  -4.2652  -4.2439  -4.2305  -4.1769
    -4.0779  -4.0071  -3.9761  -3.9610  -3.9347  -3.7890  -3.7565  -3.7526
    -3.6986  -3.6768  -3.6738  -3.5982  -3.5082  -3.4689  -3.4036  -3.3997
    -3.3722  -3.3656  -3.2745  -3.2197  -3.1936  -3.1799  -3.1581  -3.1404
    -3.1273  -3.1225  -3.1083  -3.1058  -3.0397  -2.9251  -2.7921  -2.7476
    -2.6877  -2.6665  -2.6206  -2.5864  -2.5734  -2.5009  -2.4922  -2.4635
    -2.4584  -2.4311  -2.4285  -2.4234  -2.3899  -2.3300  -2.2731  -2.1864
    -2.1154  -2.0544  -1.9649  -1.9598  -1.9304  -1.9171  -1.8659  -1.8232
    -1.7991  -1.7758  -1.7644  -1.7611  -1.7490  -1.7473  -1.7415  -1.7330
    -1.7318  -1.7000  -1.6890  -1.6566  -1.6471  -1.6348  -1.6319  -1.5990
    -1.5734  -1.5264  -1.5164  -1.4888  -1.4485  -1.4095  -1.3701  -1.3526
    -1.2906  -1.2612  -1.1832  -1.0879  -1.0331  -1.0259  -1.0099  -0.9901
    -0.7223  -0.6877  -0.6836  -0.6833  -0.6703  -0.6656  -0.6435  -0.6370
    -0.6206  -0.3933  -0.3819  -0.3719  -0.3568  -0.3400  -0.3306  -0.2944
     0.2178   1.3002   1.6761

     occupation numbers 
     1.0000   1.0000   1.0000   1.0000   1.0000   1.0000   1.0000   1.0000
     1.0000   1.0000   1.0000   1.0000   1.0000   1.0000   1.0000   1.0000
     1.0000   1.0000   1.0000   1.0000   1.0000   1.0000   1.0000   1.0000
     1.0000   1.0000   1.0000   1.0000   1.0000   1.0000   1.0000   1.0000
     1.0000   1.0000   1.0000   1.0000   1.0000   1.0000   1.0000   1.0000
     1.0000   1.0000   1.0000   1.0000   1.0000   1.0000   1.0000   1.0000
     1.0000   1.0000   1.0000   1.0000   1.0000   1.0000   1.0000   1.0000
     1.0000   1.0000   1.0000   1.0000   1.0000   1.0000   1.0000   1.0000
     1.0000   1.0000   1.0000   1.0000   1.0000   1.0000   1.0000   1.0000
     1.0000   1.0000   1.0000   1.0000   1.0000   1.0000   1.0000   1.0000
     1.0000   1.0000   1.0000   1.0000   1.0000   1.0000   1.0000   1.0000
     1.0000   1.0000   1.0000   1.0000   1.0000   1.0000   1.0000   1.0000
     1.0000   1.0000   1.0000   1.0000   1.0000   1.0000   1.0000   1.0000
     1.0000   1.0000   1.0000   1.0000   1.0000   1.0000   1.0000   1.0000
     1.0000   1.0000   1.0000   1.0000   1.0000   1.0000   1.0000   1.0000
     1.0000   1.0000   1.0000   1.0000   1.0000   1.0000   1.0000   1.0000
     1.0000   1.0000   1.0000   1.0000   1.0000   1.0000   1.0000   1.0000
     1.0000   1.0000   1.0000   1.0000   1.0000   1.0000   1.0000   1.0000
     1.0000   1.0000   1.0000   1.0000   1.0000   1.0000   1.0000   1.0000
     1.0000   1.0000   1.0000   1.0000   1.0000   1.0000   1.0000   1.0000
     1.0000   1.0000   1.0000   1.0000   1.0000   1.0000   1.0000   1.0000
     1.0000   1.0000   1.0000   1.0000   1.0000   1.0000   1.0000   1.0000
     1.0000   1.0000   1.0000   1.0000   1.0000   1.0000   1.0000   1.0000
     1.0000   1.0000   1.0000   1.0000   1.0000   1.0000   1.0000   1.0000
     1.0000   1.0000   1.0000   1.0000   1.0000   1.0000   1.0000   1.0000
     1.0000   1.0000   1.0000   1.0000   1.0000   1.0000   1.0000   1.0000
     1.0000   1.0000   1.0000   1.0000   1.0000   1.0000   1.0000   1.0000
     1.0000   1.0000   1.0000   1.0000   1.0000   1.0000   1.0000   1.0000
     1.0000   1.0000   1.0000   1.0000   1.0000   1.0000   1.0000   1.0000
     1.0000   1.0000   1.0000   1.0000   1.0000   1.0000   1.0000   1.0000
     1.0000   1.0000   0.0000

          k = 0.0000 0.2309 0.0000 (112171 PWs)   bands (ev):

   -73.8146 -73.8103 -73.8074 -73.8053 -73.8033 -73.8022 -73.7991 -73.7968
   -73.7947 -73.7896 -73.7886 -73.7872 -73.7830 -73.7421 -73.7324 -73.7295
   -38.2121 -38.2102 -38.2072 -38.1612 -38.1597 -38.1583 -38.1511 -38.1405
   -38.1324 -38.0972 -38.0718 -38.0705 -38.0471 -38.0432 -38.0385 -38.0276
   -38.0262 -38.0210 -38.0180 -38.0168 -38.0140 -38.0111 -38.0095 -38.0061
   -38.0000 -37.9953 -37.9949 -37.9914 -37.9888 -37.9874 -37.9846 -37.9839
   -37.9801 -37.9771 -37.9562 -37.9538 -37.9498 -37.9464 -37.9365 -37.9266
   -37.9260 -37.9153 -37.9114 -37.9035 -37.8996 -37.8903 -37.8650 -37.8600
   -21.4916 -15.4059 -14.5539 -13.9737 -13.7995 -13.7835 -13.4895 -13.4595
   -13.3227 -12.9641 -12.8008 -12.7329 -12.6937 -12.6854 -12.6534 -12.5838
   -12.5528 -12.5398 -12.4925 -12.4757 -12.4545 -12.4338 -12.4227 -12.3145
   -12.2834 -12.2610 -12.2426 -12.2133 -12.1837 -12.1733 -12.1664 -12.1516
   -12.0946 -12.0788  -7.9147  -7.5413  -6.2756  -6.2650  -6.2335  -6.2296
    -6.1586  -5.6599  -5.6403  -5.6237  -5.5537  -5.5151  -5.4866  -5.4677
    -5.4235  -5.4132  -5.3908  -5.3182  -5.3140  -5.2834  -5.2666  -5.0694
    -5.0646  -5.0137  -4.9999  -4.9518  -4.7365  -4.7319  -4.5810  -4.4739
    -4.4454  -4.3814  -4.3187  -4.2813  -4.2035  -4.1579  -4.1429  -4.1168
    -4.0966  -4.0584  -4.0404  -3.9984  -3.9822  -3.9080  -3.9056  -3.8980
    -3.6548  -3.5664  -3.5356  -3.5021  -3.4631  -3.4382  -3.4340  -3.3805
    -3.3614  -3.3099  -3.2892  -3.2755  -3.2613  -3.2035  -3.1894  -3.1467
    -3.0732  -2.9813  -2.9377  -2.9220  -2.8428  -2.7753  -2.7561  -2.7419
    -2.7160  -2.7081  -2.6928  -2.6691  -2.6427  -2.6251  -2.5829  -2.5386
    -2.4996  -2.4948  -2.4642  -2.4280  -2.3480  -2.3022  -2.1855  -2.1573
    -2.1040  -2.0611  -2.0091  -1.9934  -1.9682  -1.9491  -1.9230  -1.9010
    -1.8818  -1.8521  -1.8406  -1.8104  -1.7770  -1.7518  -1.7369  -1.7207
    -1.7148  -1.6933  -1.6775  -1.6521  -1.6366  -1.6002  -1.5790  -1.5386
    -1.5234  -1.4888  -1.4769  -1.4484  -1.4291  -1.3648  -1.3320  -1.3192
    -1.2939  -1.2726  -1.2330  -1.2140  -1.1485  -1.0621  -1.0384  -1.0027
    -0.8877  -0.7739  -0.7558  -0.7393  -0.5638  -0.5597  -0.5424  -0.5287
    -0.5156  -0.5027  -0.4029  -0.3724  -0.3567  -0.2427  -0.1660  -0.1355
     0.1998   1.3060   1.7072

     occupation numbers 
     1.0000   1.0000   1.0000   1.0000   1.0000   1.0000   1.0000   1.0000
     1.0000   1.0000   1.0000   1.0000   1.0000   1.0000   1.0000   1.0000
     1.0000   1.0000   1.0000   1.0000   1.0000   1.0000   1.0000   1.0000
     1.0000   1.0000   1.0000   1.0000   1.0000   1.0000   1.0000   1.0000
     1.0000   1.0000   1.0000   1.0000   1.0000   1.0000   1.0000   1.0000
     1.0000   1.0000   1.0000   1.0000   1.0000   1.0000   1.0000   1.0000
     1.0000   1.0000   1.0000   1.0000   1.0000   1.0000   1.0000   1.0000
     1.0000   1.0000   1.0000   1.0000   1.0000   1.0000   1.0000   1.0000
     1.0000   1.0000   1.0000   1.0000   1.0000   1.0000   1.0000   1.0000
     1.0000   1.0000   1.0000   1.0000   1.0000   1.0000   1.0000   1.0000
     1.0000   1.0000   1.0000   1.0000   1.0000   1.0000   1.0000   1.0000
     1.0000   1.0000   1.0000   1.0000   1.0000   1.0000   1.0000   1.0000
     1.0000   1.0000   1.0000   1.0000   1.0000   1.0000   1.0000   1.0000
     1.0000   1.0000   1.0000   1.0000   1.0000   1.0000   1.0000   1.0000
     1.0000   1.0000   1.0000   1.0000   1.0000   1.0000   1.0000   1.0000
     1.0000   1.0000   1.0000   1.0000   1.0000   1.0000   1.0000   1.0000
     1.0000   1.0000   1.0000   1.0000   1.0000   1.0000   1.0000   1.0000
     1.0000   1.0000   1.0000   1.0000   1.0000   1.0000   1.0000   1.0000
     1.0000   1.0000   1.0000   1.0000   1.0000   1.0000   1.0000   1.0000
     1.0000   1.0000   1.0000   1.0000   1.0000   1.0000   1.0000   1.0000
     1.0000   1.0000   1.0000   1.0000   1.0000   1.0000   1.0000   1.0000
     1.0000   1.0000   1.0000   1.0000   1.0000   1.0000   1.0000   1.0000
     1.0000   1.0000   1.0000   1.0000   1.0000   1.0000   1.0000   1.0000
     1.0000   1.0000   1.0000   1.0000   1.0000   1.0000   1.0000   1.0000
     1.0000   1.0000   1.0000   1.0000   1.0000   1.0000   1.0000   1.0000
     1.0000   1.0000   1.0000   1.0000   1.0000   1.0000   1.0000   1.0000
     1.0000   1.0000   1.0000   1.0000   1.0000   1.0000   1.0000   1.0000
     1.0000   1.0000   1.0000   1.0000   1.0000   1.0000   1.0000   1.0000
     1.0000   1.0000   1.0000   1.0000   1.0000   1.0000   1.0000   1.0000
     1.0000   1.0000   1.0000   1.0000   1.0000   1.0000   1.0000   1.0000
     1.0000   1.0000   0.0000

          k = 0.0000 0.4619 0.0000 (112236 PWs)   bands (ev):

   -73.8144 -73.8104 -73.8078 -73.8052 -73.8035 -73.8019 -73.7990 -73.7967
   -73.7949 -73.7896 -73.7886 -73.7873 -73.7830 -73.7421 -73.7324 -73.7295
   -38.2015 -38.1972 -38.1856 -38.1785 -38.1735 -38.1590 -38.1554 -38.1394
   -38.1249 -38.1177 -38.0968 -38.0941 -38.0572 -38.0509 -38.0435 -38.0340
   -38.0278 -38.0165 -38.0109 -38.0080 -38.0037 -38.0024 -37.9993 -37.9982
   -37.9955 -37.9923 -37.9920 -37.9884 -37.9847 -37.9831 -37.9771 -37.9740
   -37.9678 -37.9613 -37.9594 -37.9513 -37.9458 -37.9420 -37.9396 -37.9344
   -37.9330 -37.9229 -37.9184 -37.9099 -37.8998 -37.8849 -37.8790 -37.8634
   -21.4916 -15.4059 -14.4321 -14.2308 -13.8690 -13.8515 -13.2601 -13.2283
   -13.0156 -12.9970 -12.9681 -12.9142 -12.8309 -12.7272 -12.7028 -12.6870
   -12.5181 -12.5106 -12.4589 -12.4481 -12.4346 -12.4237 -12.3807 -12.3670
   -12.3488 -12.2828 -12.2137 -12.2001 -12.1756 -12.1575 -12.1557 -12.1514
   -12.0554 -12.0380  -7.9147  -7.5413  -6.1710  -6.1190  -6.1058  -6.0866
    -6.0216  -5.8683  -5.8563  -5.8312  -5.7088  -5.5286  -5.4960  -5.4831
    -5.4559  -5.4432  -5.4341  -5.3882  -5.3708  -5.3213  -5.2980  -5.0646
    -5.0592  -5.0264  -5.0070  -4.8035  -4.6220  -4.5173  -4.4798  -4.4357
    -4.3911  -4.3714  -4.3454  -4.3076  -4.2411  -4.2263  -4.1885  -4.1568
    -4.1260  -4.1150  -4.1004  -4.0739  -4.0638  -4.0490  -4.0389  -3.6788
    -3.5652  -3.5037  -3.4725  -3.4378  -3.4129  -3.3837  -3.3630  -3.3070
    -3.2852  -3.2765  -3.2579  -3.2334  -3.2157  -3.1827  -3.1536  -3.1034
    -3.0591  -3.0457  -3.0021  -2.9507  -2.9324  -2.9054  -2.8426  -2.7580
    -2.7232  -2.6935  -2.6434  -2.6280  -2.5932  -2.5530  -2.5233  -2.4781
    -2.4397  -2.4256  -2.3893  -2.3113  -2.2736  -2.2471  -2.2381  -2.1695
    -2.1030  -2.0810  -2.0339  -2.0091  -2.0024  -1.9908  -1.9704  -1.9351
    -1.9184  -1.8974  -1.8748  -1.8644  -1.8498  -1.8375  -1.8278  -1.8220
    -1.7621  -1.7511  -1.7112  -1.7037  -1.6774  -1.6519  -1.6230  -1.6096
    -1.5814  -1.5476  -1.5163  -1.4865  -1.4190  -1.3813  -1.2969  -1.2791
    -1.2225  -1.1959  -1.1858  -1.1386  -1.1118  -1.0915  -1.0392  -0.9889
    -0.9656  -0.8841  -0.7281  -0.7132  -0.6357  -0.6157  -0.4786  -0.4506
    -0.4389  -0.4273  -0.3936  -0.3703  -0.2989  -0.0824   0.0061   0.0357
     0.1534   1.3147   1.7583

     occupation numbers 
     1.0000   1.0000   1.0000   1.0000   1.0000   1.0000   1.0000   1.0000
     1.0000   1.0000   1.0000   1.0000   1.0000   1.0000   1.0000   1.0000
     1.0000   1.0000   1.0000   1.0000   1.0000   1.0000   1.0000   1.0000
     1.0000   1.0000   1.0000   1.0000   1.0000   1.0000   1.0000   1.0000
     1.0000   1.0000   1.0000   1.0000   1.0000   1.0000   1.0000   1.0000
     1.0000   1.0000   1.0000   1.0000   1.0000   1.0000   1.0000   1.0000
     1.0000   1.0000   1.0000   1.0000   1.0000   1.0000   1.0000   1.0000
     1.0000   1.0000   1.0000   1.0000   1.0000   1.0000   1.0000   1.0000
     1.0000   1.0000   1.0000   1.0000   1.0000   1.0000   1.0000   1.0000
     1.0000   1.0000   1.0000   1.0000   1.0000   1.0000   1.0000   1.0000
     1.0000   1.0000   1.0000   1.0000   1.0000   1.0000   1.0000   1.0000
     1.0000   1.0000   1.0000   1.0000   1.0000   1.0000   1.0000   1.0000
     1.0000   1.0000   1.0000   1.0000   1.0000   1.0000   1.0000   1.0000
     1.0000   1.0000   1.0000   1.0000   1.0000   1.0000   1.0000   1.0000
     1.0000   1.0000   1.0000   1.0000   1.0000   1.0000   1.0000   1.0000
     1.0000   1.0000   1.0000   1.0000   1.0000   1.0000   1.0000   1.0000
     1.0000   1.0000   1.0000   1.0000   1.0000   1.0000   1.0000   1.0000
     1.0000   1.0000   1.0000   1.0000   1.0000   1.0000   1.0000   1.0000
     1.0000   1.0000   1.0000   1.0000   1.0000   1.0000   1.0000   1.0000
     1.0000   1.0000   1.0000   1.0000   1.0000   1.0000   1.0000   1.0000
     1.0000   1.0000   1.0000   1.0000   1.0000   1.0000   1.0000   1.0000
     1.0000   1.0000   1.0000   1.0000   1.0000   1.0000   1.0000   1.0000
     1.0000   1.0000   1.0000   1.0000   1.0000   1.0000   1.0000   1.0000
     1.0000   1.0000   1.0000   1.0000   1.0000   1.0000   1.0000   1.0000
     1.0000   1.0000   1.0000   1.0000   1.0000   1.0000   1.0000   1.0000
     1.0000   1.0000   1.0000   1.0000   1.0000   1.0000   1.0000   1.0000
     1.0000   1.0000   1.0000   1.0000   1.0000   1.0000   1.0000   1.0000
     1.0000   1.0000   1.0000   1.0000   1.0000   1.0000   1.0000   1.0000
     1.0000   1.0000   1.0000   1.0000   1.0000   1.0000   1.0000   1.0000
     1.0000   1.0000   1.0000   1.0000   1.0000   1.0000   1.0000   1.0000
     1.0000   1.0000   0.0000

          k = 0.2000 0.3464 0.0000 (112231 PWs)   bands (ev):

   -73.8144 -73.8105 -73.8075 -73.8053 -73.8032 -73.8019 -73.7993 -73.7968
   -73.7946 -73.7897 -73.7886 -73.7873 -73.7830 -73.7421 -73.7324 -73.7295
   -38.2057 -38.1966 -38.1959 -38.1732 -38.1680 -38.1590 -38.1491 -38.1420
   -38.1272 -38.1166 -38.1058 -38.0709 -38.0539 -38.0484 -38.0440 -38.0326
   -38.0278 -38.0231 -38.0178 -38.0151 -38.0116 -38.0061 -37.9994 -37.9978
   -37.9923 -37.9891 -37.9875 -37.9853 -37.9830 -37.9805 -37.9772 -37.9760
   -37.9705 -37.9665 -37.9581 -37.9527 -37.9500 -37.9472 -37.9384 -37.9340
   -37.9274 -37.9211 -37.9181 -37.9098 -37.8966 -37.8898 -37.8747 -37.8621
   -21.4916 -15.4059 -14.4720 -14.0990 -14.0577 -13.5636 -13.5617 -13.1696
   -13.1173 -13.0060 -12.9321 -12.8058 -12.7870 -12.7071 -12.6705 -12.6014
   -12.5920 -12.5747 -12.5696 -12.4545 -12.4229 -12.3885 -12.3744 -12.3106
   -12.2888 -12.2704 -12.2509 -12.2305 -12.2197 -12.1531 -12.1485 -12.1058
   -12.0947 -12.0345  -7.9147  -7.5413  -6.1787  -6.1701  -6.1397  -6.1196
    -6.1018  -5.7546  -5.7315  -5.7166  -5.6761  -5.6409  -5.5988  -5.5604
    -5.5017  -5.4700  -5.3513  -5.3288  -5.2809  -5.2715  -5.2394  -5.2226
    -5.0922  -4.9002  -4.8857  -4.8106  -4.7494  -4.5934  -4.4842  -4.4584
    -4.3915  -4.3620  -4.3343  -4.2988  -4.2733  -4.2600  -4.2298  -4.2219
    -4.1687  -4.1188  -4.1039  -4.0887  -4.0533  -3.7566  -3.7305  -3.7214
    -3.7138  -3.6884  -3.5965  -3.4906  -3.4223  -3.3908  -3.3453  -3.3151
    -3.2800  -3.2404  -3.2177  -3.1993  -3.1628  -3.1465  -3.0945  -3.0880
    -3.0334  -3.0010  -2.9656  -2.9444  -2.9363  -2.9186  -2.9038  -2.8912
    -2.7934  -2.7178  -2.6896  -2.6408  -2.6047  -2.5367  -2.5025  -2.4711
    -2.4542  -2.4258  -2.3810  -2.3546  -2.3051  -2.2092  -2.1718  -2.1539
    -2.1212  -2.1197  -2.0815  -2.0716  -1.9968  -1.9822  -1.9663  -1.9385
    -1.9172  -1.8934  -1.8695  -1.8452  -1.8298  -1.8152  -1.7879  -1.7358
    -1.7226  -1.7077  -1.6979  -1.6637  -1.6576  -1.6102  -1.5826  -1.5693
    -1.5607  -1.5344  -1.5222  -1.4952  -1.4150  -1.3830  -1.3691  -1.3564
    -1.2798  -1.2166  -1.1999  -1.1757  -1.1487  -1.1038  -1.0214  -0.9905
    -0.8685  -0.8370  -0.6750  -0.6654  -0.6312  -0.6220  -0.6086  -0.5337
    -0.5250  -0.4192  -0.3686  -0.2501  -0.2010  -0.1917  -0.1435   0.0796
     0.1651   1.3284   1.7286

     occupation numbers 
     1.0000   1.0000   1.0000   1.0000   1.0000   1.0000   1.0000   1.0000
     1.0000   1.0000   1.0000   1.0000   1.0000   1.0000   1.0000   1.0000
     1.0000   1.0000   1.0000   1.0000   1.0000   1.0000   1.0000   1.0000
     1.0000   1.0000   1.0000   1.0000   1.0000   1.0000   1.0000   1.0000
     1.0000   1.0000   1.0000   1.0000   1.0000   1.0000   1.0000   1.0000
     1.0000   1.0000   1.0000   1.0000   1.0000   1.0000   1.0000   1.0000
     1.0000   1.0000   1.0000   1.0000   1.0000   1.0000   1.0000   1.0000
     1.0000   1.0000   1.0000   1.0000   1.0000   1.0000   1.0000   1.0000
     1.0000   1.0000   1.0000   1.0000   1.0000   1.0000   1.0000   1.0000
     1.0000   1.0000   1.0000   1.0000   1.0000   1.0000   1.0000   1.0000
     1.0000   1.0000   1.0000   1.0000   1.0000   1.0000   1.0000   1.0000
     1.0000   1.0000   1.0000   1.0000   1.0000   1.0000   1.0000   1.0000
     1.0000   1.0000   1.0000   1.0000   1.0000   1.0000   1.0000   1.0000
     1.0000   1.0000   1.0000   1.0000   1.0000   1.0000   1.0000   1.0000
     1.0000   1.0000   1.0000   1.0000   1.0000   1.0000   1.0000   1.0000
     1.0000   1.0000   1.0000   1.0000   1.0000   1.0000   1.0000   1.0000
     1.0000   1.0000   1.0000   1.0000   1.0000   1.0000   1.0000   1.0000
     1.0000   1.0000   1.0000   1.0000   1.0000   1.0000   1.0000   1.0000
     1.0000   1.0000   1.0000   1.0000   1.0000   1.0000   1.0000   1.0000
     1.0000   1.0000   1.0000   1.0000   1.0000   1.0000   1.0000   1.0000
     1.0000   1.0000   1.0000   1.0000   1.0000   1.0000   1.0000   1.0000
     1.0000   1.0000   1.0000   1.0000   1.0000   1.0000   1.0000   1.0000
     1.0000   1.0000   1.0000   1.0000   1.0000   1.0000   1.0000   1.0000
     1.0000   1.0000   1.0000   1.0000   1.0000   1.0000   1.0000   1.0000
     1.0000   1.0000   1.0000   1.0000   1.0000   1.0000   1.0000   1.0000
     1.0000   1.0000   1.0000   1.0000   1.0000   1.0000   1.0000   1.0000
     1.0000   1.0000   1.0000   1.0000   1.0000   1.0000   1.0000   1.0000
     1.0000   1.0000   1.0000   1.0000   1.0000   1.0000   1.0000   1.0000
     1.0000   1.0000   1.0000   1.0000   1.0000   1.0000   1.0000   1.0000
     1.0000   1.0000   1.0000   1.0000   1.0000   1.0000   1.0000   1.0000
     1.0000   1.0000   0.0000

          k = 0.2000 0.5774 0.0000 (112237 PWs)   bands (ev):

   -73.8144 -73.8105 -73.8078 -73.8053 -73.8033 -73.8019 -73.7991 -73.7968
   -73.7948 -73.7897 -73.7886 -73.7873 -73.7830 -73.7421 -73.7324 -73.7295
   -38.1965 -38.1896 -38.1809 -38.1767 -38.1710 -38.1672 -38.1591 -38.1437
   -38.1397 -38.1236 -38.0863 -38.0850 -38.0771 -38.0457 -38.0418 -38.0353
   -38.0298 -38.0234 -38.0141 -38.0105 -38.0045 -38.0007 -37.9988 -37.9969
   -37.9958 -37.9939 -37.9892 -37.9851 -37.9826 -37.9770 -37.9698 -37.9658
   -37.9607 -37.9564 -37.9541 -37.9513 -37.9501 -37.9425 -37.9388 -37.9353
   -37.9321 -37.9251 -37.9210 -37.9169 -37.9051 -37.8875 -37.8752 -37.8668
   -21.4916 -15.4059 -14.3323 -14.2902 -14.1122 -13.5926 -13.2965 -13.2917
   -12.9483 -12.9450 -12.8860 -12.8506 -12.8383 -12.8004 -12.7909 -12.6557
   -12.6283 -12.6005 -12.4888 -12.4823 -12.3807 -12.3690 -12.3556 -12.3221
   -12.3076 -12.2957 -12.2564 -12.2318 -12.2308 -12.1288 -12.1187 -12.1163
   -12.0775 -12.0150  -7.9147  -7.5413  -6.1676  -6.0448  -5.9988  -5.9822
    -5.9155  -5.8905  -5.8711  -5.8444  -5.8057  -5.7405  -5.6822  -5.6189
    -5.6103  -5.5376  -5.3587  -5.2610  -5.2509  -5.2140  -5.1988  -5.1668
    -5.1506  -4.8514  -4.8276  -4.7442  -4.6276  -4.5716  -4.5419  -4.5148
    -4.4691  -4.4122  -4.3925  -4.3124  -4.3062  -4.2360  -4.2287  -4.2086
    -4.1824  -4.1616  -4.1192  -4.0929  -3.9498  -3.9463  -3.7847  -3.6571
    -3.6337  -3.5596  -3.4274  -3.3836  -3.3507  -3.3182  -3.2977  -3.2800
    -3.2652  -3.2558  -3.2379  -3.2283  -3.2110  -3.1952  -3.1360  -3.1166
    -3.0927  -3.0746  -3.0568  -3.0246  -2.9924  -2.9225  -2.8684  -2.8121
    -2.7293  -2.6980  -2.6793  -2.6564  -2.5998  -2.5394  -2.4937  -2.4422
    -2.3849  -2.3272  -2.3150  -2.3009  -2.2454  -2.1900  -2.1676  -2.1243
    -2.1085  -2.0934  -2.0684  -2.0471  -2.0070  -1.9735  -1.9545  -1.9434
    -1.9251  -1.9057  -1.8862  -1.8697  -1.8612  -1.8487  -1.8383  -1.8286
    -1.8107  -1.7721  -1.7490  -1.7249  -1.6965  -1.6708  -1.6584  -1.6361
    -1.6027  -1.5613  -1.5437  -1.4909  -1.4729  -1.4583  -1.3924  -1.3211
    -1.2662  -1.1854  -1.1519  -1.1343  -1.0868  -1.0732  -0.9984  -0.9725
    -0.8071  -0.7918  -0.6958  -0.6835  -0.6505  -0.6363  -0.5862  -0.5752
    -0.5572  -0.3922  -0.2722  -0.2629  -0.1807  -0.1177  -0.0572   0.1205
     0.1963   1.3366   1.7416

     occupation numbers 
     1.0000   1.0000   1.0000   1.0000   1.0000   1.0000   1.0000   1.0000
     1.0000   1.0000   1.0000   1.0000   1.0000   1.0000   1.0000   1.0000
     1.0000   1.0000   1.0000   1.0000   1.0000   1.0000   1.0000   1.0000
     1.0000   1.0000   1.0000   1.0000   1.0000   1.0000   1.0000   1.0000
     1.0000   1.0000   1.0000   1.0000   1.0000   1.0000   1.0000   1.0000
     1.0000   1.0000   1.0000   1.0000   1.0000   1.0000   1.0000   1.0000
     1.0000   1.0000   1.0000   1.0000   1.0000   1.0000   1.0000   1.0000
     1.0000   1.0000   1.0000   1.0000   1.0000   1.0000   1.0000   1.0000
     1.0000   1.0000   1.0000   1.0000   1.0000   1.0000   1.0000   1.0000
     1.0000   1.0000   1.0000   1.0000   1.0000   1.0000   1.0000   1.0000
     1.0000   1.0000   1.0000   1.0000   1.0000   1.0000   1.0000   1.0000
     1.0000   1.0000   1.0000   1.0000   1.0000   1.0000   1.0000   1.0000
     1.0000   1.0000   1.0000   1.0000   1.0000   1.0000   1.0000   1.0000
     1.0000   1.0000   1.0000   1.0000   1.0000   1.0000   1.0000   1.0000
     1.0000   1.0000   1.0000   1.0000   1.0000   1.0000   1.0000   1.0000
     1.0000   1.0000   1.0000   1.0000   1.0000   1.0000   1.0000   1.0000
     1.0000   1.0000   1.0000   1.0000   1.0000   1.0000   1.0000   1.0000
     1.0000   1.0000   1.0000   1.0000   1.0000   1.0000   1.0000   1.0000
     1.0000   1.0000   1.0000   1.0000   1.0000   1.0000   1.0000   1.0000
     1.0000   1.0000   1.0000   1.0000   1.0000   1.0000   1.0000   1.0000
     1.0000   1.0000   1.0000   1.0000   1.0000   1.0000   1.0000   1.0000
     1.0000   1.0000   1.0000   1.0000   1.0000   1.0000   1.0000   1.0000
     1.0000   1.0000   1.0000   1.0000   1.0000   1.0000   1.0000   1.0000
     1.0000   1.0000   1.0000   1.0000   1.0000   1.0000   1.0000   1.0000
     1.0000   1.0000   1.0000   1.0000   1.0000   1.0000   1.0000   1.0000
     1.0000   1.0000   1.0000   1.0000   1.0000   1.0000   1.0000   1.0000
     1.0000   1.0000   1.0000   1.0000   1.0000   1.0000   1.0000   1.0000
     1.0000   1.0000   1.0000   1.0000   1.0000   1.0000   1.0000   1.0000
     1.0000   1.0000   1.0000   1.0000   1.0000   1.0000   1.0000   1.0000
     1.0000   1.0000   1.0000   1.0000   1.0000   1.0000   1.0000   1.0000
     1.0000   1.0000   0.0000

          k =-0.2000 0.1155 0.0000 (112171 PWs)   bands (ev):

   -73.8146 -73.8103 -73.8073 -73.8055 -73.8030 -73.8024 -73.7991 -73.7968
   -73.7946 -73.7896 -73.7886 -73.7872 -73.7830 -73.7421 -73.7324 -73.7295
   -38.2116 -38.2113 -38.2066 -38.1628 -38.1595 -38.1569 -38.1513 -38.1398
   -38.1327 -38.0966 -38.0727 -38.0705 -38.0472 -38.0435 -38.0382 -38.0291
   -38.0230 -38.0212 -38.0203 -38.0189 -38.0123 -38.0106 -38.0093 -38.0059
   -38.0000 -37.9951 -37.9935 -37.9921 -37.9890 -37.9876 -37.9854 -37.9835
   -37.9800 -37.9771 -37.9562 -37.9531 -37.9505 -37.9464 -37.9365 -37.9284
   -37.9245 -37.9147 -37.9106 -37.9042 -37.9001 -37.8901 -37.8645 -37.8605
   -21.4916 -15.4059 -14.5539 -13.9729 -13.7986 -13.7862 -13.4763 -13.4715
   -13.3229 -12.9644 -12.7881 -12.7537 -12.6894 -12.6796 -12.6556 -12.5845
   -12.5623 -12.5188 -12.4945 -12.4769 -12.4664 -12.4311 -12.4218 -12.3053
   -12.2927 -12.2600 -12.2428 -12.2114 -12.1852 -12.1737 -12.1667 -12.1503
   -12.0939 -12.0797  -7.9147  -7.5413  -6.2795  -6.2591  -6.2388  -6.2261
    -6.1587  -5.6687  -5.6327  -5.6200  -5.5445  -5.5265  -5.4861  -5.4663
    -5.4334  -5.4144  -5.3806  -5.3248  -5.3089  -5.2787  -5.2733  -5.0766
    -5.0600  -5.0122  -4.9978  -4.9484  -4.7367  -4.7331  -4.5634  -4.5045
    -4.4404  -4.3673  -4.3359  -4.2737  -4.2018  -4.1580  -4.1431  -4.1197
    -4.0965  -4.0616  -4.0374  -3.9931  -3.9805  -3.9120  -3.9018  -3.8932
    -3.6495  -3.5813  -3.5292  -3.4967  -3.4717  -3.4554  -3.4410  -3.3710
    -3.3624  -3.3077  -3.2914  -3.2742  -3.2535  -3.2015  -3.1900  -3.1497
    -3.0743  -2.9685  -2.9451  -2.9121  -2.8139  -2.7889  -2.7647  -2.7390
    -2.7161  -2.7034  -2.6908  -2.6814  -2.6628  -2.6349  -2.5806  -2.5388
    -2.4942  -2.4766  -2.4617  -2.4260  -2.3551  -2.3013  -2.1784  -2.1654
    -2.1129  -2.0656  -2.0134  -1.9920  -1.9644  -1.9541  -1.9236  -1.8995
    -1.8742  -1.8547  -1.8308  -1.8113  -1.7898  -1.7616  -1.7302  -1.7182
    -1.7034  -1.6900  -1.6744  -1.6536  -1.6436  -1.5989  -1.5654  -1.5438
    -1.5147  -1.4952  -1.4887  -1.4312  -1.4228  -1.3585  -1.3434  -1.3224
    -1.3057  -1.2721  -1.2441  -1.2134  -1.1458  -1.0718  -1.0353  -0.9898
    -0.8939  -0.7692  -0.7513  -0.7313  -0.5782  -0.5629  -0.5421  -0.5274
    -0.5109  -0.5020  -0.4058  -0.3756  -0.3510  -0.2417  -0.1654  -0.1377
     0.1985   1.3283   1.6817

     occupation numbers 
     1.0000   1.0000   1.0000   1.0000   1.0000   1.0000   1.0000   1.0000
     1.0000   1.0000   1.0000   1.0000   1.0000   1.0000   1.0000   1.0000
     1.0000   1.0000   1.0000   1.0000   1.0000   1.0000   1.0000   1.0000
     1.0000   1.0000   1.0000   1.0000   1.0000   1.0000   1.0000   1.0000
     1.0000   1.0000   1.0000   1.0000   1.0000   1.0000   1.0000   1.0000
     1.0000   1.0000   1.0000   1.0000   1.0000   1.0000   1.0000   1.0000
     1.0000   1.0000   1.0000   1.0000   1.0000   1.0000   1.0000   1.0000
     1.0000   1.0000   1.0000   1.0000   1.0000   1.0000   1.0000   1.0000
     1.0000   1.0000   1.0000   1.0000   1.0000   1.0000   1.0000   1.0000
     1.0000   1.0000   1.0000   1.0000   1.0000   1.0000   1.0000   1.0000
     1.0000   1.0000   1.0000   1.0000   1.0000   1.0000   1.0000   1.0000
     1.0000   1.0000   1.0000   1.0000   1.0000   1.0000   1.0000   1.0000
     1.0000   1.0000   1.0000   1.0000   1.0000   1.0000   1.0000   1.0000
     1.0000   1.0000   1.0000   1.0000   1.0000   1.0000   1.0000   1.0000
     1.0000   1.0000   1.0000   1.0000   1.0000   1.0000   1.0000   1.0000
     1.0000   1.0000   1.0000   1.0000   1.0000   1.0000   1.0000   1.0000
     1.0000   1.0000   1.0000   1.0000   1.0000   1.0000   1.0000   1.0000
     1.0000   1.0000   1.0000   1.0000   1.0000   1.0000   1.0000   1.0000
     1.0000   1.0000   1.0000   1.0000   1.0000   1.0000   1.0000   1.0000
     1.0000   1.0000   1.0000   1.0000   1.0000   1.0000   1.0000   1.0000
     1.0000   1.0000   1.0000   1.0000   1.0000   1.0000   1.0000   1.0000
     1.0000   1.0000   1.0000   1.0000   1.0000   1.0000   1.0000   1.0000
     1.0000   1.0000   1.0000   1.0000   1.0000   1.0000   1.0000   1.0000
     1.0000   1.0000   1.0000   1.0000   1.0000   1.0000   1.0000   1.0000
     1.0000   1.0000   1.0000   1.0000   1.0000   1.0000   1.0000   1.0000
     1.0000   1.0000   1.0000   1.0000   1.0000   1.0000   1.0000   1.0000
     1.0000   1.0000   1.0000   1.0000   1.0000   1.0000   1.0000   1.0000
     1.0000   1.0000   1.0000   1.0000   1.0000   1.0000   1.0000   1.0000
     1.0000   1.0000   1.0000   1.0000   1.0000   1.0000   1.0000   1.0000
     1.0000   1.0000   1.0000   1.0000   1.0000   1.0000   1.0000   1.0000
     1.0000   1.0000   0.0000

          k = 0.2000 0.1155 0.0000 (112171 PWs)   bands (ev):

   -73.8146 -73.8104 -73.8073 -73.8055 -73.8031 -73.8022 -73.7993 -73.7969
   -73.7945 -73.7897 -73.7886 -73.7872 -73.7830 -73.7421 -73.7324 -73.7295
   -38.2123 -38.2100 -38.2072 -38.1641 -38.1590 -38.1561 -38.1505 -38.1399
   -38.1333 -38.0968 -38.0729 -38.0703 -38.0473 -38.0423 -38.0397 -38.0290
   -38.0236 -38.0213 -38.0196 -38.0180 -38.0133 -38.0104 -38.0085 -38.0060
   -38.0004 -37.9951 -37.9941 -37.9907 -37.9887 -37.9879 -37.9865 -37.9834
   -37.9801 -37.9770 -37.9552 -37.9542 -37.9506 -37.9461 -37.9364 -37.9285
   -37.9242 -37.9142 -37.9112 -37.9042 -37.9000 -37.8905 -37.8663 -37.8587
   -21.4916 -15.4059 -14.5539 -13.9730 -13.7979 -13.7867 -13.4751 -13.4734
   -13.3222 -12.9645 -12.7879 -12.7531 -12.6887 -12.6813 -12.6560 -12.5843
   -12.5634 -12.5176 -12.4922 -12.4788 -12.4663 -12.4331 -12.4209 -12.3009
   -12.2925 -12.2628 -12.2458 -12.2069 -12.1908 -12.1713 -12.1692 -12.1474
   -12.0912 -12.0822  -7.9147  -7.5413  -6.2736  -6.2616  -6.2420  -6.2268
    -6.1587  -5.6615  -5.6382  -5.6167  -5.5444  -5.5317  -5.4851  -5.4679
    -5.4377  -5.4195  -5.3676  -5.3242  -5.3117  -5.2791  -5.2720  -5.0739
    -5.0670  -5.0106  -5.0010  -4.9425  -4.7380  -4.7334  -4.5571  -4.5047
    -4.4352  -4.3881  -4.3353  -4.2682  -4.2007  -4.1588  -4.1453  -4.1202
    -4.0960  -4.0525  -4.0369  -3.9998  -3.9795  -3.9093  -3.9055  -3.8955
    -3.6418  -3.5626  -3.5440  -3.5025  -3.4628  -3.4532  -3.4358  -3.3781
    -3.3682  -3.3050  -3.2955  -3.2784  -3.2445  -3.2076  -3.1929  -3.1435
    -3.0826  -2.9820  -2.9352  -2.9008  -2.8111  -2.7906  -2.7692  -2.7409
    -2.7275  -2.7042  -2.6926  -2.6821  -2.6485  -2.6224  -2.5737  -2.5424
    -2.5179  -2.4829  -2.4647  -2.4140  -2.3516  -2.2943  -2.1892  -2.1634
    -2.1070  -2.0665  -2.0112  -1.9836  -1.9591  -1.9465  -1.9152  -1.9013
    -1.8936  -1.8673  -1.8290  -1.8103  -1.7966  -1.7661  -1.7318  -1.7256
    -1.7014  -1.6838  -1.6708  -1.6471  -1.6285  -1.6099  -1.5841  -1.5317
    -1.5257  -1.4971  -1.4484  -1.4383  -1.4190  -1.3937  -1.3456  -1.3060
    -1.3016  -1.2906  -1.2396  -1.1971  -1.1524  -1.0513  -1.0364  -1.0068
    -0.8911  -0.7595  -0.7500  -0.7452  -0.5890  -0.5539  -0.5419  -0.5268
    -0.5136  -0.5062  -0.4015  -0.3770  -0.3460  -0.2426  -0.1615  -0.1414
     0.1991   1.3230   1.6884

     occupation numbers 
     1.0000   1.0000   1.0000   1.0000   1.0000   1.0000   1.0000   1.0000
     1.0000   1.0000   1.0000   1.0000   1.0000   1.0000   1.0000   1.0000
     1.0000   1.0000   1.0000   1.0000   1.0000   1.0000   1.0000   1.0000
     1.0000   1.0000   1.0000   1.0000   1.0000   1.0000   1.0000   1.0000
     1.0000   1.0000   1.0000   1.0000   1.0000   1.0000   1.0000   1.0000
     1.0000   1.0000   1.0000   1.0000   1.0000   1.0000   1.0000   1.0000
     1.0000   1.0000   1.0000   1.0000   1.0000   1.0000   1.0000   1.0000
     1.0000   1.0000   1.0000   1.0000   1.0000   1.0000   1.0000   1.0000
     1.0000   1.0000   1.0000   1.0000   1.0000   1.0000   1.0000   1.0000
     1.0000   1.0000   1.0000   1.0000   1.0000   1.0000   1.0000   1.0000
     1.0000   1.0000   1.0000   1.0000   1.0000   1.0000   1.0000   1.0000
     1.0000   1.0000   1.0000   1.0000   1.0000   1.0000   1.0000   1.0000
     1.0000   1.0000   1.0000   1.0000   1.0000   1.0000   1.0000   1.0000
     1.0000   1.0000   1.0000   1.0000   1.0000   1.0000   1.0000   1.0000
     1.0000   1.0000   1.0000   1.0000   1.0000   1.0000   1.0000   1.0000
     1.0000   1.0000   1.0000   1.0000   1.0000   1.0000   1.0000   1.0000
     1.0000   1.0000   1.0000   1.0000   1.0000   1.0000   1.0000   1.0000
     1.0000   1.0000   1.0000   1.0000   1.0000   1.0000   1.0000   1.0000
     1.0000   1.0000   1.0000   1.0000   1.0000   1.0000   1.0000   1.0000
     1.0000   1.0000   1.0000   1.0000   1.0000   1.0000   1.0000   1.0000
     1.0000   1.0000   1.0000   1.0000   1.0000   1.0000   1.0000   1.0000
     1.0000   1.0000   1.0000   1.0000   1.0000   1.0000   1.0000   1.0000
     1.0000   1.0000   1.0000   1.0000   1.0000   1.0000   1.0000   1.0000
     1.0000   1.0000   1.0000   1.0000   1.0000   1.0000   1.0000   1.0000
     1.0000   1.0000   1.0000   1.0000   1.0000   1.0000   1.0000   1.0000
     1.0000   1.0000   1.0000   1.0000   1.0000   1.0000   1.0000   1.0000
     1.0000   1.0000   1.0000   1.0000   1.0000   1.0000   1.0000   1.0000
     1.0000   1.0000   1.0000   1.0000   1.0000   1.0000   1.0000   1.0000
     1.0000   1.0000   1.0000   1.0000   1.0000   1.0000   1.0000   1.0000
     1.0000   1.0000   1.0000   1.0000   1.0000   1.0000   1.0000   1.0000
     1.0000   1.0000   0.0000

          k =-0.4000 0.2309 0.0000 (112236 PWs)   bands (ev):

   -73.8144 -73.8106 -73.8075 -73.8055 -73.8028 -73.8024 -73.7991 -73.7968
   -73.7946 -73.7897 -73.7886 -73.7872 -73.7830 -73.7421 -73.7324 -73.7295
   -38.2010 -38.1984 -38.1850 -38.1798 -38.1731 -38.1575 -38.1553 -38.1393
   -38.1238 -38.1178 -38.0981 -38.0943 -38.0575 -38.0513 -38.0434 -38.0349
   -38.0246 -38.0206 -38.0080 -38.0076 -38.0058 -38.0039 -37.9999 -37.9969
   -37.9945 -37.9918 -37.9909 -37.9892 -37.9857 -37.9821 -37.9770 -37.9748
   -37.9680 -37.9607 -37.9580 -37.9519 -37.9455 -37.9427 -37.9402 -37.9369
   -37.9293 -37.9235 -37.9176 -37.9098 -37.9005 -37.8857 -37.8781 -37.8637
   -21.4916 -15.4059 -14.4324 -14.2301 -13.8659 -13.8557 -13.2460 -13.2407
   -13.0204 -12.9943 -12.9725 -12.9083 -12.8306 -12.7294 -12.7016 -12.6832
   -12.5309 -12.5048 -12.4589 -12.4508 -12.4287 -12.4233 -12.3843 -12.3615
   -12.3509 -12.2808 -12.2194 -12.1975 -12.1747 -12.1597 -12.1537 -12.1508
   -12.0550 -12.0389  -7.9147  -7.5413  -6.1705  -6.1251  -6.1031  -6.0850
    -6.0186  -5.8716  -5.8526  -5.8333  -5.7072  -5.5257  -5.5069  -5.4814
    -5.4503  -5.4427  -5.4347  -5.3859  -5.3766  -5.3135  -5.3059  -5.0761
    -5.0541  -5.0207  -5.0039  -4.7987  -4.6000  -4.5452  -4.4726  -4.4367
    -4.4089  -4.3689  -4.3490  -4.3052  -4.2414  -4.2180  -4.1926  -4.1574
    -4.1190  -4.1103  -4.0984  -4.0725  -4.0654  -4.0491  -4.0383  -3.6723
    -3.5629  -3.5153  -3.4698  -3.4508  -3.4208  -3.3912  -3.3529  -3.3137
    -3.2843  -3.2756  -3.2560  -3.2386  -3.2104  -3.1924  -3.1419  -3.1125
    -3.0634  -3.0326  -3.0066  -2.9456  -2.9264  -2.8946  -2.8201  -2.7601
    -2.7150  -2.6969  -2.6461  -2.6230  -2.5892  -2.5749  -2.5443  -2.4767
    -2.4242  -2.4184  -2.3887  -2.3266  -2.2751  -2.2472  -2.2389  -2.1613
    -2.1145  -2.0932  -2.0485  -2.0255  -2.0062  -1.9875  -1.9511  -1.9172
    -1.9036  -1.8906  -1.8804  -1.8626  -1.8541  -1.8461  -1.8347  -1.8163
    -1.7732  -1.7448  -1.7013  -1.6855  -1.6807  -1.6553  -1.6411  -1.6074
    -1.5809  -1.5489  -1.4922  -1.4636  -1.4421  -1.3483  -1.3196  -1.2908
    -1.2590  -1.2072  -1.1688  -1.1230  -1.1125  -1.0928  -1.0667  -0.9802
    -0.9524  -0.8701  -0.7284  -0.7121  -0.6342  -0.6169  -0.4967  -0.4488
    -0.4413  -0.4194  -0.3986  -0.3683  -0.2862  -0.0924   0.0072   0.0383
     0.1488   1.3747   1.6891

     occupation numbers 
     1.0000   1.0000   1.0000   1.0000   1.0000   1.0000   1.0000   1.0000
     1.0000   1.0000   1.0000   1.0000   1.0000   1.0000   1.0000   1.0000
     1.0000   1.0000   1.0000   1.0000   1.0000   1.0000   1.0000   1.0000
     1.0000   1.0000   1.0000   1.0000   1.0000   1.0000   1.0000   1.0000
     1.0000   1.0000   1.0000   1.0000   1.0000   1.0000   1.0000   1.0000
     1.0000   1.0000   1.0000   1.0000   1.0000   1.0000   1.0000   1.0000
     1.0000   1.0000   1.0000   1.0000   1.0000   1.0000   1.0000   1.0000
     1.0000   1.0000   1.0000   1.0000   1.0000   1.0000   1.0000   1.0000
     1.0000   1.0000   1.0000   1.0000   1.0000   1.0000   1.0000   1.0000
     1.0000   1.0000   1.0000   1.0000   1.0000   1.0000   1.0000   1.0000
     1.0000   1.0000   1.0000   1.0000   1.0000   1.0000   1.0000   1.0000
     1.0000   1.0000   1.0000   1.0000   1.0000   1.0000   1.0000   1.0000
     1.0000   1.0000   1.0000   1.0000   1.0000   1.0000   1.0000   1.0000
     1.0000   1.0000   1.0000   1.0000   1.0000   1.0000   1.0000   1.0000
     1.0000   1.0000   1.0000   1.0000   1.0000   1.0000   1.0000   1.0000
     1.0000   1.0000   1.0000   1.0000   1.0000   1.0000   1.0000   1.0000
     1.0000   1.0000   1.0000   1.0000   1.0000   1.0000   1.0000   1.0000
     1.0000   1.0000   1.0000   1.0000   1.0000   1.0000   1.0000   1.0000
     1.0000   1.0000   1.0000   1.0000   1.0000   1.0000   1.0000   1.0000
     1.0000   1.0000   1.0000   1.0000   1.0000   1.0000   1.0000   1.0000
     1.0000   1.0000   1.0000   1.0000   1.0000   1.0000   1.0000   1.0000
     1.0000   1.0000   1.0000   1.0000   1.0000   1.0000   1.0000   1.0000
     1.0000   1.0000   1.0000   1.0000   1.0000   1.0000   1.0000   1.0000
     1.0000   1.0000   1.0000   1.0000   1.0000   1.0000   1.0000   1.0000
     1.0000   1.0000   1.0000   1.0000   1.0000   1.0000   1.0000   1.0000
     1.0000   1.0000   1.0000   1.0000   1.0000   1.0000   1.0000   1.0000
     1.0000   1.0000   1.0000   1.0000   1.0000   1.0000   1.0000   1.0000
     1.0000   1.0000   1.0000   1.0000   1.0000   1.0000   1.0000   1.0000
     1.0000   1.0000   1.0000   1.0000   1.0000   1.0000   1.0000   1.0000
     1.0000   1.0000   1.0000   1.0000   1.0000   1.0000   1.0000   1.0000
     1.0000   1.0000   0.0000

          k = 0.4000 0.2309 0.0000 (112236 PWs)   bands (ev):

   -73.8144 -73.8107 -73.8074 -73.8055 -73.8029 -73.8019 -73.7995 -73.7969
   -73.7944 -73.7898 -73.7885 -73.7873 -73.7830 -73.7421 -73.7325 -73.7295
   -38.1997 -38.1992 -38.1855 -38.1812 -38.1715 -38.1568 -38.1557 -38.1400
   -38.1232 -38.1176 -38.0991 -38.0944 -38.0560 -38.0526 -38.0433 -38.0351
   -38.0251 -38.0190 -38.0084 -38.0075 -38.0064 -38.0040 -38.0000 -37.9974
   -37.9927 -37.9922 -37.9905 -37.9883 -37.9868 -37.9824 -37.9770 -37.9745
   -37.9696 -37.9601 -37.9582 -37.9515 -37.9444 -37.9428 -37.9405 -37.9360
   -37.9281 -37.9244 -37.9185 -37.9108 -37.8985 -37.8866 -37.8815 -37.8612
   -21.4916 -15.4059 -14.4323 -14.2302 -13.8654 -13.8562 -13.2456 -13.2420
   -13.0173 -12.9939 -12.9746 -12.9075 -12.8312 -12.7271 -12.7035 -12.6841
   -12.5386 -12.4970 -12.4631 -12.4482 -12.4277 -12.4232 -12.3849 -12.3600
   -12.3486 -12.2807 -12.2265 -12.1954 -12.1764 -12.1587 -12.1539 -12.1482
   -12.0521 -12.0414  -7.9147  -7.5413  -6.1704  -6.1158  -6.1067  -6.0836
    -6.0313  -5.8644  -5.8526  -5.8301  -5.7118  -5.5274  -5.5060  -5.4842
    -5.4456  -5.4444  -5.4365  -5.3856  -5.3784  -5.3111  -5.3047  -5.0688
    -5.0654  -5.0191  -5.0082  -4.7717  -4.6093  -4.5539  -4.4790  -4.4468
    -4.4151  -4.3681  -4.3452  -4.3015  -4.2357  -4.2223  -4.1882  -4.1546
    -4.1224  -4.1127  -4.0994  -4.0739  -4.0608  -4.0469  -4.0395  -3.6591
    -3.5572  -3.5164  -3.4587  -3.4449  -3.4247  -3.3950  -3.3551  -3.3218
    -3.2874  -3.2712  -3.2502  -3.2324  -3.2151  -3.1994  -3.1316  -3.1133
    -3.0722  -3.0531  -3.0132  -2.9461  -2.9246  -2.8990  -2.8282  -2.7608
    -2.7123  -2.6795  -2.6348  -2.6127  -2.6092  -2.5932  -2.5030  -2.4875
    -2.4496  -2.4253  -2.3670  -2.3263  -2.2694  -2.2538  -2.2385  -2.1419
    -2.1109  -2.0997  -2.0335  -2.0058  -1.9968  -1.9783  -1.9686  -1.9528
    -1.9262  -1.8958  -1.8813  -1.8608  -1.8479  -1.8425  -1.8339  -1.8115
    -1.7930  -1.7322  -1.7159  -1.6943  -1.6843  -1.6337  -1.6219  -1.6152
    -1.5916  -1.5446  -1.5020  -1.4894  -1.4076  -1.3560  -1.3033  -1.2843
    -1.2466  -1.2284  -1.1864  -1.1308  -1.1139  -1.0553  -1.0401  -0.9898
    -0.9660  -0.8774  -0.7246  -0.7185  -0.6336  -0.6232  -0.5045  -0.4524
    -0.4435  -0.4168  -0.4010  -0.3570  -0.2807  -0.0932   0.0092   0.0345
     0.1513   1.3584   1.7099

     occupation numbers 
     1.0000   1.0000   1.0000   1.0000   1.0000   1.0000   1.0000   1.0000
     1.0000   1.0000   1.0000   1.0000   1.0000   1.0000   1.0000   1.0000
     1.0000   1.0000   1.0000   1.0000   1.0000   1.0000   1.0000   1.0000
     1.0000   1.0000   1.0000   1.0000   1.0000   1.0000   1.0000   1.0000
     1.0000   1.0000   1.0000   1.0000   1.0000   1.0000   1.0000   1.0000
     1.0000   1.0000   1.0000   1.0000   1.0000   1.0000   1.0000   1.0000
     1.0000   1.0000   1.0000   1.0000   1.0000   1.0000   1.0000   1.0000
     1.0000   1.0000   1.0000   1.0000   1.0000   1.0000   1.0000   1.0000
     1.0000   1.0000   1.0000   1.0000   1.0000   1.0000   1.0000   1.0000
     1.0000   1.0000   1.0000   1.0000   1.0000   1.0000   1.0000   1.0000
     1.0000   1.0000   1.0000   1.0000   1.0000   1.0000   1.0000   1.0000
     1.0000   1.0000   1.0000   1.0000   1.0000   1.0000   1.0000   1.0000
     1.0000   1.0000   1.0000   1.0000   1.0000   1.0000   1.0000   1.0000
     1.0000   1.0000   1.0000   1.0000   1.0000   1.0000   1.0000   1.0000
     1.0000   1.0000   1.0000   1.0000   1.0000   1.0000   1.0000   1.0000
     1.0000   1.0000   1.0000   1.0000   1.0000   1.0000   1.0000   1.0000
     1.0000   1.0000   1.0000   1.0000   1.0000   1.0000   1.0000   1.0000
     1.0000   1.0000   1.0000   1.0000   1.0000   1.0000   1.0000   1.0000
     1.0000   1.0000   1.0000   1.0000   1.0000   1.0000   1.0000   1.0000
     1.0000   1.0000   1.0000   1.0000   1.0000   1.0000   1.0000   1.0000
     1.0000   1.0000   1.0000   1.0000   1.0000   1.0000   1.0000   1.0000
     1.0000   1.0000   1.0000   1.0000   1.0000   1.0000   1.0000   1.0000
     1.0000   1.0000   1.0000   1.0000   1.0000   1.0000   1.0000   1.0000
     1.0000   1.0000   1.0000   1.0000   1.0000   1.0000   1.0000   1.0000
     1.0000   1.0000   1.0000   1.0000   1.0000   1.0000   1.0000   1.0000
     1.0000   1.0000   1.0000   1.0000   1.0000   1.0000   1.0000   1.0000
     1.0000   1.0000   1.0000   1.0000   1.0000   1.0000   1.0000   1.0000
     1.0000   1.0000   1.0000   1.0000   1.0000   1.0000   1.0000   1.0000
     1.0000   1.0000   1.0000   1.0000   1.0000   1.0000   1.0000   1.0000
     1.0000   1.0000   1.0000   1.0000   1.0000   1.0000   1.0000   1.0000
     1.0000   1.0000   0.0000

          k =-0.2000 0.3464 0.0000 (112231 PWs)   bands (ev):

   -73.8145 -73.8104 -73.8076 -73.8054 -73.8032 -73.8021 -73.7990 -73.7967
   -73.7948 -73.7896 -73.7886 -73.7872 -73.7830 -73.7421 -73.7324 -73.7295
   -38.2060 -38.1975 -38.1949 -38.1728 -38.1677 -38.1596 -38.1492 -38.1425
   -38.1267 -38.1186 -38.1031 -38.0703 -38.0552 -38.0488 -38.0443 -38.0322
   -38.0279 -38.0228 -38.0175 -38.0163 -38.0113 -38.0052 -37.9995 -37.9971
   -37.9938 -37.9893 -37.9875 -37.9850 -37.9834 -37.9791 -37.9771 -37.9760
   -37.9700 -37.9681 -37.9580 -37.9526 -37.9497 -37.9474 -37.9380 -37.9347
   -37.9274 -37.9208 -37.9177 -37.9121 -37.8952 -37.8888 -37.8732 -37.8640
   -21.4916 -15.4059 -14.4721 -14.0985 -14.0583 -13.5708 -13.5540 -13.1705
   -13.1176 -13.0060 -12.9320 -12.8048 -12.7880 -12.7028 -12.6712 -12.6159
   -12.5821 -12.5750 -12.5669 -12.4521 -12.4241 -12.3907 -12.3770 -12.3079
   -12.2902 -12.2717 -12.2494 -12.2251 -12.2218 -12.1548 -12.1481 -12.1067
   -12.0947 -12.0342  -7.9147  -7.5413  -6.1861  -6.1711  -6.1339  -6.1178
    -6.0989  -5.7582  -5.7307  -5.7130  -5.6944  -5.6235  -5.5991  -5.5575
    -5.5038  -5.4728  -5.3521  -5.3263  -5.2958  -5.2623  -5.2379  -5.2157
    -5.0941  -4.9092  -4.8903  -4.7917  -4.7539  -4.5982  -4.5048  -4.4391
    -4.3912  -4.3404  -4.3305  -4.3047  -4.2780  -4.2562  -4.2410  -4.2222
    -4.1604  -4.1260  -4.1076  -4.0907  -4.0513  -3.7654  -3.7348  -3.7238
    -3.7044  -3.6868  -3.5975  -3.5001  -3.4146  -3.3764  -3.3651  -3.3007
    -3.2796  -3.2366  -3.2237  -3.1977  -3.1600  -3.1442  -3.1112  -3.0795
    -3.0526  -3.0018  -2.9563  -2.9389  -2.9239  -2.9191  -2.9087  -2.8946
    -2.7756  -2.7173  -2.6867  -2.6651  -2.5973  -2.5432  -2.5120  -2.4681
    -2.4522  -2.4007  -2.3804  -2.3560  -2.3128  -2.2077  -2.1901  -2.1460
    -2.1244  -2.1170  -2.0983  -2.0658  -2.0227  -1.9775  -1.9653  -1.9286
    -1.9027  -1.8903  -1.8591  -1.8424  -1.8164  -1.8095  -1.7869  -1.7621
    -1.7302  -1.7020  -1.6858  -1.6669  -1.6412  -1.6249  -1.5797  -1.5772
    -1.5551  -1.5438  -1.5188  -1.4933  -1.4261  -1.3892  -1.3782  -1.3383
    -1.2747  -1.2385  -1.1876  -1.1681  -1.1505  -1.1069  -1.0368  -0.9770
    -0.8712  -0.8273  -0.6821  -0.6654  -0.6291  -0.6189  -0.6036  -0.5340
    -0.5299  -0.4089  -0.3784  -0.2522  -0.1993  -0.1908  -0.1452   0.0802
     0.1635   1.3363   1.7182

     occupation numbers 
     1.0000   1.0000   1.0000   1.0000   1.0000   1.0000   1.0000   1.0000
     1.0000   1.0000   1.0000   1.0000   1.0000   1.0000   1.0000   1.0000
     1.0000   1.0000   1.0000   1.0000   1.0000   1.0000   1.0000   1.0000
     1.0000   1.0000   1.0000   1.0000   1.0000   1.0000   1.0000   1.0000
     1.0000   1.0000   1.0000   1.0000   1.0000   1.0000   1.0000   1.0000
     1.0000   1.0000   1.0000   1.0000   1.0000   1.0000   1.0000   1.0000
     1.0000   1.0000   1.0000   1.0000   1.0000   1.0000   1.0000   1.0000
     1.0000   1.0000   1.0000   1.0000   1.0000   1.0000   1.0000   1.0000
     1.0000   1.0000   1.0000   1.0000   1.0000   1.0000   1.0000   1.0000
     1.0000   1.0000   1.0000   1.0000   1.0000   1.0000   1.0000   1.0000
     1.0000   1.0000   1.0000   1.0000   1.0000   1.0000   1.0000   1.0000
     1.0000   1.0000   1.0000   1.0000   1.0000   1.0000   1.0000   1.0000
     1.0000   1.0000   1.0000   1.0000   1.0000   1.0000   1.0000   1.0000
     1.0000   1.0000   1.0000   1.0000   1.0000   1.0000   1.0000   1.0000
     1.0000   1.0000   1.0000   1.0000   1.0000   1.0000   1.0000   1.0000
     1.0000   1.0000   1.0000   1.0000   1.0000   1.0000   1.0000   1.0000
     1.0000   1.0000   1.0000   1.0000   1.0000   1.0000   1.0000   1.0000
     1.0000   1.0000   1.0000   1.0000   1.0000   1.0000   1.0000   1.0000
     1.0000   1.0000   1.0000   1.0000   1.0000   1.0000   1.0000   1.0000
     1.0000   1.0000   1.0000   1.0000   1.0000   1.0000   1.0000   1.0000
     1.0000   1.0000   1.0000   1.0000   1.0000   1.0000   1.0000   1.0000
     1.0000   1.0000   1.0000   1.0000   1.0000   1.0000   1.0000   1.0000
     1.0000   1.0000   1.0000   1.0000   1.0000   1.0000   1.0000   1.0000
     1.0000   1.0000   1.0000   1.0000   1.0000   1.0000   1.0000   1.0000
     1.0000   1.0000   1.0000   1.0000   1.0000   1.0000   1.0000   1.0000
     1.0000   1.0000   1.0000   1.0000   1.0000   1.0000   1.0000   1.0000
     1.0000   1.0000   1.0000   1.0000   1.0000   1.0000   1.0000   1.0000
     1.0000   1.0000   1.0000   1.0000   1.0000   1.0000   1.0000   1.0000
     1.0000   1.0000   1.0000   1.0000   1.0000   1.0000   1.0000   1.0000
     1.0000   1.0000   1.0000   1.0000   1.0000   1.0000   1.0000   1.0000
     1.0000   1.0000   0.0000

          k = 0.4000-0.0000 0.0000 (112231 PWs)   bands (ev):

   -73.8144 -73.8106 -73.8074 -73.8055 -73.8028 -73.8023 -73.7993 -73.7969
   -73.7945 -73.7898 -73.7886 -73.7872 -73.7830 -73.7421 -73.7324 -73.7295
   -38.2061 -38.1971 -38.1953 -38.1726 -38.1688 -38.1594 -38.1490 -38.1416
   -38.1254 -38.1171 -38.1065 -38.0713 -38.0541 -38.0485 -38.0441 -38.0331
   -38.0266 -38.0234 -38.0184 -38.0163 -38.0112 -38.0062 -37.9998 -37.9955
   -37.9932 -37.9897 -37.9872 -37.9857 -37.9827 -37.9801 -37.9770 -37.9762
   -37.9695 -37.9663 -37.9586 -37.9531 -37.9506 -37.9465 -37.9379 -37.9361
   -37.9255 -37.9208 -37.9177 -37.9106 -37.8966 -37.8902 -37.8742 -37.8624
   -21.4916 -15.4059 -14.4721 -14.0963 -14.0605 -13.5643 -13.5611 -13.1667
   -13.1198 -13.0098 -12.9264 -12.8020 -12.7909 -12.7070 -12.6788 -12.6004
   -12.5965 -12.5724 -12.5579 -12.4544 -12.4205 -12.4092 -12.3624 -12.3061
   -12.2906 -12.2686 -12.2515 -12.2338 -12.2188 -12.1555 -12.1453 -12.1052
   -12.0955 -12.0346  -7.9147  -7.5413  -6.1777  -6.1740  -6.1395  -6.1133
    -6.1049  -5.7508  -5.7359  -5.7172  -5.6820  -5.6308  -5.6046  -5.5562
    -5.5016  -5.4702  -5.3484  -5.3317  -5.2869  -5.2682  -5.2401  -5.2247
    -5.0934  -4.8966  -4.8836  -4.8053  -4.7532  -4.5615  -4.5287  -4.4539
    -4.4038  -4.3424  -4.3345  -4.3078  -4.2728  -4.2608  -4.2385  -4.2056
    -4.1717  -4.1146  -4.1064  -4.0870  -4.0509  -3.7557  -3.7293  -3.7227
    -3.7028  -3.6934  -3.6084  -3.4788  -3.4238  -3.3920  -3.3657  -3.3115
    -3.2760  -3.2402  -3.2278  -3.1974  -3.1694  -3.1392  -3.1191  -3.0755
    -3.0326  -2.9855  -2.9626  -2.9440  -2.9356  -2.9125  -2.8978  -2.8889
    -2.7631  -2.7334  -2.6891  -2.6389  -2.6104  -2.5641  -2.5255  -2.4618
    -2.4553  -2.4103  -2.3794  -2.3355  -2.3117  -2.2145  -2.1741  -2.1456
    -2.1222  -2.1178  -2.0957  -2.0838  -1.9952  -1.9780  -1.9648  -1.9317
    -1.9163  -1.8910  -1.8685  -1.8552  -1.8385  -1.8132  -1.7749  -1.7534
    -1.7243  -1.6986  -1.6815  -1.6654  -1.6445  -1.6176  -1.5868  -1.5672
    -1.5481  -1.5388  -1.5192  -1.4917  -1.4407  -1.4027  -1.3584  -1.3300
    -1.2773  -1.2528  -1.1934  -1.1717  -1.1447  -1.0963  -1.0374  -0.9762
    -0.8609  -0.8415  -0.6765  -0.6678  -0.6291  -0.6154  -0.6075  -0.5333
    -0.5288  -0.4271  -0.3718  -0.2449  -0.2002  -0.1861  -0.1482   0.0778
     0.1631   1.3665   1.6856

     occupation numbers 
     1.0000   1.0000   1.0000   1.0000   1.0000   1.0000   1.0000   1.0000
     1.0000   1.0000   1.0000   1.0000   1.0000   1.0000   1.0000   1.0000
     1.0000   1.0000   1.0000   1.0000   1.0000   1.0000   1.0000   1.0000
     1.0000   1.0000   1.0000   1.0000   1.0000   1.0000   1.0000   1.0000
     1.0000   1.0000   1.0000   1.0000   1.0000   1.0000   1.0000   1.0000
     1.0000   1.0000   1.0000   1.0000   1.0000   1.0000   1.0000   1.0000
     1.0000   1.0000   1.0000   1.0000   1.0000   1.0000   1.0000   1.0000
     1.0000   1.0000   1.0000   1.0000   1.0000   1.0000   1.0000   1.0000
     1.0000   1.0000   1.0000   1.0000   1.0000   1.0000   1.0000   1.0000
     1.0000   1.0000   1.0000   1.0000   1.0000   1.0000   1.0000   1.0000
     1.0000   1.0000   1.0000   1.0000   1.0000   1.0000   1.0000   1.0000
     1.0000   1.0000   1.0000   1.0000   1.0000   1.0000   1.0000   1.0000
     1.0000   1.0000   1.0000   1.0000   1.0000   1.0000   1.0000   1.0000
     1.0000   1.0000   1.0000   1.0000   1.0000   1.0000   1.0000   1.0000
     1.0000   1.0000   1.0000   1.0000   1.0000   1.0000   1.0000   1.0000
     1.0000   1.0000   1.0000   1.0000   1.0000   1.0000   1.0000   1.0000
     1.0000   1.0000   1.0000   1.0000   1.0000   1.0000   1.0000   1.0000
     1.0000   1.0000   1.0000   1.0000   1.0000   1.0000   1.0000   1.0000
     1.0000   1.0000   1.0000   1.0000   1.0000   1.0000   1.0000   1.0000
     1.0000   1.0000   1.0000   1.0000   1.0000   1.0000   1.0000   1.0000
     1.0000   1.0000   1.0000   1.0000   1.0000   1.0000   1.0000   1.0000
     1.0000   1.0000   1.0000   1.0000   1.0000   1.0000   1.0000   1.0000
     1.0000   1.0000   1.0000   1.0000   1.0000   1.0000   1.0000   1.0000
     1.0000   1.0000   1.0000   1.0000   1.0000   1.0000   1.0000   1.0000
     1.0000   1.0000   1.0000   1.0000   1.0000   1.0000   1.0000   1.0000
     1.0000   1.0000   1.0000   1.0000   1.0000   1.0000   1.0000   1.0000
     1.0000   1.0000   1.0000   1.0000   1.0000   1.0000   1.0000   1.0000
     1.0000   1.0000   1.0000   1.0000   1.0000   1.0000   1.0000   1.0000
     1.0000   1.0000   1.0000   1.0000   1.0000   1.0000   1.0000   1.0000
     1.0000   1.0000   1.0000   1.0000   1.0000   1.0000   1.0000   1.0000
     1.0000   1.0000   0.0000

          k =-0.4000 0.4619 0.0000 (112237 PWs)   bands (ev):

   -73.8144 -73.8106 -73.8076 -73.8055 -73.8029 -73.8022 -73.7991 -73.7968
   -73.7946 -73.7898 -73.7886 -73.7872 -73.7830 -73.7421 -73.7324 -73.7295
   -38.1964 -38.1904 -38.1806 -38.1780 -38.1703 -38.1664 -38.1584 -38.1435
   -38.1397 -38.1236 -38.0872 -38.0840 -38.0781 -38.0451 -38.0416 -38.0359
   -38.0287 -38.0250 -38.0163 -38.0081 -38.0055 -38.0007 -37.9986 -37.9965
   -37.9946 -37.9935 -37.9901 -37.9856 -37.9823 -37.9770 -37.9697 -37.9664
   -37.9608 -37.9560 -37.9532 -37.9516 -37.9500 -37.9432 -37.9386 -37.9369
   -37.9311 -37.9244 -37.9200 -37.9168 -37.9060 -37.8876 -37.8749 -37.8670
   -21.4916 -15.4059 -14.3340 -14.2878 -14.1128 -13.5932 -13.2946 -13.2918
   -12.9558 -12.9455 -12.8828 -12.8543 -12.8250 -12.7995 -12.7942 -12.6613
   -12.6322 -12.5937 -12.4910 -12.4813 -12.3847 -12.3723 -12.3446 -12.3231
   -12.3084 -12.2965 -12.2586 -12.2331 -12.2279 -12.1316 -12.1186 -12.1129
   -12.0784 -12.0152  -7.9147  -7.5413  -6.1674  -6.0457  -6.0123  -5.9657
    -5.9104  -5.8864  -5.8731  -5.8546  -5.8056  -5.7411  -5.6822  -5.6214
    -5.6060  -5.5381  -5.3543  -5.2786  -5.2431  -5.2126  -5.1969  -5.1645
    -5.1532  -4.8489  -4.8283  -4.7379  -4.6165  -4.5807  -4.5389  -4.5180
    -4.4850  -4.4196  -4.3778  -4.3198  -4.3025  -4.2382  -4.2234  -4.2038
    -4.1892  -4.1596  -4.1178  -4.0911  -3.9520  -3.9441  -3.7847  -3.6619
    -3.6093  -3.5832  -3.4220  -3.3857  -3.3505  -3.3179  -3.2984  -3.2749
    -3.2694  -3.2612  -3.2375  -3.2261  -3.2159  -3.2078  -3.1400  -3.1164
    -3.0909  -3.0740  -3.0540  -3.0353  -2.9811  -2.9187  -2.8373  -2.7966
    -2.7297  -2.7022  -2.6851  -2.6613  -2.6053  -2.5771  -2.4854  -2.4046
    -2.3889  -2.3202  -2.3161  -2.3096  -2.2591  -2.1800  -2.1658  -2.1485
    -2.1282  -2.0832  -2.0687  -2.0399  -2.0176  -1.9643  -1.9509  -1.9350
    -1.9223  -1.9087  -1.8852  -1.8712  -1.8581  -1.8472  -1.8401  -1.8327
    -1.8058  -1.7805  -1.7433  -1.7148  -1.6927  -1.6762  -1.6548  -1.6389
    -1.6129  -1.5716  -1.5190  -1.4940  -1.4742  -1.4522  -1.4026  -1.3011
    -1.2658  -1.2261  -1.1584  -1.1092  -1.0864  -1.0652  -1.0329  -0.9493
    -0.8087  -0.7808  -0.6947  -0.6840  -0.6501  -0.6371  -0.5939  -0.5745
    -0.5579  -0.3924  -0.2722  -0.2674  -0.1690  -0.1129  -0.0702   0.1213
     0.1947   1.3743   1.6998

     occupation numbers 
     1.0000   1.0000   1.0000   1.0000   1.0000   1.0000   1.0000   1.0000
     1.0000   1.0000   1.0000   1.0000   1.0000   1.0000   1.0000   1.0000
     1.0000   1.0000   1.0000   1.0000   1.0000   1.0000   1.0000   1.0000
     1.0000   1.0000   1.0000   1.0000   1.0000   1.0000   1.0000   1.0000
     1.0000   1.0000   1.0000   1.0000   1.0000   1.0000   1.0000   1.0000
     1.0000   1.0000   1.0000   1.0000   1.0000   1.0000   1.0000   1.0000
     1.0000   1.0000   1.0000   1.0000   1.0000   1.0000   1.0000   1.0000
     1.0000   1.0000   1.0000   1.0000   1.0000   1.0000   1.0000   1.0000
     1.0000   1.0000   1.0000   1.0000   1.0000   1.0000   1.0000   1.0000
     1.0000   1.0000   1.0000   1.0000   1.0000   1.0000   1.0000   1.0000
     1.0000   1.0000   1.0000   1.0000   1.0000   1.0000   1.0000   1.0000
     1.0000   1.0000   1.0000   1.0000   1.0000   1.0000   1.0000   1.0000
     1.0000   1.0000   1.0000   1.0000   1.0000   1.0000   1.0000   1.0000
     1.0000   1.0000   1.0000   1.0000   1.0000   1.0000   1.0000   1.0000
     1.0000   1.0000   1.0000   1.0000   1.0000   1.0000   1.0000   1.0000
     1.0000   1.0000   1.0000   1.0000   1.0000   1.0000   1.0000   1.0000
     1.0000   1.0000   1.0000   1.0000   1.0000   1.0000   1.0000   1.0000
     1.0000   1.0000   1.0000   1.0000   1.0000   1.0000   1.0000   1.0000
     1.0000   1.0000   1.0000   1.0000   1.0000   1.0000   1.0000   1.0000
     1.0000   1.0000   1.0000   1.0000   1.0000   1.0000   1.0000   1.0000
     1.0000   1.0000   1.0000   1.0000   1.0000   1.0000   1.0000   1.0000
     1.0000   1.0000   1.0000   1.0000   1.0000   1.0000   1.0000   1.0000
     1.0000   1.0000   1.0000   1.0000   1.0000   1.0000   1.0000   1.0000
     1.0000   1.0000   1.0000   1.0000   1.0000   1.0000   1.0000   1.0000
     1.0000   1.0000   1.0000   1.0000   1.0000   1.0000   1.0000   1.0000
     1.0000   1.0000   1.0000   1.0000   1.0000   1.0000   1.0000   1.0000
     1.0000   1.0000   1.0000   1.0000   1.0000   1.0000   1.0000   1.0000
     1.0000   1.0000   1.0000   1.0000   1.0000   1.0000   1.0000   1.0000
     1.0000   1.0000   1.0000   1.0000   1.0000   1.0000   1.0000   1.0000
     1.0000   1.0000   1.0000   1.0000   1.0000   1.0000   1.0000   1.0000
     1.0000   1.0000   0.0000

          k = 0.6000 0.1155 0.0000 (112237 PWs)   bands (ev):

   -73.8143 -73.8107 -73.8075 -73.8054 -73.8029 -73.8019 -73.7994 -73.7969
   -73.7945 -73.7898 -73.7885 -73.7873 -73.7830 -73.7421 -73.7324 -73.7295
   -38.1955 -38.1912 -38.1813 -38.1781 -38.1698 -38.1660 -38.1582 -38.1435
   -38.1402 -38.1232 -38.0871 -38.0845 -38.0787 -38.0438 -38.0417 -38.0362
   -38.0286 -38.0253 -38.0153 -38.0086 -38.0061 -38.0004 -37.9990 -37.9972
   -37.9947 -37.9922 -37.9900 -37.9860 -37.9823 -37.9770 -37.9698 -37.9658
   -37.9621 -37.9558 -37.9531 -37.9518 -37.9493 -37.9438 -37.9383 -37.9356
   -37.9301 -37.9249 -37.9200 -37.9181 -37.9056 -37.8884 -37.8772 -37.8647
   -21.4916 -15.4059 -14.3335 -14.2884 -14.1127 -13.5932 -13.3020 -13.2842
   -12.9624 -12.9386 -12.8780 -12.8580 -12.8251 -12.7996 -12.7950 -12.6643
   -12.6308 -12.5919 -12.5011 -12.4708 -12.3915 -12.3685 -12.3409 -12.3194
   -12.3087 -12.2985 -12.2620 -12.2335 -12.2288 -12.1295 -12.1193 -12.1133
   -12.0779 -12.0154  -7.9147  -7.5413  -6.1674  -6.0423  -6.0090  -5.9637
    -5.9210  -5.9031  -5.8739  -5.8316  -5.8044  -5.7461  -5.6844  -5.6190
    -5.6083  -5.5344  -5.3526  -5.2758  -5.2516  -5.2198  -5.1937  -5.1674
    -5.1444  -4.8512  -4.8349  -4.6878  -4.6408  -4.6028  -4.5456  -4.5091
    -4.4853  -4.4299  -4.3775  -4.3171  -4.2951  -4.2384  -4.2286  -4.1951
    -4.1862  -4.1637  -4.1172  -4.0930  -3.9538  -3.9431  -3.7815  -3.6598
    -3.6111  -3.5747  -3.4229  -3.3636  -3.3541  -3.3255  -3.2912  -3.2819
    -3.2788  -3.2545  -3.2394  -3.2284  -3.2165  -3.1963  -3.1706  -3.1361
    -3.0819  -3.0729  -3.0500  -3.0143  -2.9847  -2.9300  -2.8337  -2.7960
    -2.7349  -2.7122  -2.6910  -2.6355  -2.6173  -2.5407  -2.4956  -2.4506
    -2.3845  -2.3267  -2.3113  -2.2890  -2.2398  -2.1916  -2.1679  -2.1358
    -2.1124  -2.0932  -2.0711  -2.0309  -2.0062  -1.9735  -1.9580  -1.9454
    -1.9263  -1.8965  -1.8920  -1.8748  -1.8642  -1.8555  -1.8481  -1.8325
    -1.7990  -1.7839  -1.7344  -1.7211  -1.6878  -1.6806  -1.6490  -1.6296
    -1.6123  -1.5919  -1.5239  -1.5107  -1.4654  -1.4250  -1.3884  -1.3129
    -1.2742  -1.2186  -1.1517  -1.1312  -1.0905  -1.0454  -1.0090  -0.9690
    -0.8053  -0.7847  -0.6912  -0.6889  -0.6507  -0.6447  -0.5933  -0.5869
    -0.5438  -0.3938  -0.2748  -0.2610  -0.1666  -0.1162  -0.0694   0.1217
     0.1952   1.3646   1.7119

     occupation numbers 
     1.0000   1.0000   1.0000   1.0000   1.0000   1.0000   1.0000   1.0000
     1.0000   1.0000   1.0000   1.0000   1.0000   1.0000   1.0000   1.0000
     1.0000   1.0000   1.0000   1.0000   1.0000   1.0000   1.0000   1.0000
     1.0000   1.0000   1.0000   1.0000   1.0000   1.0000   1.0000   1.0000
     1.0000   1.0000   1.0000   1.0000   1.0000   1.0000   1.0000   1.0000
     1.0000   1.0000   1.0000   1.0000   1.0000   1.0000   1.0000   1.0000
     1.0000   1.0000   1.0000   1.0000   1.0000   1.0000   1.0000   1.0000
     1.0000   1.0000   1.0000   1.0000   1.0000   1.0000   1.0000   1.0000
     1.0000   1.0000   1.0000   1.0000   1.0000   1.0000   1.0000   1.0000
     1.0000   1.0000   1.0000   1.0000   1.0000   1.0000   1.0000   1.0000
     1.0000   1.0000   1.0000   1.0000   1.0000   1.0000   1.0000   1.0000
     1.0000   1.0000   1.0000   1.0000   1.0000   1.0000   1.0000   1.0000
     1.0000   1.0000   1.0000   1.0000   1.0000   1.0000   1.0000   1.0000
     1.0000   1.0000   1.0000   1.0000   1.0000   1.0000   1.0000   1.0000
     1.0000   1.0000   1.0000   1.0000   1.0000   1.0000   1.0000   1.0000
     1.0000   1.0000   1.0000   1.0000   1.0000   1.0000   1.0000   1.0000
     1.0000   1.0000   1.0000   1.0000   1.0000   1.0000   1.0000   1.0000
     1.0000   1.0000   1.0000   1.0000   1.0000   1.0000   1.0000   1.0000
     1.0000   1.0000   1.0000   1.0000   1.0000   1.0000   1.0000   1.0000
     1.0000   1.0000   1.0000   1.0000   1.0000   1.0000   1.0000   1.0000
     1.0000   1.0000   1.0000   1.0000   1.0000   1.0000   1.0000   1.0000
     1.0000   1.0000   1.0000   1.0000   1.0000   1.0000   1.0000   1.0000
     1.0000   1.0000   1.0000   1.0000   1.0000   1.0000   1.0000   1.0000
     1.0000   1.0000   1.0000   1.0000   1.0000   1.0000   1.0000   1.0000
     1.0000   1.0000   1.0000   1.0000   1.0000   1.0000   1.0000   1.0000
     1.0000   1.0000   1.0000   1.0000   1.0000   1.0000   1.0000   1.0000
     1.0000   1.0000   1.0000   1.0000   1.0000   1.0000   1.0000   1.0000
     1.0000   1.0000   1.0000   1.0000   1.0000   1.0000   1.0000   1.0000
     1.0000   1.0000   1.0000   1.0000   1.0000   1.0000   1.0000   1.0000
     1.0000   1.0000   1.0000   1.0000   1.0000   1.0000   1.0000   1.0000
     1.0000   1.0000   0.0000

     highest occupied, lowest unoccupied level (ev):     1.6176    1.6761

!    total energy              =  -16138.55553997 Ry
     total all-electron energy =   -595550.628745 Ry
     estimated scf accuracy    <          4.8E-11 Ry

     The total energy is the sum of the following terms:
     one-electron contribution =  -18311.83366016 Ry
     hartree contribution      =    9259.69344815 Ry
     xc contribution           =    -931.73248390 Ry
     ewald contribution        =    6415.30694222 Ry
     DFT-D3 Dispersion         =      -0.65558208 Ry
     one-center paw contrib.   =  -12569.33420420 Ry
      -> PAW hartree energy AE =      92.00271928 Ry
      -> PAW hartree energy PS =     -91.51066567 Ry
      -> PAW xc energy AE      =    -644.66490193 Ry
      -> PAW xc energy PS      =      38.62150391 Ry
      -> total E_H with PAW    =    9260.18550176 Ry
      -> total E_XC with PAW   =   -1537.77588192 Ry

     total magnetization       =     1.00 Bohr mag/cell
     absolute magnetization    =     1.12 Bohr mag/cell

     convergence has been achieved in  39 iterations

     negative rho (up, down):  4.796E-03 5.164E-03

     Forces acting on atoms (cartesian axes, Ry/au):

     atom    1 type  2   force =    -0.00000291   -0.00007500   -0.00014497
     atom    2 type  2   force =    -0.00019040    0.00001869    0.00013201
     atom    3 type  2   force =    -0.00024662   -0.00016194   -0.00000046
     atom    4 type  2   force =     0.00028087    0.00027486    0.00004766
     atom    5 type  2   force =    -0.00000752   -0.00022055    0.00000630
     atom    6 type  2   force =    -0.00000816    0.00002818   -0.00001690
     atom    7 type  2   force =     0.00004040   -0.00001524    0.00010254
     atom    8 type  2   force =     0.00014204    0.00006817    0.00006893
     atom    9 type  2   force =    -0.00021956   -0.00007612    0.00005448
     atom   10 type  2   force =     0.00008408    0.00009646    0.00009562
     atom   11 type  2   force =    -0.00002013    0.00022005   -0.00000531
     atom   12 type  2   force =    -0.00000702    0.00007002   -0.00013337
     atom   13 type  2   force =    -0.00013552    0.00015728    0.00008003
     atom   14 type  2   force =     0.00011296    0.00000645   -0.00000741
     atom   15 type  2   force =    -0.00001844   -0.00015811   -0.00007315
     atom   16 type  2   force =    -0.00023904   -0.00016316   -0.00004415
     atom   17 type  1   force =    -0.00009099    0.00017577   -0.00002121
     atom   18 type  1   force =    -0.00005806   -0.00018646   -0.00006945
     atom   19 type  1   force =    -0.00010945    0.00010989   -0.00003493
     atom   20 type  1   force =     0.00012708   -0.00002286   -0.00006705
     atom   21 type  1   force =    -0.00008469    0.00000604    0.00005372
     atom   22 type  1   force =    -0.00003646    0.00001580   -0.00033261
     atom   23 type  1   force =    -0.00005772    0.00000775    0.00005006
     atom   24 type  1   force =     0.00012064    0.00000167    0.00001301
     atom   25 type  1   force =    -0.00002055   -0.00003908    0.00001922
     atom   26 type  1   force =     0.00004886   -0.00007885   -0.00008304
     atom   27 type  1   force =     0.00008528    0.00008168   -0.00004233
     atom   28 type  1   force =    -0.00027535    0.00003166   -0.00036769
     atom   29 type  1   force =    -0.00002043   -0.00012694   -0.00012605
     atom   30 type  1   force =    -0.00007570   -0.00000632    0.00008139
     atom   31 type  1   force =    -0.00020117   -0.00006541   -0.00003872
     atom   32 type  1   force =     0.00024570    0.00007769   -0.00016415
     atom   33 type  1   force =     0.00002591    0.00005165   -0.00015957
     atom   34 type  1   force =     0.00000923    0.00006554    0.00004382
     atom   35 type  1   force =     0.00002252    0.00000082   -0.00003515
     atom   36 type  1   force =    -0.00003538   -0.00004483    0.00004632
     atom   37 type  1   force =    -0.00011242    0.00001690   -0.00012333
     atom   38 type  1   force =     0.00009373   -0.00015870    0.00000884
     atom   39 type  1   force =     0.00014408    0.00003152    0.00004204
     atom   40 type  1   force =     0.00011095   -0.00003019    0.00007048
     atom   41 type  1   force =    -0.00011715    0.00005138    0.00006574
     atom   42 type  1   force =     0.00004321    0.00005737    0.00000170
     atom   43 type  1   force =    -0.00025002    0.00000314    0.00014632
     atom   44 type  1   force =    -0.00007811    0.00009849   -0.00036875
     atom   45 type  1   force =    -0.00009881   -0.00004261    0.00005240
     atom   46 type  1   force =     0.00000854    0.00004009   -0.00015324
     atom   47 type  1   force =    -0.00004478   -0.00017304   -0.00015382
     atom   48 type  1   force =    -0.00002830    0.00004483    0.00014900
     atom   49 type  3   force =     0.00091538    0.00009514   -0.00022328
     atom   50 type  3   force =    -0.00024668   -0.00080947    0.00054722
     atom   51 type  3   force =    -0.00037674   -0.00012154   -0.00014491
     atom   52 type  3   force =     0.00042551    0.00033447    0.00055032
     atom   53 type  3   force =    -0.00023144    0.00033989    0.00026486
     atom   54 type  4   force =     0.00045653   -0.00011298    0.00080509
     atom   55 type  5   force =     0.00008454    0.00148479   -0.00546445
     atom   56 type  6   force =     0.00051422    0.00027604   -0.00013416
     atom   57 type  6   force =    -0.00006698   -0.00139089    0.00493914
     atom   58 type  6   force =    -0.00032958   -0.00015986    0.00019537
     The non-local contrib.  to forces
     atom    1 type  2   force =    -0.00047397    0.00024079   -0.00009447
     atom    2 type  2   force =     0.00035815   -0.00014708   -0.00019643
     atom    3 type  2   force =    -0.00390154   -0.00385909    0.00603840
     atom    4 type  2   force =    -0.00236637   -0.00005041    0.00309411
     atom    5 type  2   force =    -0.00054784    0.00927021    0.00836143
     atom    6 type  2   force =     0.00405581   -0.00044295    0.01270660
     atom    7 type  2   force =     0.00360770   -0.00282347    0.00572650
     atom    8 type  2   force =     0.00048139    0.00021862    0.00051586
     atom    9 type  2   force =     0.00018364    0.00103349    0.00331429
     atom   10 type  2   force =    -0.00362983    0.00166140    0.01382024
     atom   11 type  2   force =    -0.00040813   -0.00031181    0.01550956
     atom   12 type  2   force =     0.00588876   -0.00340959    0.00757010
     atom   13 type  2   force =    -0.00013280    0.00028707   -0.00031815
     atom   14 type  2   force =     0.00074675    0.00162552    0.00307614
     atom   15 type  2   force =    -0.00071703   -0.00210112    0.00704362
     atom   16 type  2   force =    -0.00286093   -0.00023745    0.00573330
     atom   17 type  1   force =     0.00083701    0.00126408   -0.27571827
     atom   18 type  1   force =     0.00428142    0.00239688   -0.27658449
     atom   19 type  1   force =     0.00095067    0.00009863   -0.27534940
     atom   20 type  1   force =    -0.00088142   -0.00064144   -0.27641418
     atom   21 type  1   force =    -0.00027214    0.00141412   -0.27546363
     atom   22 type  1   force =     0.01190817    0.02357244   -0.15672187
     atom   23 type  1   force =    -0.00170005   -0.00214728   -0.18671736
     atom   24 type  1   force =     0.00274194   -0.00128878   -0.27540990
     atom   25 type  1   force =     0.00011114   -0.00087114   -0.27675130
     atom   26 type  1   force =     0.00283891    0.00952310   -0.25650274
     atom   27 type  1   force =     0.01821201    0.00617525   -0.22553672
     atom   28 type  1   force =     0.01936866   -0.01738609   -0.19308485
     atom   29 type  1   force =     0.00089100   -0.00184713   -0.27492382
     atom   30 type  1   force =    -0.00195410    0.00125140   -0.27604752
     atom   31 type  1   force =    -0.02394008   -0.01160094   -0.21282628
     atom   32 type  1   force =    -0.00974679   -0.00786037   -0.24419761
     atom   33 type  1   force =    -0.00022909    0.00030860    0.27623167
     atom   34 type  1   force =     0.00171785    0.00243063    0.27673734
     atom   35 type  1   force =     0.00154061   -0.00048799    0.27628572
     atom   36 type  1   force =    -0.00083165   -0.00082714    0.27581759
     atom   37 type  1   force =     0.00033195    0.00197330    0.27562162
     atom   38 type  1   force =     0.00296302    0.00258245    0.27716911
     atom   39 type  1   force =     0.00248438    0.00066542    0.27704246
     atom   40 type  1   force =     0.00204804   -0.00164239    0.27530760
     atom   41 type  1   force =     0.00022088    0.00048153    0.27665450
     atom   42 type  1   force =    -0.00264570    0.00246972    0.27560375
     atom   43 type  1   force =    -0.00192073   -0.00055610    0.27975786
     atom   44 type  1   force =     0.00089164   -0.00429376    0.27701876
     atom   45 type  1   force =    -0.00063550   -0.00172540    0.27610557
     atom   46 type  1   force =    -0.00124671   -0.00047846    0.27628287
     atom   47 type  1   force =    -0.00342138   -0.00009050    0.27527097
     atom   48 type  1   force =    -0.00234694   -0.00163733    0.27540960
     atom   49 type  3   force =    -0.18412522    0.03078551   -0.06079587
     atom   50 type  3   force =    -0.00867046   -0.13019766   -0.07482951
     atom   51 type  3   force =     0.19401540   -0.01608009   -0.09597383
     atom   52 type  3   force =     0.02021087    0.14043350   -0.09324715
     atom   53 type  3   force =     0.02064467    0.02850625    0.14804810
     atom   54 type  4   force =    -0.86515604   -0.27394665    0.92838928
     atom   55 type  5   force =     1.88235708    0.57878309   -1.49834364
     atom   56 type  6   force =    -0.00667758   -0.07205505   -0.06509805
     atom   57 type  6   force =     0.01147175   -0.01659002    0.09737563
     atom   58 type  6   force =    -0.02969194    0.08339788   -0.04093444
     The ionic contribution  to forces
     atom    1 type  2   force =    -0.93918096   -0.19548264   -8.51203517
     atom    2 type  2   force =    -0.97102195   -1.15713588   -8.87989585
     atom    3 type  2   force =     1.92220792    0.65015752   -9.43980265
     atom    4 type  2   force =     1.76658704    1.72490834   -9.24154350
     atom    5 type  2   force =    -0.76036267   -3.39379776  -10.32525575
     atom    6 type  2   force =    -3.93389630   -3.11207624  -14.38114639
     atom    7 type  2   force =    -3.78918027    1.11522068  -12.06329096
     atom    8 type  2   force =    -0.45972749    0.22274322   -8.34420022
     atom    9 type  2   force =     1.12819671   -2.55035394  -10.29915846
     atom   10 type  2   force =     1.18887700   -3.57216707  -19.43151572
     atom   11 type  2   force =    -2.00128037    2.17427204  -20.50234478
     atom   12 type  2   force =    -1.90162764    2.98582643  -10.56691865
     atom   13 type  2   force =     0.52983036    0.57659438   -8.41984978
     atom   14 type  2   force =     3.83224536   -2.05749584  -11.86147080
     atom   15 type  2   force =     3.84722919    1.90207577  -17.31835217
     atom   16 type  2   force =     0.57181225    4.70773968  -12.98754051
     atom   17 type  1   force =    -0.14011998   -0.66128609   32.26090836
     atom   18 type  1   force =    -2.24109697   -1.69660106   31.29351332
     atom   19 type  1   force =    -1.12786843    0.05253619   31.69847338
     atom   20 type  1   force =     1.01144173    0.86403961   32.41881723
     atom   21 type  1   force =     0.17379871   -1.94579392   32.03459985
     atom   22 type  1   force =    -2.23786130   -5.30494885   25.62195146
     atom   23 type  1   force =    -4.76116330    0.06260911   24.69054675
     atom   24 type  1   force =    -2.11333856    1.73126616   31.40476938
     atom   25 type  1   force =    -0.02604741    0.43255836   32.25575893
     atom   26 type  1   force =     2.91753633   -4.06823876   28.41132568
     atom   27 type  1   force =     1.27437709   -0.00869604   20.49368627
     atom   28 type  1   force =    -2.26266945    5.24408900   26.48495609
     atom   29 type  1   force =     0.01976003    1.75670764   32.08045192
     atom   30 type  1   force =     1.12876633   -0.96855602   32.14842468
     atom   31 type  1   force =     4.85882085    0.33651994   28.22794877
     atom   32 type  1   force =     3.17860293    3.98402066   28.83916151
     atom   33 type  1   force =    -0.05126845   -0.12666791  -39.08003957
     atom   34 type  1   force =    -0.56946504   -0.42789548  -39.19370247
     atom   35 type  1   force =    -0.28919587   -0.04259502  -39.24754855
     atom   36 type  1   force =     0.27299420    0.22246117  -39.08996575
     atom   37 type  1   force =    -0.01846494   -0.48722672  -39.20272345
     atom   38 type  1   force =    -0.41732538   -0.93190679  -40.31567547
     atom   39 type  1   force =    -0.90998428   -0.05713017  -40.68655183
     atom   40 type  1   force =    -0.52227207    0.40401247  -39.34403450
     atom   41 type  1   force =     0.05822974    0.12838688  -39.16755975
     atom   42 type  1   force =     0.64040409   -0.72203750  -40.20941784
     atom   43 type  1   force =     0.29418332    0.05129024  -41.17798643
     atom   44 type  1   force =    -0.25863091    0.97340642  -40.32989058
     atom   45 type  1   force =     0.01557138    0.50327778  -39.10191294
     atom   46 type  1   force =     0.32789705   -0.23271017  -39.01140205
     atom   47 type  1   force =     0.87995890   -0.02486155  -39.93818269
     atom   48 type  1   force =     0.55136062    0.76663817  -40.07740068
     atom   49 type  3   force =   -21.26961980    3.67777951   58.88734813
     atom   50 type  3   force =    -1.58103960  -20.68584718   58.08608393
     atom   51 type  3   force =    21.71774923   -2.58791986   61.19743936
     atom   52 type  3   force =     2.76445879   20.98040036   58.84214543
     atom   53 type  3   force =     7.92388949    2.06388178   63.37003187
     atom   54 type  4   force =     4.41924304    0.01195982   20.57979597
     atom   55 type  5   force =   -13.33920009   -2.97675545   24.82273420
     atom   56 type  6   force =     0.54225875    2.65435860    5.38853540
     atom   57 type  6   force =    -2.24573441    0.25795824    1.39035928
     atom   58 type  6   force =     1.38035546   -3.22351227    4.81854876
     The local contribution  to forces
     atom    1 type  2   force =     0.93925602    0.19563063    8.51196274
     atom    2 type  2   force =     0.97051989    1.15678142    8.87997427
     atom    3 type  2   force =    -1.91889342   -0.64710227    9.43452698
     atom    4 type  2   force =    -1.76433570   -1.72446493    9.23881084
     atom    5 type  2   force =     0.76050968    3.38437541   10.31652451
     atom    6 type  2   force =     3.92910909    3.11107161   14.36603275
     atom    7 type  2   force =     3.78426690   -1.11208653   12.05595991
     atom    8 type  2   force =     0.45933756   -0.22299177    8.34414689
     atom    9 type  2   force =    -1.12835643    2.54876013   10.29538904
     atom   10 type  2   force =    -1.18503975    3.57102773   19.41479870
     atom   11 type  2   force =     2.00241698   -2.17356359   20.48193488
     atom   12 type  2   force =     1.89594254   -2.98220732   10.55896066
     atom   13 type  2   force =    -0.52960872   -0.57643669    8.41997925
     atom   14 type  2   force =    -3.83136686    2.05564288   11.85626875
     atom   15 type  2   force =    -3.84596704   -1.89993573   17.30668921
     atom   16 type  2   force =    -0.56929861   -4.70604207   12.97947660
     atom   17 type  1   force =     0.13916297    0.65996165  -31.98659388
     atom   18 type  1   force =     2.23611845    1.69352116  -31.01883304
     atom   19 type  1   force =     1.12651600   -0.05246063  -31.42478668
     atom   20 type  1   force =    -1.01007000   -0.86311738  -32.14387048
     atom   21 type  1   force =    -0.17350805    1.94377473  -31.76054575
     atom   22 type  1   force =     2.22584539    5.28066046  -25.46506783
     atom   23 type  1   force =     4.76141539   -0.06051337  -24.50346314
     atom   24 type  1   force =     2.11001906   -1.72941637  -31.13113750
     atom   25 type  1   force =     0.02580728   -0.43158687  -31.98037560
     atom   26 type  1   force =    -2.92050162    4.05912609  -28.15485278
     atom   27 type  1   force =    -1.29113815    0.00223060  -20.26656450
     atom   28 type  1   force =     2.24354746   -5.22604976  -26.29210169
     atom   29 type  1   force =    -0.02060052   -1.75447486  -31.80708310
     atom   30 type  1   force =    -1.12653391    0.96701363  -31.87375602
     atom   31 type  1   force =    -4.83514576   -0.32541691  -28.01467300
     atom   32 type  1   force =    -3.16937645   -3.97570804  -28.59531762
     atom   33 type  1   force =     0.05149271    0.12640165   38.80462147
     atom   34 type  1   force =     0.56776345    0.42558433   38.91801051
     atom   35 type  1   force =     0.28768514    0.04304845   38.97219274
     atom   36 type  1   force =    -0.27222684   -0.22171460   38.81517160
     atom   37 type  1   force =     0.01803177    0.48535215   38.92793829
     atom   38 type  1   force =     0.41444315    0.92914698   40.03929326
     atom   39 type  1   force =     0.90759360    0.05648231   40.41032463
     atom   40 type  1   force =     0.52042812   -0.40242438   39.06974238
     atom   41 type  1   force =    -0.05852909   -0.12878728   38.89195803
     atom   42 type  1   force =    -0.63768532    0.71963605   39.93462599
     atom   43 type  1   force =    -0.29252441   -0.05073042   40.89915274
     atom   44 type  1   force =     0.25767001   -0.96901015   40.05330120
     atom   45 type  1   force =    -0.01505281   -0.50160434   38.82684603
     atom   46 type  1   force =    -0.32668256    0.23320710   38.73596913
     atom   47 type  1   force =    -0.87662085    0.02474450   39.66355269
     atom   48 type  1   force =    -0.54903736   -0.76494058   39.80291599
     atom   49 type  3   force =    21.45127374   -3.70726051  -58.81582647
     atom   50 type  3   force =     1.59332504   20.81493681  -58.00151162
     atom   51 type  3   force =   -21.90889639    2.60244011  -61.09450230
     atom   52 type  3   force =    -2.78151608  -21.11833491  -58.73999336
     atom   53 type  3   force =    -7.94326618   -2.09110465  -63.51220358
     atom   54 type  4   force =    -3.57158772    0.25725765  -21.49441857
     atom   55 type  5   force =    11.47570615    2.40453060  -23.34069575
     atom   56 type  6   force =    -0.53512273   -2.58215850   -5.32378177
     atom   57 type  6   force =     2.23440638   -0.24262234   -1.48287217
     atom   58 type  6   force =    -1.35110662    3.14017526   -4.77755625
     The core correction contribution to forces
     atom    1 type  2   force =     0.00025985   -0.00048951   -0.00037532
     atom    2 type  2   force =    -0.00015568    0.00035619   -0.00024301
     atom    3 type  2   force =     0.00079706    0.00078219   -0.00149990
     atom    4 type  2   force =     0.00075047    0.00026052   -0.00095114
     atom    5 type  2   force =     0.00020980   -0.00077894   -0.00060657
     atom    6 type  2   force =    -0.00028755    0.00077114   -0.00009464
     atom    7 type  2   force =     0.00051121   -0.00013783    0.00031891
     atom    8 type  2   force =    -0.00002368    0.00012188   -0.00061773
     atom    9 type  2   force =     0.00000884   -0.00005586   -0.00027197
     atom   10 type  2   force =    -0.00007270   -0.00142523    0.00039442
     atom   11 type  2   force =    -0.00121503    0.00051005    0.00110359
     atom   12 type  2   force =    -0.00068060    0.00050153   -0.00079354
     atom   13 type  2   force =    -0.00018224   -0.00017933   -0.00006076
     atom   14 type  2   force =    -0.00063519   -0.00026303    0.00047241
     atom   15 type  2   force =     0.00047409    0.00032373    0.00113515
     atom   16 type  2   force =     0.00025936   -0.00056107    0.00045774
     atom   17 type  1   force =    -0.00005233   -0.00000702    0.00196475
     atom   18 type  1   force =    -0.00015862   -0.00008356    0.00203963
     atom   19 type  1   force =    -0.00004834   -0.00005488    0.00197257
     atom   20 type  1   force =    -0.00000398    0.00000147    0.00199034
     atom   21 type  1   force =    -0.00003847   -0.00003562    0.00197260
     atom   22 type  1   force =    -0.00009565   -0.00041913   -0.00040236
     atom   23 type  1   force =     0.00004800    0.00006916   -0.00004116
     atom   24 type  1   force =    -0.00006731    0.00004274    0.00198203
     atom   25 type  1   force =     0.00005164    0.00002275    0.00198630
     atom   26 type  1   force =    -0.00002066   -0.00024204    0.00142970
     atom   27 type  1   force =    -0.00046123   -0.00005843    0.00111677
     atom   28 type  1   force =    -0.00030263    0.00037647    0.00020021
     atom   29 type  1   force =    -0.00002121    0.00010001    0.00197945
     atom   30 type  1   force =     0.00007955   -0.00003677    0.00200949
     atom   31 type  1   force =     0.00052073    0.00026173    0.00063855
     atom   32 type  1   force =     0.00016342    0.00019593    0.00122986
     atom   33 type  1   force =     0.00001675   -0.00000367   -0.00193212
     atom   34 type  1   force =    -0.00003147   -0.00005373   -0.00198914
     atom   35 type  1   force =     0.00000261    0.00003592   -0.00193393
     atom   36 type  1   force =     0.00001928    0.00002514   -0.00191735
     atom   37 type  1   force =     0.00000513   -0.00004345   -0.00192648
     atom   38 type  1   force =     0.00001009    0.00001108   -0.00197484
     atom   39 type  1   force =     0.00002953    0.00002711   -0.00198073
     atom   40 type  1   force =    -0.00005799    0.00000897   -0.00192227
     atom   41 type  1   force =    -0.00003623   -0.00001287   -0.00194793
     atom   42 type  1   force =    -0.00002432   -0.00003873   -0.00193349
     atom   43 type  1   force =     0.00000254   -0.00001128   -0.00220906
     atom   44 type  1   force =    -0.00002595    0.00001925   -0.00198808
     atom   45 type  1   force =     0.00001193    0.00001603   -0.00195969
     atom   46 type  1   force =     0.00003333    0.00000922   -0.00196702
     atom   47 type  1   force =     0.00004970    0.00003149   -0.00190585
     atom   48 type  1   force =     0.00002349    0.00000557   -0.00189415
     atom   49 type  3   force =     0.00424922   -0.00132609   -0.00309726
     atom   50 type  3   force =    -0.00145054    0.00370179   -0.00371681
     atom   51 type  3   force =    -0.00463760    0.00092800   -0.00153787
     atom   52 type  3   force =    -0.00175129   -0.00488901   -0.00188567
     atom   53 type  3   force =    -0.00267949   -0.00112451   -0.00365145
     atom   54 type  4   force =     0.01785326    0.00454039   -0.01221843
     atom   55 type  5   force =    -0.01847465   -0.00513134    0.01182291
     atom   56 type  6   force =     0.00000000    0.00000000    0.00000000
     atom   57 type  6   force =     0.00000000    0.00000000    0.00000000
     atom   58 type  6   force =     0.00000000    0.00000000    0.00000000
     The Hubbard contrib.    to forces
     atom    1 type  2   force =     0.00000000    0.00000000    0.00000000
     atom    2 type  2   force =     0.00000000    0.00000000    0.00000000
     atom    3 type  2   force =     0.00000000    0.00000000    0.00000000
     atom    4 type  2   force =     0.00000000    0.00000000    0.00000000
     atom    5 type  2   force =     0.00000000    0.00000000    0.00000000
     atom    6 type  2   force =     0.00000000    0.00000000    0.00000000
     atom    7 type  2   force =     0.00000000    0.00000000    0.00000000
     atom    8 type  2   force =     0.00000000    0.00000000    0.00000000
     atom    9 type  2   force =     0.00000000    0.00000000    0.00000000
     atom   10 type  2   force =     0.00000000    0.00000000    0.00000000
     atom   11 type  2   force =     0.00000000    0.00000000    0.00000000
     atom   12 type  2   force =     0.00000000    0.00000000    0.00000000
     atom   13 type  2   force =     0.00000000    0.00000000    0.00000000
     atom   14 type  2   force =     0.00000000    0.00000000    0.00000000
     atom   15 type  2   force =     0.00000000    0.00000000    0.00000000
     atom   16 type  2   force =     0.00000000    0.00000000    0.00000000
     atom   17 type  1   force =     0.00000000    0.00000000    0.00000000
     atom   18 type  1   force =     0.00000000    0.00000000    0.00000000
     atom   19 type  1   force =     0.00000000    0.00000000    0.00000000
     atom   20 type  1   force =     0.00000000    0.00000000    0.00000000
     atom   21 type  1   force =     0.00000000    0.00000000    0.00000000
     atom   22 type  1   force =     0.00000000    0.00000000    0.00000000
     atom   23 type  1   force =     0.00000000    0.00000000    0.00000000
     atom   24 type  1   force =     0.00000000    0.00000000    0.00000000
     atom   25 type  1   force =     0.00000000    0.00000000    0.00000000
     atom   26 type  1   force =     0.00000000    0.00000000    0.00000000
     atom   27 type  1   force =     0.00000000    0.00000000    0.00000000
     atom   28 type  1   force =     0.00000000    0.00000000    0.00000000
     atom   29 type  1   force =     0.00000000    0.00000000    0.00000000
     atom   30 type  1   force =     0.00000000    0.00000000    0.00000000
     atom   31 type  1   force =     0.00000000    0.00000000    0.00000000
     atom   32 type  1   force =     0.00000000    0.00000000    0.00000000
     atom   33 type  1   force =     0.00000000    0.00000000    0.00000000
     atom   34 type  1   force =     0.00000000    0.00000000    0.00000000
     atom   35 type  1   force =     0.00000000    0.00000000    0.00000000
     atom   36 type  1   force =     0.00000000    0.00000000    0.00000000
     atom   37 type  1   force =     0.00000000    0.00000000    0.00000000
     atom   38 type  1   force =     0.00000000    0.00000000    0.00000000
     atom   39 type  1   force =     0.00000000    0.00000000    0.00000000
     atom   40 type  1   force =     0.00000000    0.00000000    0.00000000
     atom   41 type  1   force =     0.00000000    0.00000000    0.00000000
     atom   42 type  1   force =     0.00000000    0.00000000    0.00000000
     atom   43 type  1   force =     0.00000000    0.00000000    0.00000000
     atom   44 type  1   force =     0.00000000    0.00000000    0.00000000
     atom   45 type  1   force =     0.00000000    0.00000000    0.00000000
     atom   46 type  1   force =     0.00000000    0.00000000    0.00000000
     atom   47 type  1   force =     0.00000000    0.00000000    0.00000000
     atom   48 type  1   force =     0.00000000    0.00000000    0.00000000
     atom   49 type  3   force =     0.00000000    0.00000000    0.00000000
     atom   50 type  3   force =     0.00000000    0.00000000    0.00000000
     atom   51 type  3   force =     0.00000000    0.00000000    0.00000000
     atom   52 type  3   force =     0.00000000    0.00000000    0.00000000
     atom   53 type  3   force =     0.00000000    0.00000000    0.00000000
     atom   54 type  4   force =     0.00000000    0.00000000    0.00000000
     atom   55 type  5   force =     0.00000000    0.00000000    0.00000000
     atom   56 type  6   force =     0.00000000    0.00000000    0.00000000
     atom   57 type  6   force =     0.00000000    0.00000000    0.00000000
     atom   58 type  6   force =     0.00000000    0.00000000    0.00000000
     The SCF correction term to forces
     atom    1 type  2   force =    -0.00000432   -0.00000476    0.00000010
     atom    2 type  2   force =    -0.00000358   -0.00000454    0.00000002
     atom    3 type  2   force =     0.00000092    0.00000104    0.00000016
     atom    4 type  2   force =    -0.00000177    0.00000337    0.00000012
     atom    5 type  2   force =    -0.00000122   -0.00000770   -0.00000004
     atom    6 type  2   force =    -0.00000573   -0.00000252   -0.00000007
     atom    7 type  2   force =    -0.00000233    0.00000275    0.00000013
     atom    8 type  2   force =    -0.00000044    0.00000189    0.00000013
     atom    9 type  2   force =     0.00000403   -0.00000325    0.00000003
     atom   10 type  2   force =     0.00000434   -0.00000316   -0.00000030
     atom   11 type  2   force =    -0.00000062    0.00000700    0.00000010
     atom   12 type  2   force =     0.00000078    0.00000436    0.00000012
     atom   13 type  2   force =     0.00000110    0.00000009    0.00000030
     atom   14 type  2   force =     0.00000509   -0.00000543   -0.00000021
     atom   15 type  2   force =     0.00000245    0.00000555   -0.00000011
     atom   16 type  2   force =     0.00000135    0.00000588    0.00000011
     atom   17 type  1   force =    -0.00000164   -0.00000178   -0.00000159
     atom   18 type  1   force =    -0.00000319   -0.00000222   -0.00000001
     atom   19 type  1   force =    -0.00000025   -0.00000105    0.00000001
     atom   20 type  1   force =    -0.00000083    0.00000164   -0.00000077
     atom   21 type  1   force =     0.00000100   -0.00000086   -0.00000075
     atom   22 type  1   force =     0.00000009   -0.00000224    0.00000252
     atom   23 type  1   force =    -0.00000104    0.00000209    0.00000203
     atom   24 type  1   force =     0.00000002    0.00000113   -0.00000008
     atom   25 type  1   force =     0.00000053    0.00000059   -0.00000164
     atom   26 type  1   force =     0.00000224   -0.00000251    0.00000005
     atom   27 type  1   force =     0.00000002    0.00000163    0.00000184
     atom   28 type  1   force =     0.00000024    0.00000207   -0.00000018
     atom   29 type  1   force =     0.00000012    0.00000039   -0.00000202
     atom   30 type  1   force =     0.00000089   -0.00000136   -0.00000167
     atom   31 type  1   force =     0.00000126   -0.00000040    0.00000080
     atom   32 type  1   force =     0.00000058    0.00000303   -0.00000073
     atom   33 type  1   force =    -0.00000160   -0.00000176    0.00000165
     atom   34 type  1   force =    -0.00000315   -0.00000225    0.00000015
     atom   35 type  1   force =    -0.00000035   -0.00000105    0.00000012
     atom   36 type  1   force =    -0.00000086    0.00000160    0.00000082
     atom   37 type  1   force =     0.00000100   -0.00000078    0.00000077
     atom   38 type  1   force =     0.00000015   -0.00000227   -0.00000255
     atom   39 type  1   force =    -0.00000092    0.00000197   -0.00000175
     atom   40 type  1   force =    -0.00000002    0.00000118    0.00000025
     atom   41 type  1   force =     0.00000046    0.00000067    0.00000174
     atom   42 type  1   force =     0.00000217   -0.00000238   -0.00000008
     atom   43 type  1   force =     0.00000009    0.00000150   -0.00000197
     atom   44 type  1   force =     0.00000027    0.00000196    0.00000045
     atom   45 type  1   force =     0.00000012    0.00000039    0.00000213
     atom   46 type  1   force =     0.00000078   -0.00000131    0.00000170
     atom   47 type  1   force =     0.00000119   -0.00000048   -0.00000086
     atom   48 type  1   force =     0.00000060    0.00000291    0.00000090
     atom   49 type  3   force =    -0.00000131    0.00000103    0.00000180
     atom   50 type  3   force =    -0.00000022   -0.00000059    0.00000254
     atom   51 type  3   force =     0.00000077    0.00000039    0.00000139
     atom   52 type  3   force =    -0.00000027    0.00000231    0.00000096
     atom   53 type  3   force =    -0.00000032    0.00000048    0.00000109
     atom   54 type  4   force =    -0.00000011    0.00000007    0.00000005
     atom   55 type  5   force =    -0.00000001    0.00000012   -0.00000004
     atom   56 type  6   force =    -0.00000001   -0.00000000   -0.00000001
     atom   57 type  6   force =    -0.00000001    0.00000003   -0.00000000
     atom   58 type  6   force =    -0.00000002    0.00000002    0.00000000

     DFT-D3 dispersion contribution to forces:
     atom    1 type  2   force =     0.00014031    0.00003169    0.00039726
     atom    2 type  2   force =     0.00011260    0.00016977    0.00049313
     atom    3 type  2   force =    -0.00045774   -0.00014014    0.00073665
     atom    4 type  2   force =    -0.00035297   -0.00038084    0.00063735
     atom    5 type  2   force =     0.00018456    0.00071943    0.00098283
     atom    6 type  2   force =     0.00101635    0.00070835    0.00248495
     atom    7 type  2   force =     0.00083703   -0.00018965    0.00138816
     atom    8 type  2   force =     0.00007453   -0.00002448    0.00022411
     atom    9 type  2   force =    -0.00025652    0.00054451    0.00078166
     atom   10 type  2   force =    -0.00005515    0.00100399    0.00259840
     atom   11 type  2   force =     0.00046687   -0.00069244    0.00379145
     atom   12 type  2   force =     0.00046896   -0.00064419    0.00104805
     atom   13 type  2   force =    -0.00004339   -0.00010704    0.00032927
     atom   14 type  2   force =    -0.00088236    0.00050356    0.00164641
     atom   15 type  2   force =    -0.00104027   -0.00052511    0.00341126
     atom   16 type  2   force =    -0.00015262   -0.00106692    0.00182871
     atom   17 type  1   force =     0.00008280    0.00024612   -0.00058048
     atom   18 type  1   force =     0.00080068    0.00058355   -0.00020476
     atom   19 type  1   force =     0.00034073   -0.00000718   -0.00034470
     atom   20 type  1   force =    -0.00035858   -0.00030556   -0.00058908
     atom   21 type  1   force =    -0.00006591    0.00064879   -0.00050850
     atom   22 type  1   force =     0.00016667    0.00115432   -0.00009441
     atom   23 type  1   force =     0.00134312   -0.00001076   -0.00027696
     atom   24 type  1   force =     0.00076530   -0.00060202   -0.00019080
     atom   25 type  1   force =     0.00005611   -0.00016158   -0.00059736
     atom   26 type  1   force =     0.00019349   -0.00024353   -0.00148286
     atom   27 type  1   force =    -0.00090464    0.00042987   -0.00274589
     atom   28 type  1   force =    -0.00021979   -0.00099885   -0.00033716
     atom   29 type  1   force =    -0.00005001   -0.00061179   -0.00054837
     atom   30 type  1   force =    -0.00043462    0.00032398   -0.00054746
     atom   31 type  1   force =    -0.00045834    0.00017238   -0.00112745
     atom   32 type  1   force =     0.00060183   -0.00057233   -0.00103945
     atom   33 type  1   force =     0.00001542    0.00001594    0.00095744
     atom   34 type  1   force =     0.00002742    0.00000324    0.00098753
     atom   35 type  1   force =    -0.00000980    0.00000172    0.00096885
     atom   36 type  1   force =     0.00001033    0.00001019    0.00093951
     atom   37 type  1   force =    -0.00001750   -0.00003641    0.00096603
     atom   38 type  1   force =     0.00000253    0.00001106    0.00119945
     atom   39 type  1   force =     0.00002160   -0.00001392    0.00120936
     atom   40 type  1   force =    -0.00003531    0.00001516    0.00097713
     atom   41 type  1   force =    -0.00000308   -0.00001635    0.00095927
     atom   42 type  1   force =    -0.00000789    0.00003142    0.00112346
     atom   43 type  1   force =     0.00000900    0.00001039    0.00143329
     atom   44 type  1   force =     0.00001666   -0.00002404    0.00118960
     atom   45 type  1   force =     0.00000591   -0.00000587    0.00097139
     atom   46 type  1   force =     0.00000648    0.00001492    0.00096223
     atom   47 type  1   force =    -0.00001251    0.00000469    0.00111201
     atom   48 type  1   force =    -0.00002887   -0.00002271    0.00111744
     atom   49 type  3   force =    -0.00086142    0.00011689   -0.00785350
     atom   50 type  3   force =    -0.00241106   -0.00340144   -0.00548121
     atom   51 type  3   force =     0.00139167    0.00051110   -0.00557156
     atom   52 type  3   force =    -0.00097670    0.00272342   -0.00646978
     atom   53 type  3   force =     0.00118022    0.00018173   -0.00196106
     atom   54 type  4   force =     0.00010393    0.00007694   -0.00074310
     atom   55 type  5   force =    -0.00030412    0.00005897   -0.00098202
     atom   56 type  6   force =     0.00005562    0.00013219    0.00021038
     atom   57 type  6   force =    -0.00021087   -0.00013560    0.00007650
     atom   58 type  6   force =     0.00011337   -0.00021955    0.00013740

     Total force =     0.008044     Total SCF correction =     0.000026

     DFT-D3 dispersion Force =     0.017430


     Computing stress (Cartesian axis) and pressure


     negative rho (up, down):  4.796E-03 5.164E-03
          total   stress  (Ry/bohr**3)                   (kbar)     P=       -1.51
  -0.00001039  -0.00000089   0.00000061           -1.53       -0.13        0.09
  -0.00000089  -0.00000942   0.00000022           -0.13       -1.39        0.03
   0.00000061   0.00000022  -0.00001108            0.09        0.03       -1.63

     kinetic stress (kbar)   7256.29     -1.09     -9.35
                               -1.09   7272.78      0.02
                               -9.35      0.02   7301.55

     local   stress (kbar)-135461.14    -62.88    519.09
                              -62.88-134007.63    220.49
                              519.09    220.49 134099.24

     nonloc. stress (kbar)  -1419.19     -0.13      0.31
                               -0.13  -1420.42      0.33
                                0.31      0.33  -1427.25

     hartree stress (kbar)  68217.09     29.11   -249.15
                               29.11  67561.04   -102.92
                             -249.15   -102.92 -63300.60

     exc-cor stress (kbar)   2000.77      0.00      0.00
                                0.00   2000.35     -0.05
                                0.00     -0.05   2000.30

     corecor stress (kbar)  -3626.55      0.04      0.05
                                0.04  -3626.83      0.01
                                0.05      0.01  -3627.24

     ewald   stress (kbar)  63035.47     34.79   -260.83
                               34.79  62223.54   -117.85
                             -260.83   -117.85 -75045.08

     hubbard stress (kbar)      0.00      0.00      0.00
                                0.00      0.00      0.00
                                0.00      0.00      0.00

     DFT-D   stress (kbar)     -4.26      0.02     -0.04
                                0.02     -4.22      0.01
                               -0.04      0.01     -2.55

     XDM     stress (kbar)      0.00      0.00      0.00
                                0.00      0.00      0.00
                                0.00      0.00      0.00

     dft-nl  stress (kbar)      0.00      0.00      0.00
                                0.00      0.00      0.00
                                0.00      0.00      0.00

     TS-vdW  stress (kbar)      0.00      0.00      0.00
                                0.00      0.00      0.00
                                0.00      0.00      0.00

     MDB     stress (kbar)      0.00      0.00      0.00
                                0.00      0.00      0.00
                                0.00      0.00      0.00

     3D-RISM stress (kbar)      0.00      0.00      0.00
                                0.00      0.00      0.00
                                0.00      0.00      0.00


     Writing all to output data dir ./Ag-WS2-H2NOH.save/ :
     XML data file, charge density, pseudopotentials, collected wavefunctions

     init_run     :    180.34s CPU    185.51s WALL (       1 calls)
     electrons    :  13271.11s CPU  13531.97s WALL (       1 calls)
     forces       :     35.99s CPU     37.17s WALL (       1 calls)
     force_dftd3  :      0.11s CPU      0.12s WALL (       1 calls)
     stress       :    128.46s CPU    131.70s WALL (       1 calls)
     stres_dftd3  :      0.11s CPU      0.13s WALL (       1 calls)

     Called by init_run:
     wfcinit      :    171.99s CPU    176.45s WALL (       1 calls)
     wfcinit:atom :      0.68s CPU      0.70s WALL (      26 calls)
     wfcinit:wfcr :    167.76s CPU    172.04s WALL (      26 calls)
     potinit      :      2.82s CPU      2.95s WALL (       1 calls)
     hinit0       :      1.55s CPU      1.64s WALL (       1 calls)

     Called by electrons:
     c_bands      :  11449.46s CPU  11654.24s WALL (      40 calls)
     sum_band     :   1694.55s CPU   1735.72s WALL (      40 calls)
     v_of_rho     :     21.80s CPU     23.05s WALL (      40 calls)
     v_h          :      1.07s CPU      1.21s WALL (      40 calls)
     v_xc         :     21.62s CPU     22.79s WALL (      42 calls)
     newd         :     59.41s CPU     71.96s WALL (      40 calls)
     PAW_pot      :     40.34s CPU     40.88s WALL (      40 calls)
     mix_rho      :      5.63s CPU      5.97s WALL (      40 calls)
     energy_dftd3 :      0.05s CPU      0.05s WALL (       1 calls)

     Called by c_bands:
     init_us_2    :    135.74s CPU    139.07s WALL (    2158 calls)
     cegterg      :  11271.22s CPU  11472.42s WALL (    1040 calls)

     Called by sum_band:
     sum_band:wei :      0.01s CPU      0.01s WALL (      40 calls)
     sum_band:loo :   1581.33s CPU   1606.51s WALL (      40 calls)
     sum_band:buf :     11.98s CPU     12.24s WALL (    1040 calls)
     sum_band:ini :     65.59s CPU     67.12s WALL (    1040 calls)
     sum_band:cal :    329.67s CPU    339.65s WALL (    1040 calls)
     sum_band:bec :      4.00s CPU      4.07s WALL (    1040 calls)
     addusdens    :    109.34s CPU    125.10s WALL (      40 calls)
                                        0.00s GPU  (      40 calls)
     addusd:skk   :      1.67s CPU      1.81s WALL (     240 calls)
                                        0.00s GPU  (     240 calls)

     Called by *egterg:
     cdiaghg      :    584.36s CPU    607.49s WALL (    6493 calls)
     cegterg:over :    578.87s CPU    594.51s WALL (    5479 calls)
     cegterg:upda :    274.71s CPU    279.83s WALL (    5479 calls)
     cegterg:last :    509.06s CPU    518.23s WALL (    2018 calls)
     cdiaghg:chol :     49.27s CPU     49.72s WALL (    6493 calls)
     cdiaghg:inve :      8.44s CPU      8.53s WALL (    6493 calls)
     cdiaghg:para :    166.41s CPU    179.55s WALL (   12986 calls)
     h_psi        :   8543.26s CPU   8672.95s WALL (    6545 calls)
     s_psi        :    743.86s CPU    752.73s WALL (    6545 calls)
     g_psi        :     10.56s CPU     10.90s WALL (    5479 calls)

     Called by h_psi:
     h_psi:calbec :   1000.41s CPU   1029.47s WALL (    6545 calls)
     vloc_psi     :   6728.91s CPU   6817.05s WALL (    6545 calls)
     add_vuspsi   :    783.94s CPU    794.26s WALL (    6545 calls)

     General routines
     calbec       :   1447.11s CPU   1489.24s WALL (    8027 calls)
     fft          :     23.57s CPU     25.37s WALL (    1040 calls)
     ffts         :      1.89s CPU      2.04s WALL (     160 calls)
     fftw         :   7270.79s CPU   7355.19s WALL ( 1509782 calls)
     interpolate  :      3.29s CPU      3.51s WALL (      80 calls)

     Parallel routines

     PAW routines
     PAW_pot      :     40.34s CPU     40.88s WALL (      40 calls)

     PWSCF        :  13624.43s CPU  13927.79s WALL


   This run was terminated on:  21:38:35   1Aug2026            

=------------------------------------------------------------------------------=
   JOB DONE.
=------------------------------------------------------------------------------=
