
     Program PWSCF v.7.4.1 starts on  2Aug2026 at  6: 0: 7 

     This program is part of the open-source Quantum ESPRESSO suite
     for quantum simulation of materials; please cite
         "P. Giannozzi et al., J. Phys.:Condens. Matter 21 395502 (2009);
         "P. Giannozzi et al., J. Phys.:Condens. Matter 29 465901 (2017);
         "P. Giannozzi et al., J. Chem. Phys. 152 154105 (2020);
          URL http://www.quantum-espresso.org", 
     in publications or presentations arising from this work. More details at
     http://www.quantum-espresso.org/quote

     Parallel version (MPI & OpenMP), running on      64 processor cores
     Number of MPI processes:                64
     Threads/MPI process:                     1

     MPI processes distributed on     1 nodes
     39053 MiB available memory on the printing compute node when the environment starts

     Reading input from disp_008_atom55_-1x.in

     Current dimensions of program PWSCF are:
     Max number of different atomic species (ntypx) = 10
     Max number of k-points (npk) =  40000
     Max angular momentum in pseudopotentials (lmaxx) =  4
     file S.pbe-n-kjpaw_psl.1.0.0.UPF: wavefunction(s)  3S 3P renormalized
     file W.pbe-spn-kjpaw_psl.1.0.0.UPF: wavefunction(s)  6S 5P 5D renormalized
     file Ag.pbe-n-kjpaw_psl.1.0.0.UPF: wavefunction(s)  5S 5P renormalized
     file N.pbe-n-kjpaw_psl.1.0.0.UPF: wavefunction(s)  2S renormalized
     file O.pbe-n-kjpaw_psl.1.0.0.UPF: wavefunction(s)  2S 2P renormalized
     file H.pbe-kjpaw_psl.1.0.0.UPF: wavefunction(s)  1S renormalized
     Message from routine setup:
     the system is metallic, specify occupations

     R & G space division:  proc/nbgrp/npool/nimage =      64
     Subspace diagonalization in iterative solution of the eigenvalue problem:
     one sub-group per band group will be used
     ELPA distributed-memory algorithm (size of sub-group:  2*  2 procs)


     Parallelization info
     --------------------
     sticks:   dense  smooth     PW     G-vecs:    dense   smooth      PW
     Min         247     123     32                39673    14017    1874
     Max         248     124     33                39680    14030    1885
     Sum       15841    7909   2065              2539249   897387  120111

     Using Slab Decomposition



     bravais-lattice index     =            0
     lattice parameter (alat)  =      23.9624  a.u.
     unit-cell volume          =   18794.0729 (a.u.)^3
     number of atoms/cell      =           58
     number of atomic types    =            6
     number of electrons       =       485.00 (up: 243.00, down: 242.00)
     number of Kohn-Sham states=          243
     kinetic-energy cutoff     =      50.0000  Ry
     charge density cutoff     =     400.0000  Ry
     scf convergence threshold =      1.0E-10
     mixing beta               =       0.4000
     number of iterations used =            8  plain     mixing
     Exchange-correlation= SLA  PW   PBX  PBC
                           (   1   4   3   4   0   0   0)

     celldm(1)=  23.962422  celldm(2)=   0.000000  celldm(3)=   0.000000
     celldm(4)=   0.000000  celldm(5)=   0.000000  celldm(6)=   0.000000

     crystal axes: (cart. coord. in units of alat)
               a(1) = (   1.000000   0.000000   0.000000 )  
               a(2) = (  -0.500000   0.866025   0.000000 )  
               a(3) = (   0.000000   0.000000   1.577241 )  

     reciprocal axes: (cart. coord. in units 2 pi/alat)
               b(1) = (  1.000000  0.577350 -0.000000 )  
               b(2) = (  0.000000  1.154701  0.000000 )  
               b(3) = (  0.000000 -0.000000  0.634018 )  


     PseudoPot. # 1 for S  read from file:
     /share/work_r640/fmigm008/pseudo/S.pbe-n-kjpaw_psl.1.0.0.UPF
     MD5 check sum: fb45dfebcf3e72a4e1bd4a866ec2e262
     Pseudo is Projector augmented-wave + core cor, Zval =  6.0
     Generated using &quot;atomic&quot; code by A. Dal Corso  v.6.3
     Shape of augmentation charge: PSQ
     Using radial grid of 1151 points,  6 beta functions with: 
                l(1) =   0
                l(2) =   0
                l(3) =   1
                l(4) =   1
                l(5) =   2
                l(6) =   2
     Q(r) pseudized with 0 coefficients 


     PseudoPot. # 2 for W  read from file:
     /share/work_r640/fmigm008/pseudo/W.pbe-spn-kjpaw_psl.1.0.0.UPF
     MD5 check sum: 03c3df5b60893f488392c7401945500a
     Pseudo is Projector augmented-wave + core cor, Zval = 14.0
     Generated using &quot;atomic&quot; code by A. Dal Corso  v.6.2.2
     Shape of augmentation charge: PSQ
     Using radial grid of 1273 points,  6 beta functions with: 
                l(1) =   0
                l(2) =   0
                l(3) =   1
                l(4) =   1
                l(5) =   2
                l(6) =   2
     Q(r) pseudized with 0 coefficients 


     PseudoPot. # 3 for Ag read from file:
     /share/work_r640/fmigm008/pseudo/Ag.pbe-n-kjpaw_psl.1.0.0.UPF
     MD5 check sum: 51099775af2a3182a6a1caffb86952a3
     Pseudo is Projector augmented-wave + core cor, Zval = 11.0
     Generated using &quot;atomic&quot; code by A. Dal Corso  v.6.2.2
     Shape of augmentation charge: PSQ
     Using radial grid of 1237 points,  6 beta functions with: 
                l(1) =   0
                l(2) =   0
                l(3) =   1
                l(4) =   1
                l(5) =   2
                l(6) =   2
     Q(r) pseudized with 0 coefficients 


     PseudoPot. # 4 for N  read from file:
     /share/work_r640/fmigm008/pseudo/N.pbe-n-kjpaw_psl.1.0.0.UPF
     MD5 check sum: 14c48229446f9f2d411169a3abcbc3fa
     Pseudo is Projector augmented-wave + core cor, Zval =  5.0
     Generated using &quot;atomic&quot; code by A. Dal Corso  v.6.3
     Shape of augmentation charge: PSQ
     Using radial grid of 1085 points,  4 beta functions with: 
                l(1) =   0
                l(2) =   0
                l(3) =   1
                l(4) =   1
     Q(r) pseudized with 0 coefficients 


     PseudoPot. # 5 for O  read from file:
     /share/work_r640/fmigm008/pseudo/O.pbe-n-kjpaw_psl.1.0.0.UPF
     MD5 check sum: e99d9cef9b487d1ca56f5b95ecd0fd7a
     Pseudo is Projector augmented-wave + core cor, Zval =  6.0
     Generated using &quot;atomic&quot; code by A. Dal Corso  v.6.3
     Shape of augmentation charge: PSQ
     Using radial grid of 1095 points,  4 beta functions with: 
                l(1) =   0
                l(2) =   0
                l(3) =   1
                l(4) =   1
     Q(r) pseudized with 0 coefficients 


     PseudoPot. # 6 for H  read from file:
     /share/work_r640/fmigm008/pseudo/H.pbe-kjpaw_psl.1.0.0.UPF
     MD5 check sum: d81a744832360e4a8af0b0b5b123bc2a
     Pseudo is Projector augmented-wave, Zval =  1.0
     Generated using &quot;atomic&quot; code by A. Dal Corso  v.6.3MaX
     Shape of augmentation charge: PSQ
     Using radial grid of  929 points,  2 beta functions with: 
                l(1) =   0
                l(2) =   0
     Q(r) pseudized with 0 coefficients 


     atomic species   valence    mass     pseudopotential
     S                 6.00    32.06500     S ( 1.00)
     W                14.00   183.84000     W ( 1.00)
     Ag               11.00   107.87000     Ag( 1.00)
     N                 5.00    14.00700     N ( 1.00)
     O                 6.00    15.99900     O ( 1.00)
     H                 1.00     1.00800     H ( 1.00)

     Starting magnetic structure 
     atomic species   magnetization
     S               0.000
     W               0.000
     Ag              0.000
     N               0.000
     O               0.000
     H               0.000

     No symmetry found


                                    s                        frac. trans.

      isym =  1     identity                                     

 cryst.   s( 1) = (     1          0          0      )
                  (     0          1          0      )
                  (     0          0          1      )

 cart.    s( 1) = (  1.0000000  0.0000000  0.0000000 )
                  (  0.0000000  1.0000000  0.0000000 )
                  (  0.0000000  0.0000000  1.0000000 )


   Cartesian axes

     site n.     atom                  positions (alat units)
         1        W      tau(   1) = (  -0.0028587   0.1395947   0.2444812  )
         2        W      tau(   2) = (  -0.1282026   0.3564836   0.2443568  )
         3        W      tau(   3) = (  -0.2537731   0.5727289   0.2442261  )
         4        W      tau(   4) = (  -0.3783723   0.7888166   0.2441498  )
         5        W      tau(   5) = (   0.2469096   0.1395426   0.2440120  )
         6        W      tau(   6) = (   0.1225026   0.3570726   0.2432304  )
         7        W      tau(   7) = (  -0.0034888   0.5727502   0.2429844  )
         8        W      tau(   8) = (  -0.1283671   0.7891505   0.2439766  )
         9        W      tau(   9) = (   0.4969194   0.1397378   0.2430413  )
        10        W      tau(  10) = (   0.3721499   0.3552416   0.2405337  )
        11        W      tau(  11) = (   0.2452295   0.5727639   0.2402480  )
        12        W      tau(  12) = (   0.1220165   0.7890246   0.2436243  )
        13        W      tau(  13) = (   0.7467445   0.1394449   0.2440642  )
        14        W      tau(  14) = (   0.6211264   0.3563823   0.2436826  )
        15        W      tau(  15) = (   0.4971469   0.5732720   0.2421413  )
        16        W      tau(  16) = (   0.3721785   0.7886524   0.2428338  )
        17        S      tau(  17) = (   0.1219502   0.0672380   0.3684592  )
        18        S      tau(  18) = (  -0.0024014   0.2846735   0.3681910  )
        19        S      tau(  19) = (  -0.1281525   0.5008469   0.3682441  )
        20        S      tau(  20) = (  -0.2533258   0.7170167   0.3685687  )
        21        S      tau(  21) = (   0.3722606   0.0676427   0.3679766  )
        22        S      tau(  22) = (   0.2484890   0.2849851   0.3676532  )
        23        S      tau(  23) = (   0.1218721   0.5017515   0.3660861  )
        24        S      tau(  24) = (  -0.0030403   0.7167922   0.3679041  )
        25        S      tau(  25) = (   0.6215745   0.0674060   0.3678624  )
        26        S      tau(  26) = (   0.4959803   0.2843589   0.3667029  )
        27        S      tau(  27) = (   0.3710177   0.5007270   0.3638206  )
        28        S      tau(  28) = (   0.2481984   0.7153351   0.3669892  )
        29        S      tau(  29) = (   0.8717811   0.0668114   0.3679626  )
        30        S      tau(  30) = (   0.7463862   0.2840842   0.3681041  )
        31        S      tau(  31) = (   0.6195449   0.5004430   0.3687043  )
        32        S      tau(  32) = (   0.4956231   0.7159829   0.3681683  )
        33        S      tau(  33) = (   0.1218639   0.0672424   0.1203644  )
        34        S      tau(  34) = (  -0.0031686   0.2839920   0.1203246  )
        35        S      tau(  35) = (  -0.1290559   0.5005458   0.1199474  )
        36        S      tau(  36) = (  -0.2533637   0.7168463   0.1201865  )
        37        S      tau(  37) = (   0.3715067   0.0672515   0.1197328  )
        38        S      tau(  38) = (   0.2459712   0.2831895   0.1185177  )
        39        S      tau(  39) = (   0.1200987   0.4999851   0.1172124  )
        40        S      tau(  40) = (  -0.0034124   0.7174366   0.1195727  )
        41        S      tau(  41) = (   0.6220409   0.0671938   0.1195919  )
        42        S      tau(  42) = (   0.4978914   0.2834015   0.1177695  )
        43        S      tau(  43) = (   0.3720771   0.5008174   0.1169455  )
        44        S      tau(  44) = (   0.2466393   0.7180153   0.1180007  )
        45        S      tau(  45) = (   0.8722199   0.0680125   0.1199081  )
        46        S      tau(  46) = (   0.7469729   0.2840633   0.1202901  )
        47        S      tau(  47) = (   0.6222799   0.5003741   0.1191499  )
        48        S      tau(  48) = (   0.4972527   0.7176301   0.1185580  )
        49        Ag     tau(  49) = (   0.1547683   0.5150674   0.5753024  )
        50        Ag     tau(  50) = (   0.3069329   0.3595674   0.5464056  )
        51        Ag     tau(  51) = (   0.5024756   0.4743393   0.5615070  )
        52        Ag     tau(  52) = (   0.3399570   0.6321033   0.5430870  )
        53        Ag     tau(  53) = (   0.3428646   0.4953663   0.7084671  )
        54        N      tau(  54) = (   0.2596825   0.4648737   0.8674395  )
        55        O      tau(  55) = (   0.1461612   0.4509631   0.8500100  )
        56        H      tau(  56) = (   0.2650389   0.5234661   0.9229976  )
        57        H      tau(  57) = (   0.1408570   0.4629232   0.7729758  )
        58        H      tau(  58) = (   0.2837088   0.3964009   0.9032094  )

     --------------------------------------------
     DFT-D3 Dispersion Correction (3-body terms):
     --------------------------------------------
       Reference C6 values for interpolation: 

         atom   Coordination number   C6
         H          0.912             6.05
         H          0.000            15.18
         N          0.000            50.54
         N          0.994            44.25
         N          2.014            39.35
         N          2.990            31.16
         O          0.000            31.01
         O          0.993            25.63
         O          1.989            20.74
         S          0.000           268.01
         S          0.995           261.99
         S          1.990           251.62
         Ag         0.000           853.49
         Ag         0.968           537.23
         W          0.000          1628.72
         W          1.929          1086.81
         W         10.915           796.19

       Values used:

         atom   Coordination number  R0_AB[au]  C6      C8
         W          9.805            3.766    796.19 128250.55
         W          9.806            3.766    796.19 128250.55
         W          9.854            3.766    796.19 128250.55
         W          9.866            3.766    796.19 128250.55
         W          9.842            3.766    796.19 128250.55
         W          9.851            3.766    796.19 128250.55
         W          9.870            3.766    796.19 128250.55
         W          9.833            3.766    796.19 128250.55
         W          9.854            3.766    796.19 128250.55
         W          9.880            3.766    796.19 128250.55
         W          9.879            3.766    796.19 128250.55
         W          9.846            3.766    796.19 128250.55
         W          9.811            3.766    796.19 128250.55
         W          9.849            3.766    796.19 128250.55
         W          9.870            3.766    796.19 128250.55
         W          9.855            3.766    796.19 128250.55
         S          3.670            3.128    251.62  12327.25
         S          3.672            3.128    251.62  12327.25
         S          3.679            3.128    251.62  12327.25
         S          3.675            3.128    251.62  12327.25
         S          3.690            3.128    251.62  12327.25
         S          4.579            3.128    251.62  12327.25
         S          4.512            3.128    251.62  12327.25
         S          3.693            3.128    251.62  12327.25
         S          3.676            3.128    251.62  12327.25
         S          3.843            3.128    251.62  12327.25
         S          4.976            3.128    251.62  12327.25
         S          4.443            3.128    251.62  12327.25
         S          3.677            3.128    251.62  12327.25
         S          3.672            3.128    251.62  12327.25
         S          4.198            3.128    251.62  12327.25
         S          3.918            3.128    251.62  12327.25
         S          3.700            3.128    251.62  12327.25
         S          3.699            3.128    251.62  12327.25
         S          3.697            3.128    251.62  12327.25
         S          3.697            3.128    251.62  12327.25
         S          3.689            3.128    251.62  12327.25
         S          3.673            3.128    251.62  12327.25
         S          3.669            3.128    251.62  12327.25
         S          3.689            3.128    251.62  12327.25
         S          3.693            3.128    251.62  12327.25
         S          3.672            3.128    251.62  12327.25
         S          3.662            3.128    251.62  12327.25
         S          3.672            3.128    251.62  12327.25
         S          3.693            3.128    251.62  12327.25
         S          3.697            3.128    251.62  12327.25
         S          3.686            3.128    251.62  12327.25
         S          3.680            3.128    251.62  12327.25
         Ag         3.221            3.147    537.23  47741.54
         Ag         3.973            3.147    537.23  47741.54
         Ag         3.317            3.147    537.23  47741.54
         Ag         4.158            3.147    537.23  47741.54
         Ag         4.121            3.147    537.23  47741.54
         N          3.745            2.478     31.16    687.50
         O          1.992            2.345     20.82    420.22
         H          1.005            2.062      6.18     74.66
         H          1.031            2.062      6.16     74.41
         H          1.006            2.062      6.18     74.65

         Molecular C6 ( Ry / a.u.^6 ) =   1190033.09


   Crystallographic axes

     site n.     atom                  positions (cryst. coord.)
         1        W      tau(   1) = (  0.0777364  0.1611901  0.1550056  )
         2        W      tau(   2) = (  0.0776133  0.4116318  0.1549267  )
         3        W      tau(   3) = (  0.0768921  0.6613303  0.1548438  )
         4        W      tau(   4) = (  0.0770512  0.9108469  0.1547955  )
         5        W      tau(   5) = (  0.3274746  0.1611299  0.1547081  )
         6        W      tau(   6) = (  0.3286586  0.4123119  0.1542125  )
         7        W      tau(   7) = (  0.3271886  0.6613549  0.1540566  )
         8        W      tau(   8) = (  0.3272492  0.9112326  0.1546856  )
         9        W      tau(   9) = (  0.5775970  0.1613553  0.1540926  )
        10        W      tau(  10) = (  0.5772488  0.4101977  0.1525028  )
        11        W      tau(  11) = (  0.5759149  0.6613708  0.1523217  )
        12        W      tau(  12) = (  0.5775601  0.9110871  0.1544623  )
        13        W      tau(  13) = (  0.8272530  0.1610171  0.1547412  )
        14        W      tau(  14) = (  0.8268839  0.4115149  0.1544993  )
        15        W      tau(  15) = (  0.8281256  0.6619575  0.1535220  )
        16        W      tau(  16) = (  0.8275072  0.9106573  0.1539611  )
        17        S      tau(  17) = (  0.1607701  0.0776397  0.2336099  )
        18        S      tau(  18) = (  0.1619549  0.3287126  0.2334399  )
        19        S      tau(  19) = (  0.1610116  0.5783281  0.2334735  )
        20        S      tau(  20) = (  0.1606439  0.8279395  0.2336794  )
        21        S      tau(  21) = (  0.4113141  0.0781070  0.2333040  )
        22        S      tau(  22) = (  0.4130252  0.3290725  0.2330989  )
        23        S      tau(  23) = (  0.4115585  0.5793727  0.2321053  )
        24        S      tau(  24) = (  0.4107998  0.8276803  0.2332579  )
        25        S      tau(  25) = (  0.6604913  0.0778337  0.2332315  )
        26        S      tau(  26) = (  0.6601550  0.3283494  0.2324963  )
        27        S      tau(  27) = (  0.6601125  0.5781897  0.2306689  )
        28        S      tau(  28) = (  0.6611973  0.8259978  0.2326779  )
        29        S      tau(  29) = (  0.9103547  0.0771472  0.2332950  )
        30        S      tau(  30) = (  0.9104023  0.3280322  0.2333848  )
        31        S      tau(  31) = (  0.9084758  0.5778618  0.2337653  )
        32        S      tau(  32) = (  0.9089960  0.8267459  0.2334255  )
        33        S      tau(  33) = (  0.1606863  0.0776448  0.0763132  )
        34        S      tau(  34) = (  0.1607942  0.3279257  0.0762880  )
        35        S      tau(  35) = (  0.1599344  0.5779805  0.0760488  )
        36        S      tau(  36) = (  0.1605077  0.8277428  0.0762004  )
        37        S      tau(  37) = (  0.4103343  0.0776554  0.0759128  )
        38        S      tau(  38) = (  0.4094707  0.3269991  0.0751424  )
        39        S      tau(  39) = (  0.4087652  0.5773330  0.0743148  )
        40        S      tau(  40) = (  0.4107999  0.8284245  0.0758113  )
        41        S      tau(  41) = (  0.6608352  0.0775887  0.0758235  )
        42        S      tau(  42) = (  0.6615133  0.3272438  0.0746680  )
        43        S      tau(  43) = (  0.6612241  0.5782941  0.0741456  )
        44        S      tau(  44) = (  0.6611856  0.8290927  0.0748146  )
        45        S      tau(  45) = (  0.9114869  0.0785340  0.0760239  )
        46        S      tau(  46) = (  0.9109769  0.3280081  0.0762661  )
        47        S      tau(  47) = (  0.9111710  0.5777822  0.0755432  )
        48        S      tau(  48) = (  0.9115766  0.8286478  0.0751680  )
        49        Ag     tau(  49) = (  0.4521427  0.5947486  0.3647523  )
        50        Ag     tau(  50) = (  0.5145293  0.4151927  0.3464312  )
        51        Ag     tau(  51) = (  0.7763355  0.5477198  0.3560058  )
        52        Ag     tau(  52) = (  0.7049020  0.7298900  0.3443271  )
        53        Ag     tau(  53) = (  0.6288645  0.5719998  0.4491812  )
        54        N      tau(  54) = (  0.5280775  0.5367899  0.5499726  )
        55        O      tau(  55) = (  0.4065249  0.5207274  0.5389220  )
        56        H      tau(  56) = (  0.5672622  0.6044466  0.5851974  )
        57        H      tau(  57) = (  0.4081259  0.5345377  0.4900809  )
        58        H      tau(  58) = (  0.5125710  0.4577243  0.5726514  )

     number of k points=    13
                       cart. coord. in units 2pi/alat
        k(    1) = (   0.0000000   0.0000000   0.0000000), wk =   0.0400000
        k(    2) = (   0.0000000   0.2309401   0.0000000), wk =   0.0800000
        k(    3) = (   0.0000000   0.4618802   0.0000000), wk =   0.0800000
        k(    4) = (   0.2000000   0.3464102   0.0000000), wk =   0.0800000
        k(    5) = (   0.2000000   0.5773503   0.0000000), wk =   0.0800000
        k(    6) = (  -0.2000000   0.1154701   0.0000000), wk =   0.0800000
        k(    7) = (   0.2000000   0.1154701   0.0000000), wk =   0.0800000
        k(    8) = (  -0.4000000   0.2309401   0.0000000), wk =   0.0800000
        k(    9) = (   0.4000000   0.2309401   0.0000000), wk =   0.0800000
        k(   10) = (  -0.2000000   0.3464102   0.0000000), wk =   0.0800000
        k(   11) = (   0.4000000  -0.0000000   0.0000000), wk =   0.0800000
        k(   12) = (  -0.4000000   0.4618802   0.0000000), wk =   0.0800000
        k(   13) = (   0.6000000   0.1154701   0.0000000), wk =   0.0800000

                       cryst. coord.
        k(    1) = (   0.0000000   0.0000000   0.0000000), wk =   0.0400000
        k(    2) = (   0.0000000   0.2000000   0.0000000), wk =   0.0800000
        k(    3) = (   0.0000000   0.4000000   0.0000000), wk =   0.0800000
        k(    4) = (   0.2000000   0.2000000   0.0000000), wk =   0.0800000
        k(    5) = (   0.2000000   0.4000000   0.0000000), wk =   0.0800000
        k(    6) = (  -0.2000000   0.2000000   0.0000000), wk =   0.0800000
        k(    7) = (   0.2000000   0.0000000   0.0000000), wk =   0.0800000
        k(    8) = (  -0.4000000   0.4000000   0.0000000), wk =   0.0800000
        k(    9) = (   0.4000000   0.0000000   0.0000000), wk =   0.0800000
        k(   10) = (  -0.2000000   0.4000000   0.0000000), wk =   0.0800000
        k(   11) = (   0.4000000  -0.2000000   0.0000000), wk =   0.0800000
        k(   12) = (  -0.4000000   0.6000000   0.0000000), wk =   0.0800000
        k(   13) = (   0.6000000  -0.2000000   0.0000000), wk =   0.0800000

     Dense  grid:  2539249 G-vectors     FFT dimensions: ( 160, 160, 243)

     Smooth grid:   897387 G-vectors     FFT dimensions: ( 108, 108, 180)

     Dynamical RAM for                 wfc:       6.50 MB

     Dynamical RAM for     wfc (w. buffer):     175.50 MB

     Dynamical RAM for           str. fact:       3.63 MB

     Dynamical RAM for           local pot:       0.00 MB

     Dynamical RAM for          nlocal pot:      26.11 MB

     Dynamical RAM for                qrad:       9.63 MB

     Dynamical RAM for          rho,v,vnew:       8.32 MB

     Dynamical RAM for               rhoin:       2.77 MB

     Dynamical RAM for            rho*nmix:      19.38 MB

     Dynamical RAM for           G-vectors:       2.38 MB

     Dynamical RAM for          h,s,v(r/c):       2.70 MB

     Dynamical RAM for          <psi|beta>:       3.62 MB

     Dynamical RAM for                 psi:      13.00 MB

     Dynamical RAM for                hpsi:      13.00 MB

     Dynamical RAM for                spsi:      13.00 MB

     Dynamical RAM for      wfcinit/wfcrot:      14.35 MB

     Dynamical RAM for           addusdens:     132.60 MB

     Dynamical RAM for          addusforce:     170.39 MB

     Dynamical RAM for         addusstress:     122.61 MB

     Estimated static dynamical RAM per process >     237.27 MB

     Estimated max dynamical RAM per process >     427.03 MB

     Estimated total dynamical RAM >      26.69 GB
     Generating pointlists ...
     new r_m :   0.0782 (alat units)  1.8731 (a.u.) for type    1
     new r_m :   0.0782 (alat units)  1.8731 (a.u.) for type    2
     new r_m :   0.0751 (alat units)  1.7989 (a.u.) for type    3
     new r_m :   0.0334 (alat units)  0.7997 (a.u.) for type    4
     new r_m :   0.0322 (alat units)  0.7723 (a.u.) for type    5
     new r_m :   0.0322 (alat units)  0.7723 (a.u.) for type    6

     Initial potential from superposition of free atoms

     starting charge     484.9880, renormalised to     485.0000

     negative rho (up, down):  1.009E-03 1.009E-03
     Starting wfcs are  392 randomized atomic wfcs
     Checking if some PAW data can be deallocated... 
       PAW data deallocated on   32 nodes for type:  1
       PAW data deallocated on   42 nodes for type:  2
       PAW data deallocated on   59 nodes for type:  3
       PAW data deallocated on   63 nodes for type:  4
       PAW data deallocated on   63 nodes for type:  5
       PAW data deallocated on   61 nodes for type:  6

     total cpu time spent up to now is      166.4 secs

     per-process dynamical memory:   308.7 Mb

     Self-consistent Calculation

     iteration #  1     ecut=    50.00 Ry     beta= 0.40
     Davidson diagonalization with overlap

---- Real-time Memory Report at c_bands before calling an iterative solver
           365 MiB given to the printing process from OS
           301 MiB allocation reported by mallinfo(arena+hblkhd)
         24191 MiB available memory on the node where the printing process lives
------------------
     ethr =  1.00E-02,  avg # of iterations =  2.0

     Threshold (ethr) on eigenvalues was too large:
     Diagonalizing with lowered threshold

     Davidson diagonalization with overlap

---- Real-time Memory Report at c_bands before calling an iterative solver
           470 MiB given to the printing process from OS
           304 MiB allocation reported by mallinfo(arena+hblkhd)
         21309 MiB available memory on the node where the printing process lives
------------------
     ethr =  4.32E-04,  avg # of iterations =  4.8

     negative rho (up, down):  1.028E-02 6.725E-03

     total cpu time spent up to now is      829.0 secs

     total energy              =  -16138.22656146 Ry
     estimated scf accuracy    <       2.43589267 Ry

     total magnetization       =     1.00 Bohr mag/cell
     absolute magnetization    =     4.14 Bohr mag/cell

     iteration #  2     ecut=    50.00 Ry     beta= 0.40
     Davidson diagonalization with overlap

---- Real-time Memory Report at c_bands before calling an iterative solver
           478 MiB given to the printing process from OS
           311 MiB allocation reported by mallinfo(arena+hblkhd)
         16383 MiB available memory on the node where the printing process lives
------------------
     ethr =  5.02E-04,  avg # of iterations =  7.3

     negative rho (up, down):  3.219E-02 2.304E-02

     total cpu time spent up to now is     1179.6 secs

     total energy              =  -16138.44716619 Ry
     estimated scf accuracy    <       0.41132288 Ry

     total magnetization       =     1.00 Bohr mag/cell
     absolute magnetization    =     3.05 Bohr mag/cell

     iteration #  3     ecut=    50.00 Ry     beta= 0.40
     Davidson diagonalization with overlap

---- Real-time Memory Report at c_bands before calling an iterative solver
           480 MiB given to the printing process from OS
           313 MiB allocation reported by mallinfo(arena+hblkhd)
         18313 MiB available memory on the node where the printing process lives
------------------
     ethr =  8.48E-05,  avg # of iterations =  8.5

     negative rho (up, down):  3.682E-02 2.751E-02

     total cpu time spent up to now is     1543.7 secs

     total energy              =  -16138.51414348 Ry
     estimated scf accuracy    <       0.22124166 Ry

     total magnetization       =     1.00 Bohr mag/cell
     absolute magnetization    =     2.37 Bohr mag/cell

     iteration #  4     ecut=    50.00 Ry     beta= 0.40
     Davidson diagonalization with overlap

---- Real-time Memory Report at c_bands before calling an iterative solver
           482 MiB given to the printing process from OS
           314 MiB allocation reported by mallinfo(arena+hblkhd)
         16798 MiB available memory on the node where the printing process lives
------------------
     ethr =  4.56E-05,  avg # of iterations =  9.8

     negative rho (up, down):  3.086E-02 2.400E-02

     total cpu time spent up to now is     1878.7 secs

     total energy              =  -16138.54464689 Ry
     estimated scf accuracy    <       0.05189010 Ry

     total magnetization       =     1.00 Bohr mag/cell
     absolute magnetization    =     1.98 Bohr mag/cell

     iteration #  5     ecut=    50.00 Ry     beta= 0.40
     Davidson diagonalization with overlap

---- Real-time Memory Report at c_bands before calling an iterative solver
           509 MiB given to the printing process from OS
           347 MiB allocation reported by mallinfo(arena+hblkhd)
         20038 MiB available memory on the node where the printing process lives
------------------
     ethr =  1.07E-05,  avg # of iterations =  7.3

     negative rho (up, down):  2.103E-02 1.669E-02

     total cpu time spent up to now is     2225.6 secs

     total energy              =  -16138.54976157 Ry
     estimated scf accuracy    <       0.03149861 Ry

     total magnetization       =     1.00 Bohr mag/cell
     absolute magnetization    =     1.71 Bohr mag/cell

     iteration #  6     ecut=    50.00 Ry     beta= 0.40
     Davidson diagonalization with overlap

---- Real-time Memory Report at c_bands before calling an iterative solver
           515 MiB given to the printing process from OS
           348 MiB allocation reported by mallinfo(arena+hblkhd)
         15104 MiB available memory on the node where the printing process lives
------------------
     ethr =  6.49E-06,  avg # of iterations =  7.3

     negative rho (up, down):  1.382E-02 1.145E-02

     total cpu time spent up to now is     2542.3 secs

     total energy              =  -16138.55291951 Ry
     estimated scf accuracy    <       0.01640852 Ry

     total magnetization       =     1.00 Bohr mag/cell
     absolute magnetization    =     1.48 Bohr mag/cell

     iteration #  7     ecut=    50.00 Ry     beta= 0.40
     Davidson diagonalization with overlap

---- Real-time Memory Report at c_bands before calling an iterative solver
           522 MiB given to the printing process from OS
           350 MiB allocation reported by mallinfo(arena+hblkhd)
         17361 MiB available memory on the node where the printing process lives
------------------
     ethr =  3.38E-06,  avg # of iterations =  5.3

     negative rho (up, down):  1.987E-02 2.040E-02

     total cpu time spent up to now is     2842.9 secs

     total energy              =  -16138.55154623 Ry
     estimated scf accuracy    <       0.00823115 Ry

     total magnetization       =     1.00 Bohr mag/cell
     absolute magnetization    =     1.33 Bohr mag/cell

     iteration #  8     ecut=    50.00 Ry     beta= 0.40
     Davidson diagonalization with overlap

---- Real-time Memory Report at c_bands before calling an iterative solver
           526 MiB given to the printing process from OS
           351 MiB allocation reported by mallinfo(arena+hblkhd)
         19220 MiB available memory on the node where the printing process lives
------------------
     ethr =  1.70E-06,  avg # of iterations =  8.1

     negative rho (up, down):  2.105E-02 2.220E-02

     total cpu time spent up to now is     3153.5 secs

     total energy              =  -16138.55116085 Ry
     estimated scf accuracy    <       0.00208057 Ry

     total magnetization       =     1.00 Bohr mag/cell
     absolute magnetization    =     1.22 Bohr mag/cell

     iteration #  9     ecut=    50.00 Ry     beta= 0.40
     Davidson diagonalization with overlap

---- Real-time Memory Report at c_bands before calling an iterative solver
           526 MiB given to the printing process from OS
           351 MiB allocation reported by mallinfo(arena+hblkhd)
         17386 MiB available memory on the node where the printing process lives
------------------
     ethr =  4.29E-07,  avg # of iterations =  7.8

     negative rho (up, down):  1.518E-02 1.610E-02

     total cpu time spent up to now is     3506.7 secs

     total energy              =  -16138.55309450 Ry
     estimated scf accuracy    <       0.00049858 Ry

     total magnetization       =     1.00 Bohr mag/cell
     absolute magnetization    =     1.17 Bohr mag/cell

     iteration # 10     ecut=    50.00 Ry     beta= 0.40
     Davidson diagonalization with overlap

---- Real-time Memory Report at c_bands before calling an iterative solver
           527 MiB given to the printing process from OS
           352 MiB allocation reported by mallinfo(arena+hblkhd)
         17445 MiB available memory on the node where the printing process lives
------------------
     ethr =  1.03E-07,  avg # of iterations =  7.3

     negative rho (up, down):  1.097E-02 1.173E-02

     total cpu time spent up to now is     3861.9 secs

     total energy              =  -16138.55415767 Ry
     estimated scf accuracy    <       0.00015233 Ry

     total magnetization       =     1.00 Bohr mag/cell
     absolute magnetization    =     1.15 Bohr mag/cell

     iteration # 11     ecut=    50.00 Ry     beta= 0.40
     Davidson diagonalization with overlap

---- Real-time Memory Report at c_bands before calling an iterative solver
           529 MiB given to the printing process from OS
           354 MiB allocation reported by mallinfo(arena+hblkhd)
         17520 MiB available memory on the node where the printing process lives
------------------
     ethr =  3.14E-08,  avg # of iterations =  7.7

     negative rho (up, down):  7.847E-03 8.434E-03

     total cpu time spent up to now is     4260.5 secs

     total energy              =  -16138.55477021 Ry
     estimated scf accuracy    <       0.00008589 Ry

     total magnetization       =     1.00 Bohr mag/cell
     absolute magnetization    =     1.14 Bohr mag/cell

     iteration # 12     ecut=    50.00 Ry     beta= 0.40
     Davidson diagonalization with overlap

---- Real-time Memory Report at c_bands before calling an iterative solver
           530 MiB given to the printing process from OS
           355 MiB allocation reported by mallinfo(arena+hblkhd)
         17303 MiB available memory on the node where the printing process lives
------------------
     ethr =  1.77E-08,  avg # of iterations =  6.7

     negative rho (up, down):  5.983E-03 6.439E-03

     total cpu time spent up to now is     4617.7 secs

     total energy              =  -16138.55503243 Ry
     estimated scf accuracy    <       0.00003101 Ry

     total magnetization       =     1.00 Bohr mag/cell
     absolute magnetization    =     1.13 Bohr mag/cell

     iteration # 13     ecut=    50.00 Ry     beta= 0.40
     Davidson diagonalization with overlap

---- Real-time Memory Report at c_bands before calling an iterative solver
           530 MiB given to the printing process from OS
           355 MiB allocation reported by mallinfo(arena+hblkhd)
         17343 MiB available memory on the node where the printing process lives
------------------
     ethr =  6.39E-09,  avg # of iterations =  7.1

     negative rho (up, down):  5.220E-03 5.625E-03

     total cpu time spent up to now is     4968.4 secs

     total energy              =  -16138.55511910 Ry
     estimated scf accuracy    <       0.00001266 Ry

     total magnetization       =     1.00 Bohr mag/cell
     absolute magnetization    =     1.12 Bohr mag/cell

     iteration # 14     ecut=    50.00 Ry     beta= 0.40
     Davidson diagonalization with overlap

---- Real-time Memory Report at c_bands before calling an iterative solver
           530 MiB given to the printing process from OS
           355 MiB allocation reported by mallinfo(arena+hblkhd)
         18479 MiB available memory on the node where the printing process lives
------------------
     ethr =  2.61E-09,  avg # of iterations =  4.5

     negative rho (up, down):  4.897E-03 5.277E-03

     total cpu time spent up to now is     5283.8 secs

     total energy              =  -16138.55515534 Ry
     estimated scf accuracy    <       0.00000883 Ry

     total magnetization       =     1.00 Bohr mag/cell
     absolute magnetization    =     1.12 Bohr mag/cell

     iteration # 15     ecut=    50.00 Ry     beta= 0.40
     Davidson diagonalization with overlap

---- Real-time Memory Report at c_bands before calling an iterative solver
           530 MiB given to the printing process from OS
           355 MiB allocation reported by mallinfo(arena+hblkhd)
         16366 MiB available memory on the node where the printing process lives
------------------
     ethr =  1.82E-09,  avg # of iterations =  2.0

     negative rho (up, down):  4.848E-03 5.226E-03

     total cpu time spent up to now is     5549.6 secs

     total energy              =  -16138.55516106 Ry
     estimated scf accuracy    <       0.00000719 Ry

     total magnetization       =     1.00 Bohr mag/cell
     absolute magnetization    =     1.12 Bohr mag/cell

     iteration # 16     ecut=    50.00 Ry     beta= 0.40
     Davidson diagonalization with overlap

---- Real-time Memory Report at c_bands before calling an iterative solver
           530 MiB given to the printing process from OS
           355 MiB allocation reported by mallinfo(arena+hblkhd)
         16076 MiB available memory on the node where the printing process lives
------------------
     ethr =  1.48E-09,  avg # of iterations =  2.5

     negative rho (up, down):  5.342E-03 5.740E-03

     total cpu time spent up to now is     5813.6 secs

     total energy              =  -16138.55511050 Ry
     estimated scf accuracy    <       0.00000433 Ry

     total magnetization       =     1.00 Bohr mag/cell
     absolute magnetization    =     1.12 Bohr mag/cell

     iteration # 17     ecut=    50.00 Ry     beta= 0.40
     Davidson diagonalization with overlap

---- Real-time Memory Report at c_bands before calling an iterative solver
           530 MiB given to the printing process from OS
           355 MiB allocation reported by mallinfo(arena+hblkhd)
         18204 MiB available memory on the node where the printing process lives
------------------
     ethr =  8.94E-10,  avg # of iterations =  8.1

     negative rho (up, down):  4.955E-03 5.335E-03

     total cpu time spent up to now is     6185.0 secs

     total energy              =  -16138.55514835 Ry
     estimated scf accuracy    <       0.00000596 Ry

     total magnetization       =     1.00 Bohr mag/cell
     absolute magnetization    =     1.12 Bohr mag/cell

     iteration # 18     ecut=    50.00 Ry     beta= 0.40
     Davidson diagonalization with overlap

---- Real-time Memory Report at c_bands before calling an iterative solver
           530 MiB given to the printing process from OS
           355 MiB allocation reported by mallinfo(arena+hblkhd)
         18276 MiB available memory on the node where the printing process lives
------------------
     ethr =  8.94E-10,  avg # of iterations =  9.3

     negative rho (up, down):  4.814E-03 5.183E-03

     total cpu time spent up to now is     6504.1 secs

     total energy              =  -16138.55516515 Ry
     estimated scf accuracy    <       0.00000096 Ry

     total magnetization       =     1.00 Bohr mag/cell
     absolute magnetization    =     1.12 Bohr mag/cell

     iteration # 19     ecut=    50.00 Ry     beta= 0.40
     Davidson diagonalization with overlap

---- Real-time Memory Report at c_bands before calling an iterative solver
           530 MiB given to the printing process from OS
           355 MiB allocation reported by mallinfo(arena+hblkhd)
         15383 MiB available memory on the node where the printing process lives
------------------
     ethr =  1.97E-10,  avg # of iterations =  7.5

     negative rho (up, down):  4.800E-03 5.167E-03

     total cpu time spent up to now is     6958.4 secs

     total energy              =  -16138.55516698 Ry
     estimated scf accuracy    <       0.00000282 Ry

     total magnetization       =     1.00 Bohr mag/cell
     absolute magnetization    =     1.12 Bohr mag/cell

     iteration # 20     ecut=    50.00 Ry     beta= 0.40
     Davidson diagonalization with overlap

---- Real-time Memory Report at c_bands before calling an iterative solver
           530 MiB given to the printing process from OS
           355 MiB allocation reported by mallinfo(arena+hblkhd)
         15740 MiB available memory on the node where the printing process lives
------------------
     ethr =  1.97E-10,  avg # of iterations =  6.5

     negative rho (up, down):  4.808E-03 5.176E-03

     total cpu time spent up to now is     7309.1 secs

     total energy              =  -16138.55516541 Ry
     estimated scf accuracy    <       0.00000078 Ry

     total magnetization       =     1.00 Bohr mag/cell
     absolute magnetization    =     1.12 Bohr mag/cell

     iteration # 21     ecut=    50.00 Ry     beta= 0.40
     Davidson diagonalization with overlap

---- Real-time Memory Report at c_bands before calling an iterative solver
           530 MiB given to the printing process from OS
           355 MiB allocation reported by mallinfo(arena+hblkhd)
         19520 MiB available memory on the node where the printing process lives
------------------
     ethr =  1.61E-10,  avg # of iterations =  6.0

     negative rho (up, down):  4.802E-03 5.169E-03

     total cpu time spent up to now is     7703.8 secs

     total energy              =  -16138.55516649 Ry
     estimated scf accuracy    <       0.00000047 Ry

     total magnetization       =     1.00 Bohr mag/cell
     absolute magnetization    =     1.12 Bohr mag/cell

     iteration # 22     ecut=    50.00 Ry     beta= 0.40
     Davidson diagonalization with overlap

---- Real-time Memory Report at c_bands before calling an iterative solver
           530 MiB given to the printing process from OS
           355 MiB allocation reported by mallinfo(arena+hblkhd)
         17688 MiB available memory on the node where the printing process lives
------------------
     ethr =  9.71E-11,  avg # of iterations =  2.0

     negative rho (up, down):  4.799E-03 5.166E-03

     total cpu time spent up to now is     7973.2 secs

     total energy              =  -16138.55516671 Ry
     estimated scf accuracy    <       0.00000017 Ry

     total magnetization       =     1.00 Bohr mag/cell
     absolute magnetization    =     1.12 Bohr mag/cell

     iteration # 23     ecut=    50.00 Ry     beta= 0.40
     Davidson diagonalization with overlap

---- Real-time Memory Report at c_bands before calling an iterative solver
           530 MiB given to the printing process from OS
           355 MiB allocation reported by mallinfo(arena+hblkhd)
         19348 MiB available memory on the node where the printing process lives
------------------
     ethr =  3.52E-11,  avg # of iterations =  6.5

     negative rho (up, down):  4.796E-03 5.163E-03

     total cpu time spent up to now is     8370.3 secs

     total energy              =  -16138.55516719 Ry
     estimated scf accuracy    <       0.00000007 Ry

     total magnetization       =     1.00 Bohr mag/cell
     absolute magnetization    =     1.12 Bohr mag/cell

     iteration # 24     ecut=    50.00 Ry     beta= 0.40
     Davidson diagonalization with overlap

---- Real-time Memory Report at c_bands before calling an iterative solver
           530 MiB given to the printing process from OS
           355 MiB allocation reported by mallinfo(arena+hblkhd)
         17725 MiB available memory on the node where the printing process lives
------------------
     ethr =  1.40E-11,  avg # of iterations =  2.0

     negative rho (up, down):  4.796E-03 5.162E-03

     total cpu time spent up to now is     8637.7 secs

     total energy              =  -16138.55516722 Ry
     estimated scf accuracy    <       0.00000004 Ry

     total magnetization       =     1.00 Bohr mag/cell
     absolute magnetization    =     1.12 Bohr mag/cell

     iteration # 25     ecut=    50.00 Ry     beta= 0.40
     Davidson diagonalization with overlap

---- Real-time Memory Report at c_bands before calling an iterative solver
           530 MiB given to the printing process from OS
           355 MiB allocation reported by mallinfo(arena+hblkhd)
         15488 MiB available memory on the node where the printing process lives
------------------
     ethr =  8.48E-12,  avg # of iterations =  7.3

     negative rho (up, down):  4.795E-03 5.162E-03

     total cpu time spent up to now is     9004.4 secs

     total energy              =  -16138.55516725 Ry
     estimated scf accuracy    <          8.1E-09 Ry

     total magnetization       =     1.00 Bohr mag/cell
     absolute magnetization    =     1.12 Bohr mag/cell

     iteration # 26     ecut=    50.00 Ry     beta= 0.40
     Davidson diagonalization with overlap

---- Real-time Memory Report at c_bands before calling an iterative solver
           530 MiB given to the printing process from OS
           355 MiB allocation reported by mallinfo(arena+hblkhd)
         15482 MiB available memory on the node where the printing process lives
------------------
     ethr =  1.67E-12,  avg # of iterations =  2.0

     negative rho (up, down):  4.795E-03 5.162E-03

     total cpu time spent up to now is     9278.6 secs

     total energy              =  -16138.55516725 Ry
     estimated scf accuracy    <          6.2E-09 Ry

     total magnetization       =     1.00 Bohr mag/cell
     absolute magnetization    =     1.12 Bohr mag/cell

     iteration # 27     ecut=    50.00 Ry     beta= 0.40
     Davidson diagonalization with overlap

---- Real-time Memory Report at c_bands before calling an iterative solver
           530 MiB given to the printing process from OS
           355 MiB allocation reported by mallinfo(arena+hblkhd)
         14696 MiB available memory on the node where the printing process lives
------------------
     ethr =  1.27E-12,  avg # of iterations =  7.8

     negative rho (up, down):  4.795E-03 5.162E-03

     total cpu time spent up to now is     9609.2 secs

     total energy              =  -16138.55516726 Ry
     estimated scf accuracy    <          1.4E-09 Ry

     total magnetization       =     1.00 Bohr mag/cell
     absolute magnetization    =     1.12 Bohr mag/cell

     iteration # 28     ecut=    50.00 Ry     beta= 0.40
     Davidson diagonalization with overlap

---- Real-time Memory Report at c_bands before calling an iterative solver
           530 MiB given to the printing process from OS
           355 MiB allocation reported by mallinfo(arena+hblkhd)
         17790 MiB available memory on the node where the printing process lives
------------------
     ethr =  2.85E-13,  avg # of iterations =  5.0

     negative rho (up, down):  4.795E-03 5.162E-03

     total cpu time spent up to now is     9902.8 secs

     total energy              =  -16138.55516726 Ry
     estimated scf accuracy    <          7.2E-10 Ry

     total magnetization       =     1.00 Bohr mag/cell
     absolute magnetization    =     1.12 Bohr mag/cell

     iteration # 29     ecut=    50.00 Ry     beta= 0.40
     Davidson diagonalization with overlap

---- Real-time Memory Report at c_bands before calling an iterative solver
           530 MiB given to the printing process from OS
           355 MiB allocation reported by mallinfo(arena+hblkhd)
         17645 MiB available memory on the node where the printing process lives
------------------
     ethr =  1.48E-13,  avg # of iterations =  7.4

     negative rho (up, down):  4.794E-03 5.162E-03

     total cpu time spent up to now is    10280.2 secs

     total energy              =  -16138.55516726 Ry
     estimated scf accuracy    <          6.8E-10 Ry

     total magnetization       =     1.00 Bohr mag/cell
     absolute magnetization    =     1.12 Bohr mag/cell

     iteration # 30     ecut=    50.00 Ry     beta= 0.40
     Davidson diagonalization with overlap

---- Real-time Memory Report at c_bands before calling an iterative solver
           530 MiB given to the printing process from OS
           355 MiB allocation reported by mallinfo(arena+hblkhd)
         17709 MiB available memory on the node where the printing process lives
------------------
     ethr =  1.40E-13,  avg # of iterations =  2.0

     negative rho (up, down):  4.794E-03 5.162E-03

     total cpu time spent up to now is    10546.4 secs

     total energy              =  -16138.55516726 Ry
     estimated scf accuracy    <          5.5E-10 Ry

     total magnetization       =     1.00 Bohr mag/cell
     absolute magnetization    =     1.12 Bohr mag/cell

     iteration # 31     ecut=    50.00 Ry     beta= 0.40
     Davidson diagonalization with overlap

---- Real-time Memory Report at c_bands before calling an iterative solver
           530 MiB given to the printing process from OS
           355 MiB allocation reported by mallinfo(arena+hblkhd)
         16883 MiB available memory on the node where the printing process lives
------------------
     ethr =  1.14E-13,  avg # of iterations =  7.4

     negative rho (up, down):  4.794E-03 5.162E-03

     total cpu time spent up to now is    10930.4 secs

     total energy              =  -16138.55516726 Ry
     estimated scf accuracy    <          4.6E-10 Ry

     total magnetization       =     1.00 Bohr mag/cell
     absolute magnetization    =     1.12 Bohr mag/cell

     iteration # 32     ecut=    50.00 Ry     beta= 0.40
     Davidson diagonalization with overlap

---- Real-time Memory Report at c_bands before calling an iterative solver
           530 MiB given to the printing process from OS
           355 MiB allocation reported by mallinfo(arena+hblkhd)
         15412 MiB available memory on the node where the printing process lives
------------------
     ethr =  1.00E-13,  avg # of iterations =  2.8

     negative rho (up, down):  4.794E-03 5.162E-03

     total cpu time spent up to now is    11199.9 secs

     total energy              =  -16138.55516726 Ry
     estimated scf accuracy    <          3.2E-10 Ry

     total magnetization       =     1.00 Bohr mag/cell
     absolute magnetization    =     1.12 Bohr mag/cell

     iteration # 33     ecut=    50.00 Ry     beta= 0.40
     Davidson diagonalization with overlap

---- Real-time Memory Report at c_bands before calling an iterative solver
           530 MiB given to the printing process from OS
           355 MiB allocation reported by mallinfo(arena+hblkhd)
         14840 MiB available memory on the node where the printing process lives
------------------
     ethr =  1.00E-13,  avg # of iterations =  7.5

     negative rho (up, down):  4.794E-03 5.162E-03

     Magnetic moment per site  (integrated on atomic sphere of radius R)
     atom   1 (R=0.078)  charge= 10.3731  magn=  0.0015
     atom   2 (R=0.078)  charge= 10.3731  magn=  0.0080
     atom   3 (R=0.078)  charge= 10.3740  magn= -0.0007
     atom   4 (R=0.078)  charge= 10.3743  magn=  0.0147
     atom   5 (R=0.078)  charge= 10.3763  magn=  0.0111
     atom   6 (R=0.078)  charge= 10.3757  magn=  0.0063
     atom   7 (R=0.078)  charge= 10.3783  magn=  0.0052
     atom   8 (R=0.078)  charge= 10.3749  magn=  0.0108
     atom   9 (R=0.078)  charge= 10.3753  magn=  0.0033
     atom  10 (R=0.078)  charge= 10.3820  magn=  0.0364
     atom  11 (R=0.078)  charge= 10.3836  magn=  0.0167
     atom  12 (R=0.078)  charge= 10.3743  magn=  0.0164
     atom  13 (R=0.078)  charge= 10.3731  magn=  0.0029
     atom  14 (R=0.078)  charge= 10.3740  magn= -0.0006
     atom  15 (R=0.078)  charge= 10.3816  magn=  0.0172
     atom  16 (R=0.078)  charge= 10.3760  magn=  0.0042
     atom  17 (R=0.078)  charge=  4.1591  magn=  0.0027
     atom  18 (R=0.078)  charge=  4.1558  magn=  0.0017
     atom  19 (R=0.078)  charge=  4.1586  magn= -0.0000
     atom  20 (R=0.078)  charge=  4.1590  magn=  0.0027
     atom  21 (R=0.078)  charge=  4.1594  magn=  0.0025
     atom  22 (R=0.078)  charge=  4.1750  magn=  0.0122
     atom  23 (R=0.078)  charge=  4.1787  magn=  0.0050
     atom  24 (R=0.078)  charge=  4.1586  magn=  0.0036
     atom  25 (R=0.078)  charge=  4.1591  magn=  0.0022
     atom  26 (R=0.078)  charge=  4.1626  magn=  0.0026
     atom  27 (R=0.078)  charge=  4.1805  magn=  0.0068
     atom  28 (R=0.078)  charge=  4.1668  magn=  0.0125
     atom  29 (R=0.078)  charge=  4.1578  magn=  0.0030
     atom  30 (R=0.078)  charge=  4.1574  magn=  0.0007
     atom  31 (R=0.078)  charge=  4.1566  magn=  0.0017
     atom  32 (R=0.078)  charge=  4.1575  magn=  0.0062
     atom  33 (R=0.078)  charge=  4.1610  magn=  0.0008
     atom  34 (R=0.078)  charge=  4.1591  magn=  0.0009
     atom  35 (R=0.078)  charge=  4.1606  magn= -0.0002
     atom  36 (R=0.078)  charge=  4.1609  magn=  0.0001
     atom  37 (R=0.078)  charge=  4.1601  magn=  0.0005
     atom  38 (R=0.078)  charge=  4.1589  magn=  0.0036
     atom  39 (R=0.078)  charge=  4.1568  magn=  0.0010
     atom  40 (R=0.078)  charge=  4.1595  magn= -0.0001
     atom  41 (R=0.078)  charge=  4.1602  magn=  0.0005
     atom  42 (R=0.078)  charge=  4.1579  magn=  0.0018
     atom  43 (R=0.078)  charge=  4.1526  magn=  0.0025
     atom  44 (R=0.078)  charge=  4.1584  magn=  0.0032
     atom  45 (R=0.078)  charge=  4.1594  magn=  0.0015
     atom  46 (R=0.078)  charge=  4.1597  magn=  0.0002
     atom  47 (R=0.078)  charge=  4.1603  magn=  0.0006
     atom  48 (R=0.078)  charge=  4.1598  magn=  0.0022
     atom  49 (R=0.075)  charge=  8.3763  magn=  0.0118
     atom  50 (R=0.075)  charge=  8.3724  magn=  0.0310
     atom  51 (R=0.075)  charge=  8.3760  magn=  0.0134
     atom  52 (R=0.075)  charge=  8.3726  magn=  0.0330
     atom  53 (R=0.075)  charge=  8.3614  magn=  0.0185
     atom  54 (R=0.033)  charge=  1.3239  magn= -0.0002
     atom  55 (R=0.032)  charge=  2.0134  magn=  0.0004
     atom  56 (R=0.032)  charge=  0.4155  magn=  0.0002
     atom  57 (R=0.032)  charge=  0.4031  magn=  0.0001
     atom  58 (R=0.032)  charge=  0.4155  magn=  0.0001

     total cpu time spent up to now is    11489.1 secs

     End of self-consistent calculation

 ------ SPIN UP ------------


          k = 0.0000 0.0000 0.0000 (112117 PWs)   bands (ev):

   -73.8181 -73.8146 -73.8117 -73.8091 -73.8072 -73.8063 -73.8037 -73.8018
   -73.7969 -73.7951 -73.7923 -73.7901 -73.7883 -73.7556 -73.7508 -73.7414
   -38.2260 -38.2212 -38.2199 -38.1651 -38.1642 -38.1594 -38.1589 -38.1526
   -38.1448 -38.0610 -38.0581 -38.0554 -38.0548 -38.0497 -38.0477 -38.0458
   -38.0323 -38.0306 -38.0281 -38.0275 -38.0236 -38.0230 -38.0207 -38.0186
   -38.0180 -38.0151 -38.0136 -38.0056 -37.9968 -37.9937 -37.9925 -37.9895
   -37.9879 -37.9837 -37.9700 -37.9598 -37.9584 -37.9556 -37.9531 -37.9476
   -37.9264 -37.9196 -37.9151 -37.9145 -37.9107 -37.9058 -37.8715 -37.8682
   -21.3346 -15.4768 -14.6001 -13.7134 -13.7002 -13.6762 -13.6457 -13.6326
   -13.6223 -12.9847 -12.7150 -12.6794 -12.6571 -12.6413 -12.6049 -12.5831
   -12.5417 -12.5089 -12.4749 -12.4586 -12.4473 -12.4453 -12.4239 -12.4226
   -12.4178 -12.2253 -12.2033 -12.1922 -12.1764 -12.1593 -12.1555 -12.1518
   -12.1486 -12.1461  -7.8786  -7.4450  -6.3450  -6.3293  -6.3113  -6.2859
    -6.1260  -5.6173  -5.5759  -5.5539  -5.5356  -5.5305  -5.4966  -5.4480
    -5.4173  -5.3946  -5.3168  -5.2868  -5.2647  -5.1089  -5.0967  -5.0675
    -5.0625  -5.0580  -5.0569  -5.0024  -5.0010  -4.9920  -4.5275  -4.4446
    -4.4052  -4.3504  -4.2973  -4.2875  -4.2715  -4.2504  -4.2361  -4.1863
    -4.0840  -4.0140  -3.9820  -3.9659  -3.9397  -3.7993  -3.7639  -3.7622
    -3.7083  -3.6815  -3.6780  -3.6298  -3.5199  -3.4782  -3.4112  -3.4067
    -3.3776  -3.3695  -3.3085  -3.2298  -3.2007  -3.1867  -3.1679  -3.1466
    -3.1373  -3.1295  -3.1150  -3.1117  -3.0676  -2.9658  -2.8270  -2.7819
    -2.7270  -2.6832  -2.6526  -2.5953  -2.5872  -2.5343  -2.5198  -2.4695
    -2.4648  -2.4384  -2.4364  -2.4311  -2.4062  -2.3475  -2.2986  -2.2142
    -2.1378  -2.0904  -1.9846  -1.9812  -1.9587  -1.9371  -1.8734  -1.8420
    -1.8198  -1.7882  -1.7724  -1.7709  -1.7577  -1.7553  -1.7480  -1.7467
    -1.7413  -1.7129  -1.7058  -1.6710  -1.6638  -1.6494  -1.6400  -1.6137
    -1.5864  -1.5356  -1.5274  -1.5104  -1.4569  -1.4218  -1.3771  -1.3605
    -1.3152  -1.2832  -1.2105  -1.1028  -1.0710  -1.0332  -1.0179  -0.9998
    -0.7339  -0.6969  -0.6927  -0.6903  -0.6811  -0.6772  -0.6520  -0.6489
    -0.6328  -0.3998  -0.3913  -0.3799  -0.3647  -0.3523  -0.3441  -0.3273
     0.1944   1.2530   1.5328

     occupation numbers 
     1.0000   1.0000   1.0000   1.0000   1.0000   1.0000   1.0000   1.0000
     1.0000   1.0000   1.0000   1.0000   1.0000   1.0000   1.0000   1.0000
     1.0000   1.0000   1.0000   1.0000   1.0000   1.0000   1.0000   1.0000
     1.0000   1.0000   1.0000   1.0000   1.0000   1.0000   1.0000   1.0000
     1.0000   1.0000   1.0000   1.0000   1.0000   1.0000   1.0000   1.0000
     1.0000   1.0000   1.0000   1.0000   1.0000   1.0000   1.0000   1.0000
     1.0000   1.0000   1.0000   1.0000   1.0000   1.0000   1.0000   1.0000
     1.0000   1.0000   1.0000   1.0000   1.0000   1.0000   1.0000   1.0000
     1.0000   1.0000   1.0000   1.0000   1.0000   1.0000   1.0000   1.0000
     1.0000   1.0000   1.0000   1.0000   1.0000   1.0000   1.0000   1.0000
     1.0000   1.0000   1.0000   1.0000   1.0000   1.0000   1.0000   1.0000
     1.0000   1.0000   1.0000   1.0000   1.0000   1.0000   1.0000   1.0000
     1.0000   1.0000   1.0000   1.0000   1.0000   1.0000   1.0000   1.0000
     1.0000   1.0000   1.0000   1.0000   1.0000   1.0000   1.0000   1.0000
     1.0000   1.0000   1.0000   1.0000   1.0000   1.0000   1.0000   1.0000
     1.0000   1.0000   1.0000   1.0000   1.0000   1.0000   1.0000   1.0000
     1.0000   1.0000   1.0000   1.0000   1.0000   1.0000   1.0000   1.0000
     1.0000   1.0000   1.0000   1.0000   1.0000   1.0000   1.0000   1.0000
     1.0000   1.0000   1.0000   1.0000   1.0000   1.0000   1.0000   1.0000
     1.0000   1.0000   1.0000   1.0000   1.0000   1.0000   1.0000   1.0000
     1.0000   1.0000   1.0000   1.0000   1.0000   1.0000   1.0000   1.0000
     1.0000   1.0000   1.0000   1.0000   1.0000   1.0000   1.0000   1.0000
     1.0000   1.0000   1.0000   1.0000   1.0000   1.0000   1.0000   1.0000
     1.0000   1.0000   1.0000   1.0000   1.0000   1.0000   1.0000   1.0000
     1.0000   1.0000   1.0000   1.0000   1.0000   1.0000   1.0000   1.0000
     1.0000   1.0000   1.0000   1.0000   1.0000   1.0000   1.0000   1.0000
     1.0000   1.0000   1.0000   1.0000   1.0000   1.0000   1.0000   1.0000
     1.0000   1.0000   1.0000   1.0000   1.0000   1.0000   1.0000   1.0000
     1.0000   1.0000   1.0000   1.0000   1.0000   1.0000   1.0000   1.0000
     1.0000   1.0000   1.0000   1.0000   1.0000   1.0000   1.0000   1.0000
     1.0000   1.0000   1.0000

          k = 0.0000 0.2309 0.0000 (112171 PWs)   bands (ev):

   -73.8179 -73.8148 -73.8117 -73.8093 -73.8070 -73.8063 -73.8037 -73.8017
   -73.7971 -73.7951 -73.7922 -73.7902 -73.7883 -73.7556 -73.7508 -73.7414
   -38.2208 -38.2158 -38.2137 -38.1715 -38.1669 -38.1635 -38.1566 -38.1491
   -38.1421 -38.1048 -38.0801 -38.0779 -38.0540 -38.0503 -38.0468 -38.0338
   -38.0305 -38.0277 -38.0254 -38.0227 -38.0195 -38.0175 -38.0146 -38.0127
   -38.0056 -38.0003 -37.9985 -37.9971 -37.9952 -37.9933 -37.9898 -37.9884
   -37.9870 -37.9836 -37.9703 -37.9631 -37.9609 -37.9560 -37.9530 -37.9478
   -37.9337 -37.9241 -37.9231 -37.9126 -37.9095 -37.9022 -37.8790 -37.8698
   -21.3346 -15.4768 -14.5585 -13.9789 -13.8041 -13.7870 -13.4959 -13.4630
   -13.3263 -12.9687 -12.8086 -12.7370 -12.6991 -12.6893 -12.6567 -12.5893
   -12.5567 -12.5447 -12.4961 -12.4784 -12.4587 -12.4389 -12.4251 -12.3185
   -12.2868 -12.2649 -12.2457 -12.2158 -12.1870 -12.1761 -12.1697 -12.1542
   -12.0969 -12.0817  -7.8786  -7.4450  -6.2835  -6.2720  -6.2392  -6.2381
    -6.1251  -5.6726  -5.6494  -5.6322  -5.5617  -5.5206  -5.4913  -5.4732
    -5.4322  -5.4201  -5.3979  -5.3231  -5.3188  -5.2895  -5.2723  -5.0754
    -5.0683  -5.0201  -5.0041  -4.9582  -4.7415  -4.7363  -4.5938  -4.4874
    -4.4559  -4.3884  -4.3251  -4.2909  -4.2125  -4.1633  -4.1490  -4.1227
    -4.1019  -4.0650  -4.0457  -4.0034  -3.9872  -3.9149  -3.9118  -3.9033
    -3.6871  -3.5808  -3.5461  -3.5128  -3.4715  -3.4480  -3.4408  -3.3866
    -3.3665  -3.3202  -3.3010  -3.2849  -3.2786  -3.2122  -3.1974  -3.1516
    -3.1076  -2.9999  -2.9682  -2.9374  -2.8635  -2.8028  -2.7794  -2.7514
    -2.7280  -2.7208  -2.7017  -2.6894  -2.6617  -2.6409  -2.6131  -2.5475
    -2.5307  -2.5100  -2.4806  -2.4496  -2.3671  -2.3195  -2.2085  -2.1672
    -2.1282  -2.0916  -2.0211  -2.0068  -1.9879  -1.9715  -1.9404  -1.9135
    -1.8941  -1.8667  -1.8558  -1.8218  -1.7955  -1.7686  -1.7515  -1.7415
    -1.7276  -1.7071  -1.6929  -1.6699  -1.6536  -1.6126  -1.5885  -1.5557
    -1.5391  -1.4978  -1.4874  -1.4646  -1.4361  -1.3755  -1.3402  -1.3299
    -1.2996  -1.2840  -1.2500  -1.2310  -1.1732  -1.0753  -1.0563  -1.0341
    -0.8999  -0.7830  -0.7649  -0.7525  -0.5757  -0.5671  -0.5555  -0.5369
    -0.5239  -0.5140  -0.4158  -0.3797  -0.3681  -0.2699  -0.1728  -0.1479
     0.1753   1.2594   1.5642

     occupation numbers 
     1.0000   1.0000   1.0000   1.0000   1.0000   1.0000   1.0000   1.0000
     1.0000   1.0000   1.0000   1.0000   1.0000   1.0000   1.0000   1.0000
     1.0000   1.0000   1.0000   1.0000   1.0000   1.0000   1.0000   1.0000
     1.0000   1.0000   1.0000   1.0000   1.0000   1.0000   1.0000   1.0000
     1.0000   1.0000   1.0000   1.0000   1.0000   1.0000   1.0000   1.0000
     1.0000   1.0000   1.0000   1.0000   1.0000   1.0000   1.0000   1.0000
     1.0000   1.0000   1.0000   1.0000   1.0000   1.0000   1.0000   1.0000
     1.0000   1.0000   1.0000   1.0000   1.0000   1.0000   1.0000   1.0000
     1.0000   1.0000   1.0000   1.0000   1.0000   1.0000   1.0000   1.0000
     1.0000   1.0000   1.0000   1.0000   1.0000   1.0000   1.0000   1.0000
     1.0000   1.0000   1.0000   1.0000   1.0000   1.0000   1.0000   1.0000
     1.0000   1.0000   1.0000   1.0000   1.0000   1.0000   1.0000   1.0000
     1.0000   1.0000   1.0000   1.0000   1.0000   1.0000   1.0000   1.0000
     1.0000   1.0000   1.0000   1.0000   1.0000   1.0000   1.0000   1.0000
     1.0000   1.0000   1.0000   1.0000   1.0000   1.0000   1.0000   1.0000
     1.0000   1.0000   1.0000   1.0000   1.0000   1.0000   1.0000   1.0000
     1.0000   1.0000   1.0000   1.0000   1.0000   1.0000   1.0000   1.0000
     1.0000   1.0000   1.0000   1.0000   1.0000   1.0000   1.0000   1.0000
     1.0000   1.0000   1.0000   1.0000   1.0000   1.0000   1.0000   1.0000
     1.0000   1.0000   1.0000   1.0000   1.0000   1.0000   1.0000   1.0000
     1.0000   1.0000   1.0000   1.0000   1.0000   1.0000   1.0000   1.0000
     1.0000   1.0000   1.0000   1.0000   1.0000   1.0000   1.0000   1.0000
     1.0000   1.0000   1.0000   1.0000   1.0000   1.0000   1.0000   1.0000
     1.0000   1.0000   1.0000   1.0000   1.0000   1.0000   1.0000   1.0000
     1.0000   1.0000   1.0000   1.0000   1.0000   1.0000   1.0000   1.0000
     1.0000   1.0000   1.0000   1.0000   1.0000   1.0000   1.0000   1.0000
     1.0000   1.0000   1.0000   1.0000   1.0000   1.0000   1.0000   1.0000
     1.0000   1.0000   1.0000   1.0000   1.0000   1.0000   1.0000   1.0000
     1.0000   1.0000   1.0000   1.0000   1.0000   1.0000   1.0000   1.0000
     1.0000   1.0000   1.0000   1.0000   1.0000   1.0000   1.0000   1.0000
     1.0000   1.0000   1.0000

          k = 0.0000 0.4619 0.0000 (112236 PWs)   bands (ev):

   -73.8176 -73.8152 -73.8117 -73.8095 -73.8067 -73.8062 -73.8037 -73.8016
   -73.7973 -73.7950 -73.7920 -73.7904 -73.7882 -73.7556 -73.7508 -73.7414
   -38.2076 -38.2051 -38.1916 -38.1891 -38.1771 -38.1674 -38.1611 -38.1482
   -38.1322 -38.1274 -38.1067 -38.1023 -38.0650 -38.0597 -38.0485 -38.0396
   -38.0326 -38.0217 -38.0180 -38.0138 -38.0105 -38.0078 -38.0041 -38.0018
   -37.9998 -37.9985 -37.9980 -37.9923 -37.9896 -37.9868 -37.9835 -37.9799
   -37.9748 -37.9714 -37.9680 -37.9667 -37.9543 -37.9526 -37.9506 -37.9490
   -37.9442 -37.9375 -37.9328 -37.9171 -37.9123 -37.8964 -37.8948 -37.8727
   -21.3346 -15.4768 -14.4369 -14.2354 -13.8738 -13.8551 -13.2670 -13.2317
   -13.0220 -13.0011 -12.9719 -12.9190 -12.8346 -12.7326 -12.7062 -12.6905
   -12.5233 -12.5161 -12.4646 -12.4514 -12.4384 -12.4262 -12.3839 -12.3707
   -12.3521 -12.2857 -12.2180 -12.2033 -12.1788 -12.1605 -12.1586 -12.1542
   -12.0577 -12.0409  -7.8786  -7.4450  -6.1505  -6.1207  -6.1120  -6.0911
    -6.0290  -5.8750  -5.8627  -5.8402  -5.7164  -5.5365  -5.5019  -5.4904
    -5.4623  -5.4478  -5.4394  -5.3956  -5.3759  -5.3281  -5.3036  -5.0687
    -5.0654  -5.0326  -5.0111  -4.8129  -4.6344  -4.5315  -4.4888  -4.4425
    -4.3964  -4.3775  -4.3514  -4.3157  -4.2473  -4.2342  -4.1937  -4.1627
    -4.1316  -4.1210  -4.1051  -4.0789  -4.0674  -4.0541  -4.0446  -3.7104
    -3.5804  -3.5149  -3.4849  -3.4467  -3.4251  -3.3950  -3.3751  -3.3136
    -3.3014  -3.2844  -3.2658  -3.2428  -3.2238  -3.1923  -3.1665  -3.1100
    -3.0703  -3.0636  -3.0128  -2.9752  -2.9568  -2.9183  -2.8671  -2.7863
    -2.7559  -2.7111  -2.6718  -2.6427  -2.6143  -2.5780  -2.5505  -2.5025
    -2.4545  -2.4353  -2.4013  -2.3220  -2.2829  -2.2580  -2.2446  -2.1901
    -2.1306  -2.1032  -2.0490  -2.0226  -2.0131  -2.0028  -1.9861  -1.9573
    -1.9358  -1.9115  -1.8828  -1.8765  -1.8587  -1.8469  -1.8419  -1.8298
    -1.7793  -1.7733  -1.7296  -1.7214  -1.7028  -1.6742  -1.6369  -1.6234
    -1.5969  -1.5573  -1.5366  -1.5075  -1.4382  -1.3931  -1.3049  -1.2926
    -1.2417  -1.2061  -1.1940  -1.1543  -1.1244  -1.1013  -1.0519  -1.0213
    -0.9806  -0.8978  -0.7362  -0.7250  -0.6435  -0.6273  -0.4987  -0.4597
    -0.4461  -0.4358  -0.4004  -0.3829  -0.3169  -0.0967  -0.0004   0.0227
     0.1256   1.2692   1.6167

     occupation numbers 
     1.0000   1.0000   1.0000   1.0000   1.0000   1.0000   1.0000   1.0000
     1.0000   1.0000   1.0000   1.0000   1.0000   1.0000   1.0000   1.0000
     1.0000   1.0000   1.0000   1.0000   1.0000   1.0000   1.0000   1.0000
     1.0000   1.0000   1.0000   1.0000   1.0000   1.0000   1.0000   1.0000
     1.0000   1.0000   1.0000   1.0000   1.0000   1.0000   1.0000   1.0000
     1.0000   1.0000   1.0000   1.0000   1.0000   1.0000   1.0000   1.0000
     1.0000   1.0000   1.0000   1.0000   1.0000   1.0000   1.0000   1.0000
     1.0000   1.0000   1.0000   1.0000   1.0000   1.0000   1.0000   1.0000
     1.0000   1.0000   1.0000   1.0000   1.0000   1.0000   1.0000   1.0000
     1.0000   1.0000   1.0000   1.0000   1.0000   1.0000   1.0000   1.0000
     1.0000   1.0000   1.0000   1.0000   1.0000   1.0000   1.0000   1.0000
     1.0000   1.0000   1.0000   1.0000   1.0000   1.0000   1.0000   1.0000
     1.0000   1.0000   1.0000   1.0000   1.0000   1.0000   1.0000   1.0000
     1.0000   1.0000   1.0000   1.0000   1.0000   1.0000   1.0000   1.0000
     1.0000   1.0000   1.0000   1.0000   1.0000   1.0000   1.0000   1.0000
     1.0000   1.0000   1.0000   1.0000   1.0000   1.0000   1.0000   1.0000
     1.0000   1.0000   1.0000   1.0000   1.0000   1.0000   1.0000   1.0000
     1.0000   1.0000   1.0000   1.0000   1.0000   1.0000   1.0000   1.0000
     1.0000   1.0000   1.0000   1.0000   1.0000   1.0000   1.0000   1.0000
     1.0000   1.0000   1.0000   1.0000   1.0000   1.0000   1.0000   1.0000
     1.0000   1.0000   1.0000   1.0000   1.0000   1.0000   1.0000   1.0000
     1.0000   1.0000   1.0000   1.0000   1.0000   1.0000   1.0000   1.0000
     1.0000   1.0000   1.0000   1.0000   1.0000   1.0000   1.0000   1.0000
     1.0000   1.0000   1.0000   1.0000   1.0000   1.0000   1.0000   1.0000
     1.0000   1.0000   1.0000   1.0000   1.0000   1.0000   1.0000   1.0000
     1.0000   1.0000   1.0000   1.0000   1.0000   1.0000   1.0000   1.0000
     1.0000   1.0000   1.0000   1.0000   1.0000   1.0000   1.0000   1.0000
     1.0000   1.0000   1.0000   1.0000   1.0000   1.0000   1.0000   1.0000
     1.0000   1.0000   1.0000   1.0000   1.0000   1.0000   1.0000   1.0000
     1.0000   1.0000   1.0000   1.0000   1.0000   1.0000   1.0000   1.0000
     1.0000   1.0000   1.0000

          k = 0.2000 0.3464 0.0000 (112231 PWs)   bands (ev):

   -73.8176 -73.8153 -73.8117 -73.8093 -73.8069 -73.8061 -73.8038 -73.8017
   -73.7970 -73.7952 -73.7920 -73.7904 -73.7882 -73.7556 -73.7508 -73.7414
   -38.2131 -38.2044 -38.2011 -38.1803 -38.1773 -38.1655 -38.1568 -38.1493
   -38.1334 -38.1249 -38.1176 -38.0787 -38.0608 -38.0571 -38.0487 -38.0383
   -38.0333 -38.0301 -38.0264 -38.0208 -38.0170 -38.0106 -38.0041 -38.0012
   -37.9965 -37.9937 -37.9920 -37.9903 -37.9880 -37.9853 -37.9838 -37.9825
   -37.9774 -37.9738 -37.9703 -37.9670 -37.9602 -37.9562 -37.9531 -37.9484
   -37.9423 -37.9331 -37.9273 -37.9222 -37.9062 -37.9011 -37.8878 -37.8733
   -21.3346 -15.4768 -14.4767 -14.1051 -14.0604 -13.5686 -13.5658 -13.1764
   -13.1200 -13.0110 -12.9370 -12.8116 -12.7912 -12.7121 -12.6730 -12.6070
   -12.5966 -12.5780 -12.5731 -12.4591 -12.4262 -12.3928 -12.3784 -12.3148
   -12.2916 -12.2745 -12.2536 -12.2338 -12.2220 -12.1563 -12.1518 -12.1093
   -12.0966 -12.0371  -7.8786  -7.4450  -6.1816  -6.1681  -6.1343  -6.1174
    -6.1063  -5.7679  -5.7390  -5.7227  -5.6831  -5.6458  -5.6035  -5.5682
    -5.5069  -5.4753  -5.3572  -5.3362  -5.2859  -5.2776  -5.2449  -5.2304
    -5.0970  -4.9071  -4.8916  -4.8176  -4.7527  -4.6083  -4.4931  -4.4723
    -4.3999  -4.3689  -4.3395  -4.3062  -4.2777  -4.2648  -4.2366  -4.2285
    -4.1748  -4.1244  -4.1091  -4.0938  -4.0571  -3.7709  -3.7388  -3.7284
    -3.7205  -3.6959  -3.6271  -3.4999  -3.4343  -3.4040  -3.3553  -3.3252
    -3.3050  -3.2485  -3.2288  -3.2089  -3.1715  -3.1530  -3.1106  -3.0933
    -3.0439  -3.0181  -2.9929  -2.9539  -2.9460  -2.9283  -2.9182  -2.9025
    -2.8233  -2.7510  -2.7260  -2.6573  -2.6388  -2.5703  -2.5287  -2.4834
    -2.4695  -2.4415  -2.3893  -2.3656  -2.3181  -2.2237  -2.1874  -2.1673
    -2.1339  -2.1270  -2.0998  -2.0910  -2.0207  -2.0014  -1.9836  -1.9540
    -1.9307  -1.9088  -1.8855  -1.8604  -1.8403  -1.8312  -1.8024  -1.7581
    -1.7414  -1.7227  -1.7174  -1.6817  -1.6740  -1.6256  -1.5981  -1.5773
    -1.5687  -1.5439  -1.5402  -1.5106  -1.4309  -1.3958  -1.3830  -1.3678
    -1.2944  -1.2282  -1.2114  -1.1885  -1.1599  -1.1223  -1.0429  -1.0235
    -0.8769  -0.8501  -0.6837  -0.6740  -0.6407  -0.6332  -0.6176  -0.5435
    -0.5346  -0.4422  -0.3779  -0.2573  -0.2130  -0.2016  -0.1613   0.0698
     0.1384   1.2820   1.5889

     occupation numbers 
     1.0000   1.0000   1.0000   1.0000   1.0000   1.0000   1.0000   1.0000
     1.0000   1.0000   1.0000   1.0000   1.0000   1.0000   1.0000   1.0000
     1.0000   1.0000   1.0000   1.0000   1.0000   1.0000   1.0000   1.0000
     1.0000   1.0000   1.0000   1.0000   1.0000   1.0000   1.0000   1.0000
     1.0000   1.0000   1.0000   1.0000   1.0000   1.0000   1.0000   1.0000
     1.0000   1.0000   1.0000   1.0000   1.0000   1.0000   1.0000   1.0000
     1.0000   1.0000   1.0000   1.0000   1.0000   1.0000   1.0000   1.0000
     1.0000   1.0000   1.0000   1.0000   1.0000   1.0000   1.0000   1.0000
     1.0000   1.0000   1.0000   1.0000   1.0000   1.0000   1.0000   1.0000
     1.0000   1.0000   1.0000   1.0000   1.0000   1.0000   1.0000   1.0000
     1.0000   1.0000   1.0000   1.0000   1.0000   1.0000   1.0000   1.0000
     1.0000   1.0000   1.0000   1.0000   1.0000   1.0000   1.0000   1.0000
     1.0000   1.0000   1.0000   1.0000   1.0000   1.0000   1.0000   1.0000
     1.0000   1.0000   1.0000   1.0000   1.0000   1.0000   1.0000   1.0000
     1.0000   1.0000   1.0000   1.0000   1.0000   1.0000   1.0000   1.0000
     1.0000   1.0000   1.0000   1.0000   1.0000   1.0000   1.0000   1.0000
     1.0000   1.0000   1.0000   1.0000   1.0000   1.0000   1.0000   1.0000
     1.0000   1.0000   1.0000   1.0000   1.0000   1.0000   1.0000   1.0000
     1.0000   1.0000   1.0000   1.0000   1.0000   1.0000   1.0000   1.0000
     1.0000   1.0000   1.0000   1.0000   1.0000   1.0000   1.0000   1.0000
     1.0000   1.0000   1.0000   1.0000   1.0000   1.0000   1.0000   1.0000
     1.0000   1.0000   1.0000   1.0000   1.0000   1.0000   1.0000   1.0000
     1.0000   1.0000   1.0000   1.0000   1.0000   1.0000   1.0000   1.0000
     1.0000   1.0000   1.0000   1.0000   1.0000   1.0000   1.0000   1.0000
     1.0000   1.0000   1.0000   1.0000   1.0000   1.0000   1.0000   1.0000
     1.0000   1.0000   1.0000   1.0000   1.0000   1.0000   1.0000   1.0000
     1.0000   1.0000   1.0000   1.0000   1.0000   1.0000   1.0000   1.0000
     1.0000   1.0000   1.0000   1.0000   1.0000   1.0000   1.0000   1.0000
     1.0000   1.0000   1.0000   1.0000   1.0000   1.0000   1.0000   1.0000
     1.0000   1.0000   1.0000   1.0000   1.0000   1.0000   1.0000   1.0000
     1.0000   1.0000   1.0000

          k = 0.2000 0.5774 0.0000 (112237 PWs)   bands (ev):

   -73.8175 -73.8154 -73.8118 -73.8096 -73.8067 -73.8059 -73.8038 -73.8016
   -73.7972 -73.7951 -73.7920 -73.7904 -73.7882 -73.7556 -73.7508 -73.7414
   -38.2020 -38.1981 -38.1878 -38.1846 -38.1778 -38.1723 -38.1665 -38.1517
   -38.1484 -38.1340 -38.0938 -38.0923 -38.0882 -38.0521 -38.0466 -38.0411
   -38.0350 -38.0317 -38.0187 -38.0183 -38.0085 -38.0061 -38.0038 -38.0021
   -38.0010 -37.9982 -37.9933 -37.9896 -37.9869 -37.9833 -37.9762 -37.9718
   -37.9704 -37.9678 -37.9629 -37.9602 -37.9574 -37.9542 -37.9516 -37.9473
   -37.9436 -37.9389 -37.9330 -37.9302 -37.9188 -37.8986 -37.8896 -37.8763
   -21.3346 -15.4768 -14.3378 -14.2943 -14.1160 -13.5969 -13.3033 -13.2950
   -12.9557 -12.9500 -12.8900 -12.8549 -12.8433 -12.8035 -12.7942 -12.6597
   -12.6323 -12.6045 -12.4936 -12.4857 -12.3854 -12.3738 -12.3602 -12.3249
   -12.3109 -12.2982 -12.2601 -12.2347 -12.2336 -12.1320 -12.1219 -12.1196
   -12.0800 -12.0176  -7.8786  -7.4450  -6.1356  -6.0569  -6.0109  -5.9877
    -5.9228  -5.8977  -5.8775  -5.8514  -5.8107  -5.7450  -5.6885  -5.6257
    -5.6145  -5.5424  -5.3651  -5.2682  -5.2565  -5.2209  -5.2057  -5.1724
    -5.1564  -4.8578  -4.8335  -4.7551  -4.6355  -4.5801  -4.5496  -4.5230
    -4.4761  -4.4199  -4.4005  -4.3208  -4.3135  -4.2407  -4.2342  -4.2143
    -4.1905  -4.1666  -4.1237  -4.0968  -3.9551  -3.9515  -3.7963  -3.6684
    -3.6597  -3.5729  -3.4441  -3.3959  -3.3645  -3.3318  -3.3144  -3.2878
    -3.2744  -3.2640  -3.2464  -3.2363  -3.2174  -3.2036  -3.1453  -3.1283
    -3.1037  -3.0823  -3.0639  -3.0375  -3.0099  -2.9617  -2.8805  -2.8345
    -2.7570  -2.7360  -2.6998  -2.6745  -2.6356  -2.5682  -2.5230  -2.4604
    -2.4016  -2.3358  -2.3219  -2.3101  -2.2568  -2.2089  -2.1813  -2.1381
    -2.1228  -2.1129  -2.0820  -2.0635  -2.0194  -1.9891  -1.9689  -1.9577
    -1.9405  -1.9204  -1.8994  -1.8826  -1.8721  -1.8581  -1.8452  -1.8371
    -1.8264  -1.7845  -1.7710  -1.7424  -1.7114  -1.6928  -1.6831  -1.6534
    -1.6207  -1.5750  -1.5641  -1.5108  -1.4803  -1.4682  -1.4171  -1.3359
    -1.2880  -1.1979  -1.1649  -1.1465  -1.1019  -1.0828  -1.0161  -1.0045
    -0.8153  -0.8013  -0.7037  -0.6928  -0.6618  -0.6470  -0.5943  -0.5848
    -0.5678  -0.4187  -0.2805  -0.2718  -0.1906  -0.1267  -0.0683   0.0883
     0.1868   1.2912   1.6052

     occupation numbers 
     1.0000   1.0000   1.0000   1.0000   1.0000   1.0000   1.0000   1.0000
     1.0000   1.0000   1.0000   1.0000   1.0000   1.0000   1.0000   1.0000
     1.0000   1.0000   1.0000   1.0000   1.0000   1.0000   1.0000   1.0000
     1.0000   1.0000   1.0000   1.0000   1.0000   1.0000   1.0000   1.0000
     1.0000   1.0000   1.0000   1.0000   1.0000   1.0000   1.0000   1.0000
     1.0000   1.0000   1.0000   1.0000   1.0000   1.0000   1.0000   1.0000
     1.0000   1.0000   1.0000   1.0000   1.0000   1.0000   1.0000   1.0000
     1.0000   1.0000   1.0000   1.0000   1.0000   1.0000   1.0000   1.0000
     1.0000   1.0000   1.0000   1.0000   1.0000   1.0000   1.0000   1.0000
     1.0000   1.0000   1.0000   1.0000   1.0000   1.0000   1.0000   1.0000
     1.0000   1.0000   1.0000   1.0000   1.0000   1.0000   1.0000   1.0000
     1.0000   1.0000   1.0000   1.0000   1.0000   1.0000   1.0000   1.0000
     1.0000   1.0000   1.0000   1.0000   1.0000   1.0000   1.0000   1.0000
     1.0000   1.0000   1.0000   1.0000   1.0000   1.0000   1.0000   1.0000
     1.0000   1.0000   1.0000   1.0000   1.0000   1.0000   1.0000   1.0000
     1.0000   1.0000   1.0000   1.0000   1.0000   1.0000   1.0000   1.0000
     1.0000   1.0000   1.0000   1.0000   1.0000   1.0000   1.0000   1.0000
     1.0000   1.0000   1.0000   1.0000   1.0000   1.0000   1.0000   1.0000
     1.0000   1.0000   1.0000   1.0000   1.0000   1.0000   1.0000   1.0000
     1.0000   1.0000   1.0000   1.0000   1.0000   1.0000   1.0000   1.0000
     1.0000   1.0000   1.0000   1.0000   1.0000   1.0000   1.0000   1.0000
     1.0000   1.0000   1.0000   1.0000   1.0000   1.0000   1.0000   1.0000
     1.0000   1.0000   1.0000   1.0000   1.0000   1.0000   1.0000   1.0000
     1.0000   1.0000   1.0000   1.0000   1.0000   1.0000   1.0000   1.0000
     1.0000   1.0000   1.0000   1.0000   1.0000   1.0000   1.0000   1.0000
     1.0000   1.0000   1.0000   1.0000   1.0000   1.0000   1.0000   1.0000
     1.0000   1.0000   1.0000   1.0000   1.0000   1.0000   1.0000   1.0000
     1.0000   1.0000   1.0000   1.0000   1.0000   1.0000   1.0000   1.0000
     1.0000   1.0000   1.0000   1.0000   1.0000   1.0000   1.0000   1.0000
     1.0000   1.0000   1.0000   1.0000   1.0000   1.0000   1.0000   1.0000
     1.0000   1.0000   1.0000

          k =-0.2000 0.1155 0.0000 (112171 PWs)   bands (ev):

   -73.8180 -73.8147 -73.8117 -73.8095 -73.8070 -73.8060 -73.8038 -73.8017
   -73.7969 -73.7951 -73.7922 -73.7901 -73.7883 -73.7556 -73.7508 -73.7414
   -38.2209 -38.2161 -38.2133 -38.1700 -38.1663 -38.1651 -38.1601 -38.1475
   -38.1409 -38.1042 -38.0814 -38.0772 -38.0524 -38.0498 -38.0458 -38.0355
   -38.0294 -38.0288 -38.0262 -38.0250 -38.0179 -38.0171 -38.0148 -38.0135
   -38.0053 -38.0019 -37.9988 -37.9974 -37.9945 -37.9930 -37.9894 -37.9876
   -37.9867 -37.9835 -37.9702 -37.9635 -37.9610 -37.9554 -37.9530 -37.9478
   -37.9340 -37.9259 -37.9220 -37.9117 -37.9097 -37.9016 -37.8760 -37.8729
   -21.3346 -15.4768 -14.5586 -13.9777 -13.8041 -13.7897 -13.4808 -13.4762
   -13.3269 -12.9691 -12.7937 -12.7610 -12.6936 -12.6838 -12.6590 -12.5890
   -12.5667 -12.5233 -12.4994 -12.4804 -12.4716 -12.4341 -12.4234 -12.3097
   -12.2962 -12.2632 -12.2458 -12.2150 -12.1883 -12.1773 -12.1694 -12.1521
   -12.0966 -12.0825  -7.8786  -7.4450  -6.2875  -6.2665  -6.2459  -6.2327
    -6.1251  -5.6809  -5.6416  -5.6273  -5.5515  -5.5338  -5.4946  -5.4710
    -5.4408  -5.4222  -5.3861  -5.3302  -5.3128  -5.2845  -5.2786  -5.0840
    -5.0649  -5.0178  -5.0017  -4.9536  -4.7424  -4.7374  -4.5756  -4.5175
    -4.4526  -4.3746  -4.3424  -4.2826  -4.2107  -4.1643  -4.1497  -4.1248
    -4.1020  -4.0684  -4.0424  -3.9984  -3.9861  -3.9174  -3.9077  -3.8990
    -3.6830  -3.5943  -3.5403  -3.5061  -3.4810  -3.4644  -3.4475  -3.3779
    -3.3689  -3.3272  -3.2977  -3.2817  -3.2687  -3.2086  -3.1975  -3.1571
    -3.1068  -2.9894  -2.9676  -2.9344  -2.8374  -2.8094  -2.7800  -2.7526
    -2.7357  -2.7175  -2.7014  -2.6930  -2.6800  -2.6566  -2.6111  -2.5500
    -2.5266  -2.4900  -2.4725  -2.4532  -2.3736  -2.3169  -2.2011  -2.1782
    -2.1384  -2.0933  -2.0245  -2.0083  -1.9825  -1.9693  -1.9476  -1.9103
    -1.8882  -1.8694  -1.8448  -1.8247  -1.8099  -1.7781  -1.7501  -1.7334
    -1.7137  -1.7053  -1.6888  -1.6700  -1.6568  -1.6117  -1.5793  -1.5586
    -1.5327  -1.5084  -1.4980  -1.4387  -1.4292  -1.3759  -1.3544  -1.3329
    -1.3164  -1.2787  -1.2593  -1.2283  -1.1721  -1.0844  -1.0524  -1.0242
    -0.9026  -0.7788  -0.7615  -0.7430  -0.5889  -0.5714  -0.5553  -0.5358
    -0.5211  -0.5128  -0.4177  -0.3854  -0.3613  -0.2680  -0.1746  -0.1477
     0.1741   1.2812   1.5403

     occupation numbers 
     1.0000   1.0000   1.0000   1.0000   1.0000   1.0000   1.0000   1.0000
     1.0000   1.0000   1.0000   1.0000   1.0000   1.0000   1.0000   1.0000
     1.0000   1.0000   1.0000   1.0000   1.0000   1.0000   1.0000   1.0000
     1.0000   1.0000   1.0000   1.0000   1.0000   1.0000   1.0000   1.0000
     1.0000   1.0000   1.0000   1.0000   1.0000   1.0000   1.0000   1.0000
     1.0000   1.0000   1.0000   1.0000   1.0000   1.0000   1.0000   1.0000
     1.0000   1.0000   1.0000   1.0000   1.0000   1.0000   1.0000   1.0000
     1.0000   1.0000   1.0000   1.0000   1.0000   1.0000   1.0000   1.0000
     1.0000   1.0000   1.0000   1.0000   1.0000   1.0000   1.0000   1.0000
     1.0000   1.0000   1.0000   1.0000   1.0000   1.0000   1.0000   1.0000
     1.0000   1.0000   1.0000   1.0000   1.0000   1.0000   1.0000   1.0000
     1.0000   1.0000   1.0000   1.0000   1.0000   1.0000   1.0000   1.0000
     1.0000   1.0000   1.0000   1.0000   1.0000   1.0000   1.0000   1.0000
     1.0000   1.0000   1.0000   1.0000   1.0000   1.0000   1.0000   1.0000
     1.0000   1.0000   1.0000   1.0000   1.0000   1.0000   1.0000   1.0000
     1.0000   1.0000   1.0000   1.0000   1.0000   1.0000   1.0000   1.0000
     1.0000   1.0000   1.0000   1.0000   1.0000   1.0000   1.0000   1.0000
     1.0000   1.0000   1.0000   1.0000   1.0000   1.0000   1.0000   1.0000
     1.0000   1.0000   1.0000   1.0000   1.0000   1.0000   1.0000   1.0000
     1.0000   1.0000   1.0000   1.0000   1.0000   1.0000   1.0000   1.0000
     1.0000   1.0000   1.0000   1.0000   1.0000   1.0000   1.0000   1.0000
     1.0000   1.0000   1.0000   1.0000   1.0000   1.0000   1.0000   1.0000
     1.0000   1.0000   1.0000   1.0000   1.0000   1.0000   1.0000   1.0000
     1.0000   1.0000   1.0000   1.0000   1.0000   1.0000   1.0000   1.0000
     1.0000   1.0000   1.0000   1.0000   1.0000   1.0000   1.0000   1.0000
     1.0000   1.0000   1.0000   1.0000   1.0000   1.0000   1.0000   1.0000
     1.0000   1.0000   1.0000   1.0000   1.0000   1.0000   1.0000   1.0000
     1.0000   1.0000   1.0000   1.0000   1.0000   1.0000   1.0000   1.0000
     1.0000   1.0000   1.0000   1.0000   1.0000   1.0000   1.0000   1.0000
     1.0000   1.0000   1.0000   1.0000   1.0000   1.0000   1.0000   1.0000
     1.0000   1.0000   1.0000

          k = 0.2000 0.1155 0.0000 (112171 PWs)   bands (ev):

   -73.8179 -73.8149 -73.8117 -73.8092 -73.8071 -73.8061 -73.8038 -73.8018
   -73.7968 -73.7952 -73.7922 -73.7902 -73.7883 -73.7556 -73.7508 -73.7414
   -38.2206 -38.2167 -38.2130 -38.1708 -38.1672 -38.1639 -38.1590 -38.1477
   -38.1411 -38.1044 -38.0812 -38.0776 -38.0525 -38.0501 -38.0463 -38.0355
   -38.0295 -38.0275 -38.0264 -38.0246 -38.0182 -38.0162 -38.0153 -38.0137
   -38.0056 -38.0010 -37.9988 -37.9973 -37.9948 -37.9925 -37.9906 -37.9876
   -37.9866 -37.9834 -37.9701 -37.9628 -37.9617 -37.9556 -37.9530 -37.9477
   -37.9340 -37.9252 -37.9215 -37.9137 -37.9089 -37.9018 -37.8776 -37.8712
   -21.3346 -15.4768 -14.5585 -13.9779 -13.8032 -13.7903 -13.4800 -13.4778
   -13.3261 -12.9692 -12.7939 -12.7602 -12.6931 -12.6850 -12.6593 -12.5889
   -12.5680 -12.5217 -12.4972 -12.4824 -12.4711 -12.4365 -12.4227 -12.3051
   -12.2960 -12.2663 -12.2489 -12.2102 -12.1939 -12.1743 -12.1724 -12.1496
   -12.0937 -12.0849  -7.8786  -7.4450  -6.2821  -6.2681  -6.2489  -6.2340
    -6.1251  -5.6748  -5.6451  -5.6249  -5.5526  -5.5381  -5.4917  -5.4736
    -5.4465  -5.4260  -5.3731  -5.3297  -5.3162  -5.2851  -5.2775  -5.0798
    -5.0727  -5.0157  -5.0054  -4.9481  -4.7433  -4.7381  -4.5713  -4.5134
    -4.4498  -4.3964  -4.3415  -4.2762  -4.2099  -4.1649  -4.1517  -4.1251
    -4.1016  -4.0585  -4.0424  -4.0055  -3.9844  -3.9149  -3.9119  -3.9015
    -3.6760  -3.5730  -3.5570  -3.5132  -3.4710  -3.4600  -3.4443  -3.3865
    -3.3749  -3.3173  -3.3049  -3.2855  -3.2647  -3.2158  -3.1991  -3.1499
    -3.1130  -3.0053  -2.9631  -2.9153  -2.8348  -2.8138  -2.7888  -2.7552
    -2.7409  -2.7160  -2.7020  -2.6950  -2.6726  -2.6418  -2.6030  -2.5528
    -2.5415  -2.5057  -2.4801  -2.4353  -2.3705  -2.3103  -2.2060  -2.1847
    -2.1273  -2.0949  -2.0219  -2.0034  -1.9754  -1.9718  -1.9339  -1.9113
    -1.9033  -1.8807  -1.8412  -1.8295  -1.8110  -1.7845  -1.7518  -1.7429
    -1.7163  -1.6963  -1.6839  -1.6614  -1.6432  -1.6299  -1.5935  -1.5476
    -1.5358  -1.5077  -1.4625  -1.4488  -1.4275  -1.4074  -1.3595  -1.3141
    -1.3078  -1.2996  -1.2540  -1.2163  -1.1740  -1.0750  -1.0509  -1.0340
    -0.9019  -0.7686  -0.7602  -0.7579  -0.6007  -0.5644  -0.5507  -0.5351
    -0.5234  -0.5177  -0.4132  -0.3862  -0.3577  -0.2686  -0.1708  -0.1516
     0.1748   1.2758   1.5467

     occupation numbers 
     1.0000   1.0000   1.0000   1.0000   1.0000   1.0000   1.0000   1.0000
     1.0000   1.0000   1.0000   1.0000   1.0000   1.0000   1.0000   1.0000
     1.0000   1.0000   1.0000   1.0000   1.0000   1.0000   1.0000   1.0000
     1.0000   1.0000   1.0000   1.0000   1.0000   1.0000   1.0000   1.0000
     1.0000   1.0000   1.0000   1.0000   1.0000   1.0000   1.0000   1.0000
     1.0000   1.0000   1.0000   1.0000   1.0000   1.0000   1.0000   1.0000
     1.0000   1.0000   1.0000   1.0000   1.0000   1.0000   1.0000   1.0000
     1.0000   1.0000   1.0000   1.0000   1.0000   1.0000   1.0000   1.0000
     1.0000   1.0000   1.0000   1.0000   1.0000   1.0000   1.0000   1.0000
     1.0000   1.0000   1.0000   1.0000   1.0000   1.0000   1.0000   1.0000
     1.0000   1.0000   1.0000   1.0000   1.0000   1.0000   1.0000   1.0000
     1.0000   1.0000   1.0000   1.0000   1.0000   1.0000   1.0000   1.0000
     1.0000   1.0000   1.0000   1.0000   1.0000   1.0000   1.0000   1.0000
     1.0000   1.0000   1.0000   1.0000   1.0000   1.0000   1.0000   1.0000
     1.0000   1.0000   1.0000   1.0000   1.0000   1.0000   1.0000   1.0000
     1.0000   1.0000   1.0000   1.0000   1.0000   1.0000   1.0000   1.0000
     1.0000   1.0000   1.0000   1.0000   1.0000   1.0000   1.0000   1.0000
     1.0000   1.0000   1.0000   1.0000   1.0000   1.0000   1.0000   1.0000
     1.0000   1.0000   1.0000   1.0000   1.0000   1.0000   1.0000   1.0000
     1.0000   1.0000   1.0000   1.0000   1.0000   1.0000   1.0000   1.0000
     1.0000   1.0000   1.0000   1.0000   1.0000   1.0000   1.0000   1.0000
     1.0000   1.0000   1.0000   1.0000   1.0000   1.0000   1.0000   1.0000
     1.0000   1.0000   1.0000   1.0000   1.0000   1.0000   1.0000   1.0000
     1.0000   1.0000   1.0000   1.0000   1.0000   1.0000   1.0000   1.0000
     1.0000   1.0000   1.0000   1.0000   1.0000   1.0000   1.0000   1.0000
     1.0000   1.0000   1.0000   1.0000   1.0000   1.0000   1.0000   1.0000
     1.0000   1.0000   1.0000   1.0000   1.0000   1.0000   1.0000   1.0000
     1.0000   1.0000   1.0000   1.0000   1.0000   1.0000   1.0000   1.0000
     1.0000   1.0000   1.0000   1.0000   1.0000   1.0000   1.0000   1.0000
     1.0000   1.0000   1.0000   1.0000   1.0000   1.0000   1.0000   1.0000
     1.0000   1.0000   1.0000

          k =-0.4000 0.2309 0.0000 (112236 PWs)   bands (ev):

   -73.8177 -73.8150 -73.8118 -73.8100 -73.8068 -73.8055 -73.8040 -73.8017
   -73.7969 -73.7953 -73.7922 -73.7901 -73.7883 -73.7556 -73.7508 -73.7414
   -38.2088 -38.2031 -38.1916 -38.1853 -38.1843 -38.1654 -38.1624 -38.1483
   -38.1316 -38.1252 -38.1071 -38.1022 -38.0643 -38.0592 -38.0483 -38.0411
   -38.0304 -38.0259 -38.0157 -38.0134 -38.0107 -38.0094 -38.0054 -38.0009
   -37.9997 -37.9986 -37.9965 -37.9939 -37.9888 -37.9872 -37.9835 -37.9806
   -37.9764 -37.9707 -37.9673 -37.9665 -37.9545 -37.9525 -37.9506 -37.9480
   -37.9458 -37.9395 -37.9310 -37.9183 -37.9103 -37.8934 -37.8918 -37.8774
   -21.3346 -15.4768 -14.4373 -14.2343 -13.8712 -13.8594 -13.2511 -13.2454
   -13.0265 -12.9992 -12.9768 -12.9124 -12.8340 -12.7347 -12.7053 -12.6865
   -12.5380 -12.5108 -12.4632 -12.4544 -12.4321 -12.4246 -12.3879 -12.3649
   -12.3544 -12.2835 -12.2236 -12.2016 -12.1773 -12.1629 -12.1562 -12.1536
   -12.0577 -12.0415  -7.8786  -7.4450  -6.1505  -6.1293  -6.1084  -6.0899
    -6.0245  -5.8783  -5.8580  -5.8412  -5.7133  -5.5361  -5.5129  -5.4918
    -5.4560  -5.4484  -5.4392  -5.3907  -5.3813  -5.3190  -5.3116  -5.0841
    -5.0598  -5.0255  -5.0073  -4.8066  -4.6112  -4.5588  -4.4840  -4.4440
    -4.4157  -4.3753  -4.3542  -4.3133  -4.2483  -4.2246  -4.1974  -4.1637
    -4.1241  -4.1159  -4.1036  -4.0767  -4.0705  -4.0559  -4.0447  -3.7043
    -3.5772  -3.5283  -3.4813  -3.4620  -3.4285  -3.4014  -3.3611  -3.3216
    -3.3104  -3.2830  -3.2625  -3.2444  -3.2176  -3.2018  -3.1532  -3.1183
    -3.0759  -3.0518  -3.0170  -2.9760  -2.9411  -2.9093  -2.8447  -2.7850
    -2.7488  -2.7179  -2.6730  -2.6392  -2.6197  -2.5911  -2.5647  -2.5033
    -2.4368  -2.4295  -2.4039  -2.3401  -2.2882  -2.2574  -2.2480  -2.1803
    -2.1319  -2.1213  -2.0630  -2.0346  -2.0210  -1.9971  -1.9675  -1.9397
    -1.9208  -1.9038  -1.8931  -1.8727  -1.8679  -1.8548  -1.8414  -1.8273
    -1.7949  -1.7661  -1.7252  -1.7025  -1.6989  -1.6762  -1.6563  -1.6177
    -1.5955  -1.5667  -1.5088  -1.4822  -1.4550  -1.3628  -1.3373  -1.3046
    -1.2690  -1.2250  -1.1764  -1.1319  -1.1269  -1.1088  -1.0821  -0.9969
    -0.9765  -0.8821  -0.7383  -0.7227  -0.6436  -0.6265  -0.5143  -0.4584
    -0.4526  -0.4273  -0.4064  -0.3797  -0.3072  -0.1038  -0.0016   0.0288
     0.1201   1.3273   1.5522

     occupation numbers 
     1.0000   1.0000   1.0000   1.0000   1.0000   1.0000   1.0000   1.0000
     1.0000   1.0000   1.0000   1.0000   1.0000   1.0000   1.0000   1.0000
     1.0000   1.0000   1.0000   1.0000   1.0000   1.0000   1.0000   1.0000
     1.0000   1.0000   1.0000   1.0000   1.0000   1.0000   1.0000   1.0000
     1.0000   1.0000   1.0000   1.0000   1.0000   1.0000   1.0000   1.0000
     1.0000   1.0000   1.0000   1.0000   1.0000   1.0000   1.0000   1.0000
     1.0000   1.0000   1.0000   1.0000   1.0000   1.0000   1.0000   1.0000
     1.0000   1.0000   1.0000   1.0000   1.0000   1.0000   1.0000   1.0000
     1.0000   1.0000   1.0000   1.0000   1.0000   1.0000   1.0000   1.0000
     1.0000   1.0000   1.0000   1.0000   1.0000   1.0000   1.0000   1.0000
     1.0000   1.0000   1.0000   1.0000   1.0000   1.0000   1.0000   1.0000
     1.0000   1.0000   1.0000   1.0000   1.0000   1.0000   1.0000   1.0000
     1.0000   1.0000   1.0000   1.0000   1.0000   1.0000   1.0000   1.0000
     1.0000   1.0000   1.0000   1.0000   1.0000   1.0000   1.0000   1.0000
     1.0000   1.0000   1.0000   1.0000   1.0000   1.0000   1.0000   1.0000
     1.0000   1.0000   1.0000   1.0000   1.0000   1.0000   1.0000   1.0000
     1.0000   1.0000   1.0000   1.0000   1.0000   1.0000   1.0000   1.0000
     1.0000   1.0000   1.0000   1.0000   1.0000   1.0000   1.0000   1.0000
     1.0000   1.0000   1.0000   1.0000   1.0000   1.0000   1.0000   1.0000
     1.0000   1.0000   1.0000   1.0000   1.0000   1.0000   1.0000   1.0000
     1.0000   1.0000   1.0000   1.0000   1.0000   1.0000   1.0000   1.0000
     1.0000   1.0000   1.0000   1.0000   1.0000   1.0000   1.0000   1.0000
     1.0000   1.0000   1.0000   1.0000   1.0000   1.0000   1.0000   1.0000
     1.0000   1.0000   1.0000   1.0000   1.0000   1.0000   1.0000   1.0000
     1.0000   1.0000   1.0000   1.0000   1.0000   1.0000   1.0000   1.0000
     1.0000   1.0000   1.0000   1.0000   1.0000   1.0000   1.0000   1.0000
     1.0000   1.0000   1.0000   1.0000   1.0000   1.0000   1.0000   1.0000
     1.0000   1.0000   1.0000   1.0000   1.0000   1.0000   1.0000   1.0000
     1.0000   1.0000   1.0000   1.0000   1.0000   1.0000   1.0000   1.0000
     1.0000   1.0000   1.0000   1.0000   1.0000   1.0000   1.0000   1.0000
     1.0000   1.0000   1.0000

          k = 0.4000 0.2309 0.0000 (112236 PWs)   bands (ev):

   -73.8175 -73.8155 -73.8117 -73.8093 -73.8070 -73.8057 -73.8040 -73.8018
   -73.7966 -73.7954 -73.7920 -73.7904 -73.7882 -73.7556 -73.7508 -73.7414
   -38.2071 -38.2052 -38.1913 -38.1880 -38.1816 -38.1644 -38.1628 -38.1482
   -38.1311 -38.1257 -38.1077 -38.1026 -38.0638 -38.0602 -38.0481 -38.0413
   -38.0296 -38.0259 -38.0149 -38.0126 -38.0118 -38.0106 -38.0054 -38.0012
   -37.9990 -37.9977 -37.9960 -37.9927 -37.9907 -37.9873 -37.9832 -37.9805
   -37.9778 -37.9705 -37.9679 -37.9654 -37.9540 -37.9516 -37.9511 -37.9478
   -37.9459 -37.9386 -37.9311 -37.9191 -37.9107 -37.8953 -37.8928 -37.8751
   -21.3346 -15.4768 -14.4372 -14.2345 -13.8705 -13.8599 -13.2510 -13.2465
   -13.0232 -12.9991 -12.9787 -12.9116 -12.8349 -12.7324 -12.7072 -12.6873
   -12.5448 -12.5037 -12.4674 -12.4521 -12.4310 -12.4248 -12.3883 -12.3635
   -12.3520 -12.2835 -12.2303 -12.1996 -12.1793 -12.1619 -12.1566 -12.1510
   -12.0547 -12.0440  -7.8786  -7.4450  -6.1486  -6.1229  -6.1089  -6.0897
    -6.0383  -5.8710  -5.8577  -5.8379  -5.7183  -5.5372  -5.5114  -5.4946
    -5.4506  -5.4499  -5.4418  -5.3902  -5.3847  -5.3168  -5.3107  -5.0754
    -5.0714  -5.0237  -5.0121  -4.7787  -4.6247  -4.5628  -4.4924  -4.4542
    -4.4219  -4.3743  -4.3523  -4.3073  -4.2426  -4.2289  -4.1933  -4.1611
    -4.1276  -4.1173  -4.1048  -4.0786  -4.0655  -4.0535  -4.0452  -3.6931
    -3.5683  -3.5287  -3.4718  -3.4547  -3.4345  -3.4058  -3.3637  -3.3316
    -3.2957  -3.2904  -3.2579  -3.2434  -3.2222  -3.2082  -3.1424  -3.1212
    -3.0939  -3.0596  -3.0235  -2.9739  -2.9435  -2.9087  -2.8566  -2.7865
    -2.7524  -2.6945  -2.6611  -2.6405  -2.6241  -2.6101  -2.5282  -2.5124
    -2.4656  -2.4346  -2.3797  -2.3389  -2.2808  -2.2626  -2.2485  -2.1643
    -2.1307  -2.1226  -2.0482  -2.0190  -2.0133  -1.9895  -1.9831  -1.9673
    -1.9436  -1.9082  -1.8977  -1.8722  -1.8603  -1.8502  -1.8416  -1.8264
    -1.8106  -1.7559  -1.7353  -1.7178  -1.7023  -1.6528  -1.6395  -1.6315
    -1.6019  -1.5599  -1.5162  -1.5030  -1.4287  -1.3669  -1.3176  -1.2983
    -1.2648  -1.2420  -1.1958  -1.1379  -1.1221  -1.0687  -1.0675  -1.0108
    -0.9806  -0.8938  -0.7334  -0.7290  -0.6422  -0.6328  -0.5241  -0.4620
    -0.4513  -0.4255  -0.4074  -0.3699  -0.3010  -0.1055  -0.0002   0.0247
     0.1233   1.3103   1.5730

     occupation numbers 
     1.0000   1.0000   1.0000   1.0000   1.0000   1.0000   1.0000   1.0000
     1.0000   1.0000   1.0000   1.0000   1.0000   1.0000   1.0000   1.0000
     1.0000   1.0000   1.0000   1.0000   1.0000   1.0000   1.0000   1.0000
     1.0000   1.0000   1.0000   1.0000   1.0000   1.0000   1.0000   1.0000
     1.0000   1.0000   1.0000   1.0000   1.0000   1.0000   1.0000   1.0000
     1.0000   1.0000   1.0000   1.0000   1.0000   1.0000   1.0000   1.0000
     1.0000   1.0000   1.0000   1.0000   1.0000   1.0000   1.0000   1.0000
     1.0000   1.0000   1.0000   1.0000   1.0000   1.0000   1.0000   1.0000
     1.0000   1.0000   1.0000   1.0000   1.0000   1.0000   1.0000   1.0000
     1.0000   1.0000   1.0000   1.0000   1.0000   1.0000   1.0000   1.0000
     1.0000   1.0000   1.0000   1.0000   1.0000   1.0000   1.0000   1.0000
     1.0000   1.0000   1.0000   1.0000   1.0000   1.0000   1.0000   1.0000
     1.0000   1.0000   1.0000   1.0000   1.0000   1.0000   1.0000   1.0000
     1.0000   1.0000   1.0000   1.0000   1.0000   1.0000   1.0000   1.0000
     1.0000   1.0000   1.0000   1.0000   1.0000   1.0000   1.0000   1.0000
     1.0000   1.0000   1.0000   1.0000   1.0000   1.0000   1.0000   1.0000
     1.0000   1.0000   1.0000   1.0000   1.0000   1.0000   1.0000   1.0000
     1.0000   1.0000   1.0000   1.0000   1.0000   1.0000   1.0000   1.0000
     1.0000   1.0000   1.0000   1.0000   1.0000   1.0000   1.0000   1.0000
     1.0000   1.0000   1.0000   1.0000   1.0000   1.0000   1.0000   1.0000
     1.0000   1.0000   1.0000   1.0000   1.0000   1.0000   1.0000   1.0000
     1.0000   1.0000   1.0000   1.0000   1.0000   1.0000   1.0000   1.0000
     1.0000   1.0000   1.0000   1.0000   1.0000   1.0000   1.0000   1.0000
     1.0000   1.0000   1.0000   1.0000   1.0000   1.0000   1.0000   1.0000
     1.0000   1.0000   1.0000   1.0000   1.0000   1.0000   1.0000   1.0000
     1.0000   1.0000   1.0000   1.0000   1.0000   1.0000   1.0000   1.0000
     1.0000   1.0000   1.0000   1.0000   1.0000   1.0000   1.0000   1.0000
     1.0000   1.0000   1.0000   1.0000   1.0000   1.0000   1.0000   1.0000
     1.0000   1.0000   1.0000   1.0000   1.0000   1.0000   1.0000   1.0000
     1.0000   1.0000   1.0000   1.0000   1.0000   1.0000   1.0000   1.0000
     1.0000   1.0000   1.0000

          k =-0.2000 0.3464 0.0000 (112231 PWs)   bands (ev):

   -73.8177 -73.8150 -73.8118 -73.8097 -73.8068 -73.8059 -73.8038 -73.8016
   -73.7971 -73.7951 -73.7921 -73.7902 -73.7883 -73.7556 -73.7508 -73.7414
   -38.2133 -38.2033 -38.2018 -38.1803 -38.1768 -38.1654 -38.1567 -38.1505
   -38.1339 -38.1266 -38.1142 -38.0782 -38.0620 -38.0567 -38.0490 -38.0383
   -38.0334 -38.0297 -38.0263 -38.0215 -38.0172 -38.0093 -38.0047 -38.0009
   -37.9974 -37.9944 -37.9924 -37.9896 -37.9876 -37.9851 -37.9833 -37.9822
   -37.9777 -37.9747 -37.9707 -37.9664 -37.9595 -37.9565 -37.9530 -37.9483
   -37.9427 -37.9336 -37.9278 -37.9228 -37.9046 -37.8998 -37.8879 -37.8744
   -21.3346 -15.4768 -14.4768 -14.1043 -14.0612 -13.5754 -13.5584 -13.1771
   -13.1206 -13.0110 -12.9367 -12.8098 -12.7929 -12.7079 -12.6741 -12.6213
   -12.5867 -12.5783 -12.5703 -12.4565 -12.4276 -12.3953 -12.3808 -12.3118
   -12.2933 -12.2754 -12.2529 -12.2281 -12.2243 -12.1580 -12.1513 -12.1098
   -12.0969 -12.0368  -7.8786  -7.4450  -6.1922  -6.1647  -6.1281  -6.1159
    -6.1046  -5.7706  -5.7397  -5.7186  -5.7014  -5.6280  -5.6041  -5.5656
    -5.5094  -5.4778  -5.3581  -5.3329  -5.3018  -5.2671  -5.2438  -5.2230
    -5.0994  -4.9158  -4.8965  -4.7986  -4.7576  -4.6109  -4.5195  -4.4499
    -4.3975  -4.3465  -4.3372  -4.3113  -4.2824  -4.2626  -4.2476  -4.2295
    -4.1661  -4.1320  -4.1131  -4.0950  -4.0559  -3.7794  -3.7423  -3.7309
    -3.7111  -3.6942  -3.6291  -3.5103  -3.4262  -3.3858  -3.3772  -3.3142
    -3.2996  -3.2463  -3.2356  -3.2062  -3.1690  -3.1494  -3.1300  -3.0861
    -3.0661  -3.0152  -2.9770  -2.9483  -2.9367  -2.9293  -2.9263  -2.9041
    -2.8013  -2.7523  -2.7267  -2.6805  -2.6347  -2.5730  -2.5365  -2.4810
    -2.4671  -2.4135  -2.3927  -2.3694  -2.3260  -2.2250  -2.2004  -2.1606
    -2.1406  -2.1259  -2.1109  -2.0871  -2.0404  -1.9931  -1.9860  -1.9466
    -1.9230  -1.9041  -1.8722  -1.8583  -1.8288  -1.8203  -1.8004  -1.7808
    -1.7523  -1.7171  -1.7087  -1.6842  -1.6584  -1.6417  -1.5922  -1.5859
    -1.5637  -1.5514  -1.5336  -1.5141  -1.4468  -1.3999  -1.3877  -1.3492
    -1.2929  -1.2516  -1.2008  -1.1762  -1.1614  -1.1287  -1.0515  -1.0146
    -0.8790  -0.8400  -0.6900  -0.6735  -0.6403  -0.6303  -0.6126  -0.5453
    -0.5384  -0.4323  -0.3878  -0.2598  -0.2086  -0.2012  -0.1636   0.0705
     0.1368   1.2900   1.5788

     occupation numbers 
     1.0000   1.0000   1.0000   1.0000   1.0000   1.0000   1.0000   1.0000
     1.0000   1.0000   1.0000   1.0000   1.0000   1.0000   1.0000   1.0000
     1.0000   1.0000   1.0000   1.0000   1.0000   1.0000   1.0000   1.0000
     1.0000   1.0000   1.0000   1.0000   1.0000   1.0000   1.0000   1.0000
     1.0000   1.0000   1.0000   1.0000   1.0000   1.0000   1.0000   1.0000
     1.0000   1.0000   1.0000   1.0000   1.0000   1.0000   1.0000   1.0000
     1.0000   1.0000   1.0000   1.0000   1.0000   1.0000   1.0000   1.0000
     1.0000   1.0000   1.0000   1.0000   1.0000   1.0000   1.0000   1.0000
     1.0000   1.0000   1.0000   1.0000   1.0000   1.0000   1.0000   1.0000
     1.0000   1.0000   1.0000   1.0000   1.0000   1.0000   1.0000   1.0000
     1.0000   1.0000   1.0000   1.0000   1.0000   1.0000   1.0000   1.0000
     1.0000   1.0000   1.0000   1.0000   1.0000   1.0000   1.0000   1.0000
     1.0000   1.0000   1.0000   1.0000   1.0000   1.0000   1.0000   1.0000
     1.0000   1.0000   1.0000   1.0000   1.0000   1.0000   1.0000   1.0000
     1.0000   1.0000   1.0000   1.0000   1.0000   1.0000   1.0000   1.0000
     1.0000   1.0000   1.0000   1.0000   1.0000   1.0000   1.0000   1.0000
     1.0000   1.0000   1.0000   1.0000   1.0000   1.0000   1.0000   1.0000
     1.0000   1.0000   1.0000   1.0000   1.0000   1.0000   1.0000   1.0000
     1.0000   1.0000   1.0000   1.0000   1.0000   1.0000   1.0000   1.0000
     1.0000   1.0000   1.0000   1.0000   1.0000   1.0000   1.0000   1.0000
     1.0000   1.0000   1.0000   1.0000   1.0000   1.0000   1.0000   1.0000
     1.0000   1.0000   1.0000   1.0000   1.0000   1.0000   1.0000   1.0000
     1.0000   1.0000   1.0000   1.0000   1.0000   1.0000   1.0000   1.0000
     1.0000   1.0000   1.0000   1.0000   1.0000   1.0000   1.0000   1.0000
     1.0000   1.0000   1.0000   1.0000   1.0000   1.0000   1.0000   1.0000
     1.0000   1.0000   1.0000   1.0000   1.0000   1.0000   1.0000   1.0000
     1.0000   1.0000   1.0000   1.0000   1.0000   1.0000   1.0000   1.0000
     1.0000   1.0000   1.0000   1.0000   1.0000   1.0000   1.0000   1.0000
     1.0000   1.0000   1.0000   1.0000   1.0000   1.0000   1.0000   1.0000
     1.0000   1.0000   1.0000   1.0000   1.0000   1.0000   1.0000   1.0000
     1.0000   1.0000   1.0000

          k = 0.4000-0.0000 0.0000 (112231 PWs)   bands (ev):

   -73.8177 -73.8152 -73.8117 -73.8096 -73.8069 -73.8056 -73.8040 -73.8018
   -73.7967 -73.7954 -73.7921 -73.7902 -73.7883 -73.7556 -73.7508 -73.7414
   -38.2134 -38.2040 -38.2007 -38.1801 -38.1770 -38.1667 -38.1572 -38.1506
   -38.1332 -38.1252 -38.1137 -38.0779 -38.0629 -38.0573 -38.0488 -38.0390
   -38.0318 -38.0299 -38.0264 -38.0230 -38.0151 -38.0104 -38.0051 -37.9997
   -37.9973 -37.9946 -37.9924 -37.9901 -37.9889 -37.9863 -37.9832 -37.9812
   -37.9763 -37.9758 -37.9705 -37.9666 -37.9595 -37.9560 -37.9528 -37.9481
   -37.9433 -37.9330 -37.9290 -37.9232 -37.9028 -37.8994 -37.8867 -37.8763
   -21.3346 -15.4768 -14.4769 -14.1008 -14.0647 -13.5699 -13.5647 -13.1721
   -13.1239 -13.0149 -12.9306 -12.8059 -12.7969 -12.7126 -12.6832 -12.6036
   -12.6007 -12.5753 -12.5623 -12.4581 -12.4248 -12.4140 -12.3661 -12.3089
   -12.2944 -12.2723 -12.2556 -12.2360 -12.2213 -12.1589 -12.1488 -12.1077
   -12.0983 -12.0373  -7.8786  -7.4450  -6.1831  -6.1724  -6.1254  -6.1186
    -6.1080  -5.7602  -5.7445  -5.7226  -5.6895  -5.6384  -5.6104  -5.5632
    -5.5074  -5.4750  -5.3536  -5.3368  -5.2945  -5.2735  -5.2463  -5.2311
    -5.0990  -4.9037  -4.8884  -4.8120  -4.7579  -4.5741  -4.5409  -4.4678
    -4.4116  -4.3486  -4.3398  -4.3152  -4.2774  -4.2662  -4.2454  -4.2126
    -4.1770  -4.1193  -4.1120  -4.0917  -4.0560  -3.7684  -3.7370  -3.7295
    -3.7103  -3.7008  -3.6395  -3.4908  -3.4333  -3.4052  -3.3747  -3.3315
    -3.2935  -3.2489  -3.2388  -3.2049  -3.1797  -3.1472  -3.1295  -3.0852
    -3.0458  -3.0090  -2.9719  -2.9543  -2.9433  -2.9266  -2.9104  -2.9023
    -2.7926  -2.7664  -2.7253  -2.6654  -2.6361  -2.5930  -2.5542  -2.4767
    -2.4704  -2.4236  -2.3908  -2.3494  -2.3243  -2.2298  -2.1831  -2.1652
    -2.1347  -2.1266  -2.1111  -2.1044  -2.0159  -1.9974  -1.9789  -1.9535
    -1.9295  -1.9036  -1.8853  -1.8676  -1.8556  -1.8239  -1.7964  -1.7735
    -1.7412  -1.7189  -1.6978  -1.6776  -1.6638  -1.6323  -1.5979  -1.5750
    -1.5598  -1.5496  -1.5355  -1.5101  -1.4524  -1.4157  -1.3724  -1.3430
    -1.2908  -1.2702  -1.2047  -1.1820  -1.1558  -1.1157  -1.0558  -1.0121
    -0.8700  -0.8519  -0.6844  -0.6768  -0.6414  -0.6251  -0.6169  -0.5437
    -0.5376  -0.4466  -0.3854  -0.2545  -0.2094  -0.1961  -0.1652   0.0678
     0.1368   1.3197   1.5479

     occupation numbers 
     1.0000   1.0000   1.0000   1.0000   1.0000   1.0000   1.0000   1.0000
     1.0000   1.0000   1.0000   1.0000   1.0000   1.0000   1.0000   1.0000
     1.0000   1.0000   1.0000   1.0000   1.0000   1.0000   1.0000   1.0000
     1.0000   1.0000   1.0000   1.0000   1.0000   1.0000   1.0000   1.0000
     1.0000   1.0000   1.0000   1.0000   1.0000   1.0000   1.0000   1.0000
     1.0000   1.0000   1.0000   1.0000   1.0000   1.0000   1.0000   1.0000
     1.0000   1.0000   1.0000   1.0000   1.0000   1.0000   1.0000   1.0000
     1.0000   1.0000   1.0000   1.0000   1.0000   1.0000   1.0000   1.0000
     1.0000   1.0000   1.0000   1.0000   1.0000   1.0000   1.0000   1.0000
     1.0000   1.0000   1.0000   1.0000   1.0000   1.0000   1.0000   1.0000
     1.0000   1.0000   1.0000   1.0000   1.0000   1.0000   1.0000   1.0000
     1.0000   1.0000   1.0000   1.0000   1.0000   1.0000   1.0000   1.0000
     1.0000   1.0000   1.0000   1.0000   1.0000   1.0000   1.0000   1.0000
     1.0000   1.0000   1.0000   1.0000   1.0000   1.0000   1.0000   1.0000
     1.0000   1.0000   1.0000   1.0000   1.0000   1.0000   1.0000   1.0000
     1.0000   1.0000   1.0000   1.0000   1.0000   1.0000   1.0000   1.0000
     1.0000   1.0000   1.0000   1.0000   1.0000   1.0000   1.0000   1.0000
     1.0000   1.0000   1.0000   1.0000   1.0000   1.0000   1.0000   1.0000
     1.0000   1.0000   1.0000   1.0000   1.0000   1.0000   1.0000   1.0000
     1.0000   1.0000   1.0000   1.0000   1.0000   1.0000   1.0000   1.0000
     1.0000   1.0000   1.0000   1.0000   1.0000   1.0000   1.0000   1.0000
     1.0000   1.0000   1.0000   1.0000   1.0000   1.0000   1.0000   1.0000
     1.0000   1.0000   1.0000   1.0000   1.0000   1.0000   1.0000   1.0000
     1.0000   1.0000   1.0000   1.0000   1.0000   1.0000   1.0000   1.0000
     1.0000   1.0000   1.0000   1.0000   1.0000   1.0000   1.0000   1.0000
     1.0000   1.0000   1.0000   1.0000   1.0000   1.0000   1.0000   1.0000
     1.0000   1.0000   1.0000   1.0000   1.0000   1.0000   1.0000   1.0000
     1.0000   1.0000   1.0000   1.0000   1.0000   1.0000   1.0000   1.0000
     1.0000   1.0000   1.0000   1.0000   1.0000   1.0000   1.0000   1.0000
     1.0000   1.0000   1.0000   1.0000   1.0000   1.0000   1.0000   1.0000
     1.0000   1.0000   1.0000

          k =-0.4000 0.4619 0.0000 (112237 PWs)   bands (ev):

   -73.8176 -73.8152 -73.8118 -73.8098 -73.8068 -73.8055 -73.8040 -73.8017
   -73.7969 -73.7953 -73.7921 -73.7902 -73.7883 -73.7556 -73.7508 -73.7414
   -38.2030 -38.1962 -38.1867 -38.1834 -38.1808 -38.1745 -38.1670 -38.1502
   -38.1474 -38.1339 -38.0955 -38.0913 -38.0861 -38.0532 -38.0459 -38.0423
   -38.0342 -38.0324 -38.0221 -38.0140 -38.0093 -38.0063 -38.0047 -38.0013
   -38.0002 -37.9974 -37.9947 -37.9892 -37.9871 -37.9833 -37.9759 -37.9727
   -37.9707 -37.9691 -37.9623 -37.9588 -37.9558 -37.9541 -37.9511 -37.9489
   -37.9467 -37.9393 -37.9350 -37.9281 -37.9160 -37.8972 -37.8865 -37.8807
   -21.3346 -15.4768 -14.3405 -14.2906 -14.1171 -13.5979 -13.2998 -13.2961
   -12.9629 -12.9508 -12.8880 -12.8580 -12.8290 -12.8024 -12.7976 -12.6670
   -12.6356 -12.5974 -12.4954 -12.4849 -12.3892 -12.3768 -12.3494 -12.3273
   -12.3107 -12.2985 -12.2624 -12.2360 -12.2307 -12.1352 -12.1212 -12.1162
   -12.0811 -12.0177  -7.8786  -7.4450  -6.1353  -6.0587  -6.0263  -5.9709
    -5.9166  -5.8919  -5.8789  -5.8609  -5.8095  -5.7461  -5.6907  -5.6273
    -5.6117  -5.5426  -5.3593  -5.2880  -5.2491  -5.2182  -5.2032  -5.1701
    -5.1591  -4.8560  -4.8343  -4.7474  -4.6218  -4.5916  -4.5460  -4.5267
    -4.4929  -4.4283  -4.3860  -4.3275  -4.3099  -4.2436  -4.2286  -4.2106
    -4.1951  -4.1655  -4.1216  -4.0958  -3.9586  -3.9486  -3.7960  -3.6767
    -3.6379  -3.5916  -3.4369  -3.4012  -3.3660  -3.3280  -3.3126  -3.2842
    -3.2808  -3.2691  -3.2440  -3.2336  -3.2219  -3.2157  -3.1516  -3.1228
    -3.0987  -3.0874  -3.0607  -3.0491  -2.9996  -2.9556  -2.8528  -2.8207
    -2.7480  -2.7326  -2.7151  -2.6851  -2.6337  -2.6102  -2.5142  -2.4238
    -2.4032  -2.3328  -2.3248  -2.3198  -2.2698  -2.2008  -2.1765  -2.1636
    -2.1487  -2.0918  -2.0822  -2.0536  -2.0305  -1.9810  -1.9707  -1.9505
    -1.9341  -1.9203  -1.8967  -1.8853  -1.8706  -1.8568  -1.8464  -1.8438
    -1.8210  -1.7979  -1.7642  -1.7313  -1.7086  -1.6988  -1.6756  -1.6563
    -1.6285  -1.5877  -1.5393  -1.5081  -1.4861  -1.4636  -1.4233  -1.3196
    -1.2876  -1.2390  -1.1731  -1.1182  -1.0980  -1.0830  -1.0481  -0.9804
    -0.8158  -0.7898  -0.7041  -0.6933  -0.6596  -0.6481  -0.6016  -0.5856
    -0.5691  -0.4176  -0.2825  -0.2762  -0.1809  -0.1209  -0.0790   0.0886
     0.1855   1.3281   1.5651

     occupation numbers 
     1.0000   1.0000   1.0000   1.0000   1.0000   1.0000   1.0000   1.0000
     1.0000   1.0000   1.0000   1.0000   1.0000   1.0000   1.0000   1.0000
     1.0000   1.0000   1.0000   1.0000   1.0000   1.0000   1.0000   1.0000
     1.0000   1.0000   1.0000   1.0000   1.0000   1.0000   1.0000   1.0000
     1.0000   1.0000   1.0000   1.0000   1.0000   1.0000   1.0000   1.0000
     1.0000   1.0000   1.0000   1.0000   1.0000   1.0000   1.0000   1.0000
     1.0000   1.0000   1.0000   1.0000   1.0000   1.0000   1.0000   1.0000
     1.0000   1.0000   1.0000   1.0000   1.0000   1.0000   1.0000   1.0000
     1.0000   1.0000   1.0000   1.0000   1.0000   1.0000   1.0000   1.0000
     1.0000   1.0000   1.0000   1.0000   1.0000   1.0000   1.0000   1.0000
     1.0000   1.0000   1.0000   1.0000   1.0000   1.0000   1.0000   1.0000
     1.0000   1.0000   1.0000   1.0000   1.0000   1.0000   1.0000   1.0000
     1.0000   1.0000   1.0000   1.0000   1.0000   1.0000   1.0000   1.0000
     1.0000   1.0000   1.0000   1.0000   1.0000   1.0000   1.0000   1.0000
     1.0000   1.0000   1.0000   1.0000   1.0000   1.0000   1.0000   1.0000
     1.0000   1.0000   1.0000   1.0000   1.0000   1.0000   1.0000   1.0000
     1.0000   1.0000   1.0000   1.0000   1.0000   1.0000   1.0000   1.0000
     1.0000   1.0000   1.0000   1.0000   1.0000   1.0000   1.0000   1.0000
     1.0000   1.0000   1.0000   1.0000   1.0000   1.0000   1.0000   1.0000
     1.0000   1.0000   1.0000   1.0000   1.0000   1.0000   1.0000   1.0000
     1.0000   1.0000   1.0000   1.0000   1.0000   1.0000   1.0000   1.0000
     1.0000   1.0000   1.0000   1.0000   1.0000   1.0000   1.0000   1.0000
     1.0000   1.0000   1.0000   1.0000   1.0000   1.0000   1.0000   1.0000
     1.0000   1.0000   1.0000   1.0000   1.0000   1.0000   1.0000   1.0000
     1.0000   1.0000   1.0000   1.0000   1.0000   1.0000   1.0000   1.0000
     1.0000   1.0000   1.0000   1.0000   1.0000   1.0000   1.0000   1.0000
     1.0000   1.0000   1.0000   1.0000   1.0000   1.0000   1.0000   1.0000
     1.0000   1.0000   1.0000   1.0000   1.0000   1.0000   1.0000   1.0000
     1.0000   1.0000   1.0000   1.0000   1.0000   1.0000   1.0000   1.0000
     1.0000   1.0000   1.0000   1.0000   1.0000   1.0000   1.0000   1.0000
     1.0000   1.0000   1.0000

          k = 0.6000 0.1155 0.0000 (112237 PWs)   bands (ev):

   -73.8174 -73.8156 -73.8117 -73.8095 -73.8069 -73.8056 -73.8040 -73.8017
   -73.7968 -73.7954 -73.7920 -73.7904 -73.7882 -73.7556 -73.7508 -73.7414
   -38.2017 -38.1978 -38.1876 -38.1849 -38.1780 -38.1744 -38.1666 -38.1500
   -38.1482 -38.1336 -38.0949 -38.0932 -38.0857 -38.0528 -38.0459 -38.0421
   -38.0343 -38.0326 -38.0217 -38.0132 -38.0101 -38.0071 -38.0041 -38.0016
   -38.0006 -37.9960 -37.9943 -37.9901 -37.9872 -37.9832 -37.9757 -37.9729
   -37.9706 -37.9699 -37.9621 -37.9588 -37.9562 -37.9543 -37.9515 -37.9488
   -37.9428 -37.9400 -37.9333 -37.9305 -37.9171 -37.8980 -37.8880 -37.8785
   -21.3346 -15.4768 -14.3399 -14.2914 -14.1169 -13.5978 -13.3070 -13.2888
   -12.9689 -12.9448 -12.8830 -12.8616 -12.8293 -12.8028 -12.7981 -12.6695
   -12.6345 -12.5956 -12.5053 -12.4748 -12.3959 -12.3735 -12.3456 -12.3227
   -12.3116 -12.3006 -12.2656 -12.2365 -12.2316 -12.1331 -12.1220 -12.1166
   -12.0804 -12.0179  -7.8786  -7.4450  -6.1353  -6.0555  -6.0214  -5.9700
    -5.9301  -5.9081  -5.8783  -5.8366  -5.8087  -5.7511  -5.6926  -5.6250
    -5.6139  -5.5392  -5.3581  -5.2843  -5.2577  -5.2270  -5.1984  -5.1740
    -5.1499  -4.8580  -4.8410  -4.6974  -4.6488  -4.6114  -4.5532  -4.5160
    -4.4960  -4.4371  -4.3865  -4.3230  -4.3038  -4.2436  -4.2330  -4.2011
    -4.1935  -4.1691  -4.1213  -4.0974  -3.9593  -3.9489  -3.7923  -3.6741
    -3.6397  -3.5825  -3.4395  -3.3782  -3.3695  -3.3388  -3.3063  -3.2890
    -3.2862  -3.2640  -3.2479  -3.2365  -3.2225  -3.2048  -3.1822  -3.1453
    -3.0892  -3.0809  -3.0551  -3.0236  -3.0094  -2.9681  -2.8518  -2.8165
    -2.7572  -2.7350  -2.7281  -2.6608  -2.6438  -2.5722  -2.5246  -2.4703
    -2.3975  -2.3377  -2.3176  -2.2993  -2.2489  -2.2169  -2.1762  -2.1540
    -2.1322  -2.1070  -2.0788  -2.0502  -2.0218  -1.9864  -1.9703  -1.9613
    -1.9400  -1.9149  -1.9050  -1.8839  -1.8746  -1.8639  -1.8553  -1.8468
    -1.8135  -1.8014  -1.7549  -1.7382  -1.7118  -1.6969  -1.6681  -1.6465
    -1.6294  -1.6079  -1.5413  -1.5240  -1.4784  -1.4365  -1.4086  -1.3316
    -1.2967  -1.2329  -1.1637  -1.1414  -1.0997  -1.0624  -1.0292  -0.9982
    -0.8122  -0.7963  -0.6996  -0.6978  -0.6606  -0.6542  -0.6023  -0.5972
    -0.5546  -0.4190  -0.2845  -0.2693  -0.1783  -0.1259  -0.0782   0.0894
     0.1858   1.3178   1.5774

     occupation numbers 
     1.0000   1.0000   1.0000   1.0000   1.0000   1.0000   1.0000   1.0000
     1.0000   1.0000   1.0000   1.0000   1.0000   1.0000   1.0000   1.0000
     1.0000   1.0000   1.0000   1.0000   1.0000   1.0000   1.0000   1.0000
     1.0000   1.0000   1.0000   1.0000   1.0000   1.0000   1.0000   1.0000
     1.0000   1.0000   1.0000   1.0000   1.0000   1.0000   1.0000   1.0000
     1.0000   1.0000   1.0000   1.0000   1.0000   1.0000   1.0000   1.0000
     1.0000   1.0000   1.0000   1.0000   1.0000   1.0000   1.0000   1.0000
     1.0000   1.0000   1.0000   1.0000   1.0000   1.0000   1.0000   1.0000
     1.0000   1.0000   1.0000   1.0000   1.0000   1.0000   1.0000   1.0000
     1.0000   1.0000   1.0000   1.0000   1.0000   1.0000   1.0000   1.0000
     1.0000   1.0000   1.0000   1.0000   1.0000   1.0000   1.0000   1.0000
     1.0000   1.0000   1.0000   1.0000   1.0000   1.0000   1.0000   1.0000
     1.0000   1.0000   1.0000   1.0000   1.0000   1.0000   1.0000   1.0000
     1.0000   1.0000   1.0000   1.0000   1.0000   1.0000   1.0000   1.0000
     1.0000   1.0000   1.0000   1.0000   1.0000   1.0000   1.0000   1.0000
     1.0000   1.0000   1.0000   1.0000   1.0000   1.0000   1.0000   1.0000
     1.0000   1.0000   1.0000   1.0000   1.0000   1.0000   1.0000   1.0000
     1.0000   1.0000   1.0000   1.0000   1.0000   1.0000   1.0000   1.0000
     1.0000   1.0000   1.0000   1.0000   1.0000   1.0000   1.0000   1.0000
     1.0000   1.0000   1.0000   1.0000   1.0000   1.0000   1.0000   1.0000
     1.0000   1.0000   1.0000   1.0000   1.0000   1.0000   1.0000   1.0000
     1.0000   1.0000   1.0000   1.0000   1.0000   1.0000   1.0000   1.0000
     1.0000   1.0000   1.0000   1.0000   1.0000   1.0000   1.0000   1.0000
     1.0000   1.0000   1.0000   1.0000   1.0000   1.0000   1.0000   1.0000
     1.0000   1.0000   1.0000   1.0000   1.0000   1.0000   1.0000   1.0000
     1.0000   1.0000   1.0000   1.0000   1.0000   1.0000   1.0000   1.0000
     1.0000   1.0000   1.0000   1.0000   1.0000   1.0000   1.0000   1.0000
     1.0000   1.0000   1.0000   1.0000   1.0000   1.0000   1.0000   1.0000
     1.0000   1.0000   1.0000   1.0000   1.0000   1.0000   1.0000   1.0000
     1.0000   1.0000   1.0000   1.0000   1.0000   1.0000   1.0000   1.0000
     1.0000   1.0000   1.0000

 ------ SPIN DOWN ----------


          k = 0.0000 0.0000 0.0000 (112117 PWs)   bands (ev):

   -73.8148 -73.8103 -73.8073 -73.8055 -73.8033 -73.8025 -73.7992 -73.7970
   -73.7947 -73.7898 -73.7888 -73.7871 -73.7830 -73.7422 -73.7326 -73.7296
   -38.2169 -38.2157 -38.2137 -38.1577 -38.1570 -38.1529 -38.1482 -38.1471
   -38.1358 -38.0566 -38.0515 -38.0489 -38.0484 -38.0424 -38.0394 -38.0381
   -38.0252 -38.0233 -38.0216 -38.0203 -38.0176 -38.0174 -38.0160 -38.0131
   -38.0099 -38.0066 -38.0052 -38.0002 -37.9934 -37.9899 -37.9874 -37.9859
   -37.9845 -37.9773 -37.9532 -37.9523 -37.9495 -37.9457 -37.9364 -37.9258
   -37.9198 -37.9088 -37.9067 -37.9051 -37.9026 -37.8920 -37.8594 -37.8574
   -21.3332 -15.4756 -14.5956 -13.7068 -13.6922 -13.6722 -13.6434 -13.6295
   -13.6202 -12.9802 -12.7060 -12.6754 -12.6513 -12.6368 -12.6017 -12.5809
   -12.5335 -12.5047 -12.4687 -12.4560 -12.4443 -12.4426 -12.4215 -12.4200
   -12.4162 -12.2212 -12.1990 -12.1894 -12.1726 -12.1569 -12.1531 -12.1487
   -12.1467 -12.1444  -7.8766  -7.4432  -6.3368  -6.3236  -6.3060  -6.2754
    -6.1242  -5.6010  -5.5693  -5.5454  -5.5296  -5.5255  -5.4929  -5.4387
    -5.4059  -5.3873  -5.3119  -5.2807  -5.2606  -5.0999  -5.0908  -5.0628
    -5.0581  -5.0541  -5.0534  -4.9973  -4.9967  -4.9882  -4.5123  -4.4331
    -4.3932  -4.3440  -4.2903  -4.2813  -4.2653  -4.2440  -4.2306  -4.1772
    -4.0780  -4.0072  -3.9762  -3.9611  -3.9348  -3.7894  -3.7568  -3.7529
    -3.6996  -3.6770  -3.6739  -3.6127  -3.5095  -3.4695  -3.4040  -3.4004
    -3.3730  -3.3657  -3.2809  -3.2206  -3.1941  -3.1803  -3.1584  -3.1406
    -3.1278  -3.1231  -3.1085  -3.1061  -3.0413  -2.9261  -2.7944  -2.7542
    -2.6888  -2.6679  -2.6212  -2.5865  -2.5738  -2.5104  -2.4927  -2.4636
    -2.4588  -2.4317  -2.4286  -2.4241  -2.3923  -2.3307  -2.2751  -2.1875
    -2.1177  -2.0553  -1.9652  -1.9606  -1.9310  -1.9177  -1.8659  -1.8245
    -1.8006  -1.7772  -1.7645  -1.7639  -1.7520  -1.7482  -1.7425  -1.7406
    -1.7330  -1.7001  -1.6943  -1.6570  -1.6474  -1.6356  -1.6328  -1.5993
    -1.5744  -1.5267  -1.5167  -1.4900  -1.4489  -1.4098  -1.3704  -1.3528
    -1.2913  -1.2656  -1.1854  -1.0893  -1.0416  -1.0276  -1.0104  -0.9919
    -0.7239  -0.6879  -0.6838  -0.6835  -0.6705  -0.6657  -0.6437  -0.6372
    -0.6208  -0.3934  -0.3821  -0.3721  -0.3569  -0.3401  -0.3307  -0.2959
     0.2177   1.3008   1.6753

     occupation numbers 
     1.0000   1.0000   1.0000   1.0000   1.0000   1.0000   1.0000   1.0000
     1.0000   1.0000   1.0000   1.0000   1.0000   1.0000   1.0000   1.0000
     1.0000   1.0000   1.0000   1.0000   1.0000   1.0000   1.0000   1.0000
     1.0000   1.0000   1.0000   1.0000   1.0000   1.0000   1.0000   1.0000
     1.0000   1.0000   1.0000   1.0000   1.0000   1.0000   1.0000   1.0000
     1.0000   1.0000   1.0000   1.0000   1.0000   1.0000   1.0000   1.0000
     1.0000   1.0000   1.0000   1.0000   1.0000   1.0000   1.0000   1.0000
     1.0000   1.0000   1.0000   1.0000   1.0000   1.0000   1.0000   1.0000
     1.0000   1.0000   1.0000   1.0000   1.0000   1.0000   1.0000   1.0000
     1.0000   1.0000   1.0000   1.0000   1.0000   1.0000   1.0000   1.0000
     1.0000   1.0000   1.0000   1.0000   1.0000   1.0000   1.0000   1.0000
     1.0000   1.0000   1.0000   1.0000   1.0000   1.0000   1.0000   1.0000
     1.0000   1.0000   1.0000   1.0000   1.0000   1.0000   1.0000   1.0000
     1.0000   1.0000   1.0000   1.0000   1.0000   1.0000   1.0000   1.0000
     1.0000   1.0000   1.0000   1.0000   1.0000   1.0000   1.0000   1.0000
     1.0000   1.0000   1.0000   1.0000   1.0000   1.0000   1.0000   1.0000
     1.0000   1.0000   1.0000   1.0000   1.0000   1.0000   1.0000   1.0000
     1.0000   1.0000   1.0000   1.0000   1.0000   1.0000   1.0000   1.0000
     1.0000   1.0000   1.0000   1.0000   1.0000   1.0000   1.0000   1.0000
     1.0000   1.0000   1.0000   1.0000   1.0000   1.0000   1.0000   1.0000
     1.0000   1.0000   1.0000   1.0000   1.0000   1.0000   1.0000   1.0000
     1.0000   1.0000   1.0000   1.0000   1.0000   1.0000   1.0000   1.0000
     1.0000   1.0000   1.0000   1.0000   1.0000   1.0000   1.0000   1.0000
     1.0000   1.0000   1.0000   1.0000   1.0000   1.0000   1.0000   1.0000
     1.0000   1.0000   1.0000   1.0000   1.0000   1.0000   1.0000   1.0000
     1.0000   1.0000   1.0000   1.0000   1.0000   1.0000   1.0000   1.0000
     1.0000   1.0000   1.0000   1.0000   1.0000   1.0000   1.0000   1.0000
     1.0000   1.0000   1.0000   1.0000   1.0000   1.0000   1.0000   1.0000
     1.0000   1.0000   1.0000   1.0000   1.0000   1.0000   1.0000   1.0000
     1.0000   1.0000   1.0000   1.0000   1.0000   1.0000   1.0000   1.0000
     1.0000   1.0000   0.0000

          k = 0.0000 0.2309 0.0000 (112171 PWs)   bands (ev):

   -73.8147 -73.8103 -73.8075 -73.8054 -73.8034 -73.8022 -73.7991 -73.7970
   -73.7948 -73.7898 -73.7888 -73.7871 -73.7831 -73.7422 -73.7326 -73.7296
   -38.2121 -38.2103 -38.2073 -38.1613 -38.1598 -38.1584 -38.1512 -38.1406
   -38.1326 -38.0973 -38.0719 -38.0706 -38.0472 -38.0433 -38.0385 -38.0277
   -38.0263 -38.0211 -38.0181 -38.0169 -38.0141 -38.0112 -38.0096 -38.0062
   -38.0001 -37.9954 -37.9949 -37.9915 -37.9889 -37.9875 -37.9848 -37.9840
   -37.9802 -37.9772 -37.9563 -37.9539 -37.9499 -37.9465 -37.9366 -37.9268
   -37.9262 -37.9154 -37.9115 -37.9036 -37.8997 -37.8904 -37.8652 -37.8601
   -21.3332 -15.4756 -14.5540 -13.9737 -13.7996 -13.7836 -13.4895 -13.4596
   -13.3228 -12.9642 -12.8009 -12.7330 -12.6937 -12.6855 -12.6535 -12.5838
   -12.5529 -12.5399 -12.4926 -12.4758 -12.4546 -12.4339 -12.4228 -12.3146
   -12.2835 -12.2611 -12.2427 -12.2134 -12.1838 -12.1734 -12.1665 -12.1517
   -12.0947 -12.0789  -7.8766  -7.4432  -6.2756  -6.2650  -6.2334  -6.2283
    -6.1232  -5.6599  -5.6404  -5.6239  -5.5538  -5.5152  -5.4867  -5.4678
    -5.4236  -5.4133  -5.3909  -5.3183  -5.3141  -5.2835  -5.2667  -5.0695
    -5.0647  -5.0138  -4.9999  -4.9519  -4.7366  -4.7319  -4.5810  -4.4740
    -4.4453  -4.3816  -4.3187  -4.2815  -4.2039  -4.1580  -4.1430  -4.1169
    -4.0967  -4.0586  -4.0405  -3.9985  -3.9823  -3.9081  -3.9057  -3.8981
    -3.6654  -3.5696  -3.5371  -3.5035  -3.4633  -3.4405  -3.4346  -3.3809
    -3.3617  -3.3111  -3.2899  -3.2763  -3.2656  -3.2042  -3.1902  -3.1468
    -3.0748  -2.9818  -2.9381  -2.9229  -2.8448  -2.7795  -2.7571  -2.7422
    -2.7165  -2.7093  -2.6930  -2.6695  -2.6439  -2.6275  -2.5834  -2.5390
    -2.5058  -2.4966  -2.4653  -2.4321  -2.3488  -2.3034  -2.1868  -2.1577
    -2.1057  -2.0624  -2.0095  -1.9938  -1.9688  -1.9494  -1.9234  -1.9012
    -1.8822  -1.8529  -1.8411  -1.8118  -1.7794  -1.7551  -1.7393  -1.7314
    -1.7178  -1.6945  -1.6788  -1.6530  -1.6372  -1.6009  -1.5794  -1.5394
    -1.5238  -1.4890  -1.4775  -1.4493  -1.4293  -1.3652  -1.3328  -1.3196
    -1.2942  -1.2728  -1.2336  -1.2172  -1.1514  -1.0633  -1.0405  -1.0121
    -0.8885  -0.7746  -0.7561  -0.7396  -0.5642  -0.5598  -0.5429  -0.5288
    -0.5157  -0.5029  -0.4035  -0.3726  -0.3568  -0.2436  -0.1661  -0.1357
     0.1997   1.3067   1.7065

     occupation numbers 
     1.0000   1.0000   1.0000   1.0000   1.0000   1.0000   1.0000   1.0000
     1.0000   1.0000   1.0000   1.0000   1.0000   1.0000   1.0000   1.0000
     1.0000   1.0000   1.0000   1.0000   1.0000   1.0000   1.0000   1.0000
     1.0000   1.0000   1.0000   1.0000   1.0000   1.0000   1.0000   1.0000
     1.0000   1.0000   1.0000   1.0000   1.0000   1.0000   1.0000   1.0000
     1.0000   1.0000   1.0000   1.0000   1.0000   1.0000   1.0000   1.0000
     1.0000   1.0000   1.0000   1.0000   1.0000   1.0000   1.0000   1.0000
     1.0000   1.0000   1.0000   1.0000   1.0000   1.0000   1.0000   1.0000
     1.0000   1.0000   1.0000   1.0000   1.0000   1.0000   1.0000   1.0000
     1.0000   1.0000   1.0000   1.0000   1.0000   1.0000   1.0000   1.0000
     1.0000   1.0000   1.0000   1.0000   1.0000   1.0000   1.0000   1.0000
     1.0000   1.0000   1.0000   1.0000   1.0000   1.0000   1.0000   1.0000
     1.0000   1.0000   1.0000   1.0000   1.0000   1.0000   1.0000   1.0000
     1.0000   1.0000   1.0000   1.0000   1.0000   1.0000   1.0000   1.0000
     1.0000   1.0000   1.0000   1.0000   1.0000   1.0000   1.0000   1.0000
     1.0000   1.0000   1.0000   1.0000   1.0000   1.0000   1.0000   1.0000
     1.0000   1.0000   1.0000   1.0000   1.0000   1.0000   1.0000   1.0000
     1.0000   1.0000   1.0000   1.0000   1.0000   1.0000   1.0000   1.0000
     1.0000   1.0000   1.0000   1.0000   1.0000   1.0000   1.0000   1.0000
     1.0000   1.0000   1.0000   1.0000   1.0000   1.0000   1.0000   1.0000
     1.0000   1.0000   1.0000   1.0000   1.0000   1.0000   1.0000   1.0000
     1.0000   1.0000   1.0000   1.0000   1.0000   1.0000   1.0000   1.0000
     1.0000   1.0000   1.0000   1.0000   1.0000   1.0000   1.0000   1.0000
     1.0000   1.0000   1.0000   1.0000   1.0000   1.0000   1.0000   1.0000
     1.0000   1.0000   1.0000   1.0000   1.0000   1.0000   1.0000   1.0000
     1.0000   1.0000   1.0000   1.0000   1.0000   1.0000   1.0000   1.0000
     1.0000   1.0000   1.0000   1.0000   1.0000   1.0000   1.0000   1.0000
     1.0000   1.0000   1.0000   1.0000   1.0000   1.0000   1.0000   1.0000
     1.0000   1.0000   1.0000   1.0000   1.0000   1.0000   1.0000   1.0000
     1.0000   1.0000   1.0000   1.0000   1.0000   1.0000   1.0000   1.0000
     1.0000   1.0000   0.0000

          k = 0.0000 0.4619 0.0000 (112236 PWs)   bands (ev):

   -73.8145 -73.8104 -73.8079 -73.8052 -73.8036 -73.8020 -73.7990 -73.7969
   -73.7950 -73.7898 -73.7888 -73.7872 -73.7831 -73.7422 -73.7326 -73.7296
   -38.2015 -38.1973 -38.1857 -38.1786 -38.1736 -38.1591 -38.1555 -38.1395
   -38.1250 -38.1178 -38.0969 -38.0942 -38.0573 -38.0510 -38.0436 -38.0340
   -38.0279 -38.0166 -38.0110 -38.0081 -38.0038 -38.0025 -37.9994 -37.9983
   -37.9955 -37.9924 -37.9921 -37.9884 -37.9848 -37.9832 -37.9772 -37.9741
   -37.9678 -37.9614 -37.9594 -37.9514 -37.9459 -37.9421 -37.9398 -37.9345
   -37.9331 -37.9231 -37.9185 -37.9100 -37.8999 -37.8850 -37.8791 -37.8635
   -21.3332 -15.4756 -14.4322 -14.2309 -13.8691 -13.8516 -13.2601 -13.2284
   -13.0157 -12.9970 -12.9682 -12.9143 -12.8310 -12.7272 -12.7029 -12.6871
   -12.5182 -12.5107 -12.4590 -12.4482 -12.4347 -12.4238 -12.3808 -12.3671
   -12.3489 -12.2829 -12.2138 -12.2002 -12.1757 -12.1576 -12.1558 -12.1515
   -12.0555 -12.0381  -7.8766  -7.4432  -6.1427  -6.1141  -6.1044  -6.0845
    -6.0217  -5.8684  -5.8564  -5.8313  -5.7088  -5.5287  -5.4961  -5.4832
    -5.4560  -5.4432  -5.4342  -5.3883  -5.3709  -5.3214  -5.2981  -5.0646
    -5.0593  -5.0265  -5.0071  -4.8035  -4.6221  -4.5174  -4.4797  -4.4358
    -4.3912  -4.3715  -4.3455  -4.3077  -4.2412  -4.2265  -4.1886  -4.1569
    -4.1261  -4.1151  -4.1005  -4.0740  -4.0639  -4.0491  -4.0390  -3.6894
    -3.5686  -3.5056  -3.4730  -3.4385  -3.4146  -3.3843  -3.3656  -3.3073
    -3.2873  -3.2771  -3.2589  -3.2338  -3.2163  -3.1846  -3.1538  -3.1036
    -3.0592  -3.0472  -3.0028  -2.9513  -2.9338  -2.9058  -2.8430  -2.7646
    -2.7236  -2.6937  -2.6449  -2.6290  -2.5935  -2.5558  -2.5306  -2.4817
    -2.4401  -2.4260  -2.3906  -2.3115  -2.2743  -2.2476  -2.2384  -2.1705
    -2.1038  -2.0834  -2.0344  -2.0094  -2.0026  -1.9912  -1.9710  -1.9355
    -1.9190  -1.8977  -1.8750  -1.8649  -1.8500  -1.8379  -1.8289  -1.8223
    -1.7676  -1.7595  -1.7157  -1.7046  -1.6821  -1.6540  -1.6238  -1.6100
    -1.5820  -1.5479  -1.5169  -1.4871  -1.4200  -1.3819  -1.2975  -1.2799
    -1.2254  -1.1962  -1.1861  -1.1396  -1.1142  -1.0925  -1.0394  -0.9986
    -0.9675  -0.8853  -0.7283  -0.7133  -0.6358  -0.6158  -0.4796  -0.4507
    -0.4390  -0.4274  -0.3938  -0.3704  -0.2998  -0.0826   0.0060   0.0356
     0.1532   1.3154   1.7575

     occupation numbers 
     1.0000   1.0000   1.0000   1.0000   1.0000   1.0000   1.0000   1.0000
     1.0000   1.0000   1.0000   1.0000   1.0000   1.0000   1.0000   1.0000
     1.0000   1.0000   1.0000   1.0000   1.0000   1.0000   1.0000   1.0000
     1.0000   1.0000   1.0000   1.0000   1.0000   1.0000   1.0000   1.0000
     1.0000   1.0000   1.0000   1.0000   1.0000   1.0000   1.0000   1.0000
     1.0000   1.0000   1.0000   1.0000   1.0000   1.0000   1.0000   1.0000
     1.0000   1.0000   1.0000   1.0000   1.0000   1.0000   1.0000   1.0000
     1.0000   1.0000   1.0000   1.0000   1.0000   1.0000   1.0000   1.0000
     1.0000   1.0000   1.0000   1.0000   1.0000   1.0000   1.0000   1.0000
     1.0000   1.0000   1.0000   1.0000   1.0000   1.0000   1.0000   1.0000
     1.0000   1.0000   1.0000   1.0000   1.0000   1.0000   1.0000   1.0000
     1.0000   1.0000   1.0000   1.0000   1.0000   1.0000   1.0000   1.0000
     1.0000   1.0000   1.0000   1.0000   1.0000   1.0000   1.0000   1.0000
     1.0000   1.0000   1.0000   1.0000   1.0000   1.0000   1.0000   1.0000
     1.0000   1.0000   1.0000   1.0000   1.0000   1.0000   1.0000   1.0000
     1.0000   1.0000   1.0000   1.0000   1.0000   1.0000   1.0000   1.0000
     1.0000   1.0000   1.0000   1.0000   1.0000   1.0000   1.0000   1.0000
     1.0000   1.0000   1.0000   1.0000   1.0000   1.0000   1.0000   1.0000
     1.0000   1.0000   1.0000   1.0000   1.0000   1.0000   1.0000   1.0000
     1.0000   1.0000   1.0000   1.0000   1.0000   1.0000   1.0000   1.0000
     1.0000   1.0000   1.0000   1.0000   1.0000   1.0000   1.0000   1.0000
     1.0000   1.0000   1.0000   1.0000   1.0000   1.0000   1.0000   1.0000
     1.0000   1.0000   1.0000   1.0000   1.0000   1.0000   1.0000   1.0000
     1.0000   1.0000   1.0000   1.0000   1.0000   1.0000   1.0000   1.0000
     1.0000   1.0000   1.0000   1.0000   1.0000   1.0000   1.0000   1.0000
     1.0000   1.0000   1.0000   1.0000   1.0000   1.0000   1.0000   1.0000
     1.0000   1.0000   1.0000   1.0000   1.0000   1.0000   1.0000   1.0000
     1.0000   1.0000   1.0000   1.0000   1.0000   1.0000   1.0000   1.0000
     1.0000   1.0000   1.0000   1.0000   1.0000   1.0000   1.0000   1.0000
     1.0000   1.0000   1.0000   1.0000   1.0000   1.0000   1.0000   1.0000
     1.0000   1.0000   0.0000

          k = 0.2000 0.3464 0.0000 (112231 PWs)   bands (ev):

   -73.8145 -73.8106 -73.8077 -73.8054 -73.8034 -73.8020 -73.7993 -73.7970
   -73.7947 -73.7899 -73.7887 -73.7872 -73.7830 -73.7422 -73.7326 -73.7296
   -38.2058 -38.1967 -38.1960 -38.1733 -38.1681 -38.1591 -38.1492 -38.1421
   -38.1273 -38.1167 -38.1060 -38.0709 -38.0540 -38.0485 -38.0441 -38.0327
   -38.0279 -38.0232 -38.0179 -38.0152 -38.0117 -38.0062 -37.9995 -37.9979
   -37.9924 -37.9892 -37.9876 -37.9854 -37.9832 -37.9806 -37.9772 -37.9761
   -37.9706 -37.9666 -37.9582 -37.9528 -37.9501 -37.9473 -37.9385 -37.9341
   -37.9275 -37.9212 -37.9182 -37.9099 -37.8967 -37.8899 -37.8748 -37.8622
   -21.3332 -15.4756 -14.4721 -14.0991 -14.0578 -13.5637 -13.5617 -13.1696
   -13.1174 -13.0061 -12.9322 -12.8059 -12.7870 -12.7072 -12.6706 -12.6015
   -12.5920 -12.5748 -12.5697 -12.4546 -12.4230 -12.3886 -12.3745 -12.3107
   -12.2889 -12.2705 -12.2510 -12.2306 -12.2198 -12.1531 -12.1486 -12.1059
   -12.0948 -12.0346  -7.8766  -7.4432  -6.1734  -6.1590  -6.1273  -6.1119
    -6.1016  -5.7546  -5.7316  -5.7167  -5.6762  -5.6409  -5.5989  -5.5605
    -5.5017  -5.4701  -5.3514  -5.3289  -5.2810  -5.2716  -5.2395  -5.2227
    -5.0923  -4.9002  -4.8858  -4.8106  -4.7495  -4.5935  -4.4841  -4.4585
    -4.3916  -4.3621  -4.3344  -4.2989  -4.2734  -4.2600  -4.2300  -4.2221
    -4.1689  -4.1189  -4.1040  -4.0888  -4.0534  -3.7589  -3.7311  -3.7216
    -3.7139  -3.6888  -3.6102  -3.4907  -3.4236  -3.3916  -3.3467  -3.3154
    -3.2851  -3.2412  -3.2188  -3.1996  -3.1632  -3.1474  -3.0952  -3.0882
    -3.0340  -3.0019  -2.9662  -2.9448  -2.9366  -2.9190  -2.9043  -2.8917
    -2.7959  -2.7234  -2.6902  -2.6429  -2.6053  -2.5426  -2.5061  -2.4723
    -2.4567  -2.4264  -2.3812  -2.3559  -2.3057  -2.2101  -2.1721  -2.1549
    -2.1215  -2.1201  -2.0834  -2.0726  -1.9974  -1.9825  -1.9665  -1.9390
    -1.9175  -1.8939  -1.8699  -1.8461  -1.8308  -1.8165  -1.7890  -1.7493
    -1.7248  -1.7095  -1.7028  -1.6644  -1.6580  -1.6112  -1.5831  -1.5696
    -1.5613  -1.5349  -1.5231  -1.4954  -1.4158  -1.3839  -1.3694  -1.3566
    -1.2807  -1.2170  -1.2013  -1.1771  -1.1504  -1.1058  -1.0257  -0.9990
    -0.8691  -0.8374  -0.6755  -0.6656  -0.6315  -0.6221  -0.6088  -0.5339
    -0.5251  -0.4205  -0.3689  -0.2502  -0.2011  -0.1918  -0.1439   0.0795
     0.1649   1.3291   1.7277

     occupation numbers 
     1.0000   1.0000   1.0000   1.0000   1.0000   1.0000   1.0000   1.0000
     1.0000   1.0000   1.0000   1.0000   1.0000   1.0000   1.0000   1.0000
     1.0000   1.0000   1.0000   1.0000   1.0000   1.0000   1.0000   1.0000
     1.0000   1.0000   1.0000   1.0000   1.0000   1.0000   1.0000   1.0000
     1.0000   1.0000   1.0000   1.0000   1.0000   1.0000   1.0000   1.0000
     1.0000   1.0000   1.0000   1.0000   1.0000   1.0000   1.0000   1.0000
     1.0000   1.0000   1.0000   1.0000   1.0000   1.0000   1.0000   1.0000
     1.0000   1.0000   1.0000   1.0000   1.0000   1.0000   1.0000   1.0000
     1.0000   1.0000   1.0000   1.0000   1.0000   1.0000   1.0000   1.0000
     1.0000   1.0000   1.0000   1.0000   1.0000   1.0000   1.0000   1.0000
     1.0000   1.0000   1.0000   1.0000   1.0000   1.0000   1.0000   1.0000
     1.0000   1.0000   1.0000   1.0000   1.0000   1.0000   1.0000   1.0000
     1.0000   1.0000   1.0000   1.0000   1.0000   1.0000   1.0000   1.0000
     1.0000   1.0000   1.0000   1.0000   1.0000   1.0000   1.0000   1.0000
     1.0000   1.0000   1.0000   1.0000   1.0000   1.0000   1.0000   1.0000
     1.0000   1.0000   1.0000   1.0000   1.0000   1.0000   1.0000   1.0000
     1.0000   1.0000   1.0000   1.0000   1.0000   1.0000   1.0000   1.0000
     1.0000   1.0000   1.0000   1.0000   1.0000   1.0000   1.0000   1.0000
     1.0000   1.0000   1.0000   1.0000   1.0000   1.0000   1.0000   1.0000
     1.0000   1.0000   1.0000   1.0000   1.0000   1.0000   1.0000   1.0000
     1.0000   1.0000   1.0000   1.0000   1.0000   1.0000   1.0000   1.0000
     1.0000   1.0000   1.0000   1.0000   1.0000   1.0000   1.0000   1.0000
     1.0000   1.0000   1.0000   1.0000   1.0000   1.0000   1.0000   1.0000
     1.0000   1.0000   1.0000   1.0000   1.0000   1.0000   1.0000   1.0000
     1.0000   1.0000   1.0000   1.0000   1.0000   1.0000   1.0000   1.0000
     1.0000   1.0000   1.0000   1.0000   1.0000   1.0000   1.0000   1.0000
     1.0000   1.0000   1.0000   1.0000   1.0000   1.0000   1.0000   1.0000
     1.0000   1.0000   1.0000   1.0000   1.0000   1.0000   1.0000   1.0000
     1.0000   1.0000   1.0000   1.0000   1.0000   1.0000   1.0000   1.0000
     1.0000   1.0000   1.0000   1.0000   1.0000   1.0000   1.0000   1.0000
     1.0000   1.0000   0.0000

          k = 0.2000 0.5774 0.0000 (112237 PWs)   bands (ev):

   -73.8144 -73.8106 -73.8079 -73.8053 -73.8034 -73.8020 -73.7991 -73.7969
   -73.7949 -73.7898 -73.7888 -73.7872 -73.7831 -73.7422 -73.7326 -73.7296
   -38.1966 -38.1896 -38.1809 -38.1768 -38.1711 -38.1672 -38.1591 -38.1438
   -38.1398 -38.1238 -38.0864 -38.0851 -38.0772 -38.0457 -38.0419 -38.0354
   -38.0299 -38.0235 -38.0142 -38.0106 -38.0046 -38.0008 -37.9989 -37.9970
   -37.9959 -37.9940 -37.9892 -37.9852 -37.9828 -37.9771 -37.9699 -37.9659
   -37.9608 -37.9565 -37.9542 -37.9514 -37.9502 -37.9426 -37.9389 -37.9354
   -37.9322 -37.9252 -37.9211 -37.9170 -37.9052 -37.8876 -37.8753 -37.8669
   -21.3332 -15.4756 -14.3323 -14.2903 -14.1123 -13.5926 -13.2966 -13.2918
   -12.9483 -12.9450 -12.8860 -12.8507 -12.8384 -12.8005 -12.7910 -12.6558
   -12.6284 -12.6006 -12.4889 -12.4824 -12.3807 -12.3691 -12.3556 -12.3223
   -12.3077 -12.2958 -12.2565 -12.2319 -12.2309 -12.1289 -12.1188 -12.1164
   -12.0776 -12.0151  -7.8766  -7.4432  -6.1323  -6.0431  -5.9989  -5.9822
    -5.9156  -5.8906  -5.8712  -5.8445  -5.8058  -5.7406  -5.6822  -5.6190
    -5.6104  -5.5377  -5.3587  -5.2611  -5.2510  -5.2141  -5.1989  -5.1669
    -5.1507  -4.8515  -4.8277  -4.7442  -4.6277  -4.5717  -4.5420  -4.5149
    -4.4691  -4.4122  -4.3927  -4.3126  -4.3063  -4.2361  -4.2289  -4.2087
    -4.1826  -4.1617  -4.1193  -4.0930  -3.9499  -3.9464  -3.7865  -3.6575
    -3.6439  -3.5647  -3.4279  -3.3846  -3.3517  -3.3189  -3.3015  -3.2801
    -3.2654  -3.2569  -3.2385  -3.2287  -3.2112  -3.1967  -3.1362  -3.1182
    -3.0929  -3.0751  -3.0572  -3.0252  -2.9934  -2.9236  -2.8685  -2.8138
    -2.7322  -2.7037  -2.6797  -2.6568  -2.6008  -2.5483  -2.4957  -2.4439
    -2.3863  -2.3279  -2.3153  -2.3011  -2.2461  -2.1908  -2.1679  -2.1256
    -2.1092  -2.0946  -2.0695  -2.0475  -2.0072  -1.9740  -1.9547  -1.9438
    -1.9253  -1.9061  -1.8866  -1.8702  -1.8619  -1.8490  -1.8386  -1.8289
    -1.8124  -1.7729  -1.7614  -1.7290  -1.6980  -1.6753  -1.6593  -1.6370
    -1.6036  -1.5621  -1.5447  -1.4920  -1.4731  -1.4586  -1.3937  -1.3214
    -1.2677  -1.1862  -1.1547  -1.1349  -1.0900  -1.0737  -1.0011  -0.9813
    -0.8073  -0.7925  -0.6960  -0.6836  -0.6507  -0.6364  -0.5863  -0.5754
    -0.5573  -0.3938  -0.2723  -0.2630  -0.1809  -0.1178  -0.0573   0.1203
     0.1962   1.3373   1.7408

     occupation numbers 
     1.0000   1.0000   1.0000   1.0000   1.0000   1.0000   1.0000   1.0000
     1.0000   1.0000   1.0000   1.0000   1.0000   1.0000   1.0000   1.0000
     1.0000   1.0000   1.0000   1.0000   1.0000   1.0000   1.0000   1.0000
     1.0000   1.0000   1.0000   1.0000   1.0000   1.0000   1.0000   1.0000
     1.0000   1.0000   1.0000   1.0000   1.0000   1.0000   1.0000   1.0000
     1.0000   1.0000   1.0000   1.0000   1.0000   1.0000   1.0000   1.0000
     1.0000   1.0000   1.0000   1.0000   1.0000   1.0000   1.0000   1.0000
     1.0000   1.0000   1.0000   1.0000   1.0000   1.0000   1.0000   1.0000
     1.0000   1.0000   1.0000   1.0000   1.0000   1.0000   1.0000   1.0000
     1.0000   1.0000   1.0000   1.0000   1.0000   1.0000   1.0000   1.0000
     1.0000   1.0000   1.0000   1.0000   1.0000   1.0000   1.0000   1.0000
     1.0000   1.0000   1.0000   1.0000   1.0000   1.0000   1.0000   1.0000
     1.0000   1.0000   1.0000   1.0000   1.0000   1.0000   1.0000   1.0000
     1.0000   1.0000   1.0000   1.0000   1.0000   1.0000   1.0000   1.0000
     1.0000   1.0000   1.0000   1.0000   1.0000   1.0000   1.0000   1.0000
     1.0000   1.0000   1.0000   1.0000   1.0000   1.0000   1.0000   1.0000
     1.0000   1.0000   1.0000   1.0000   1.0000   1.0000   1.0000   1.0000
     1.0000   1.0000   1.0000   1.0000   1.0000   1.0000   1.0000   1.0000
     1.0000   1.0000   1.0000   1.0000   1.0000   1.0000   1.0000   1.0000
     1.0000   1.0000   1.0000   1.0000   1.0000   1.0000   1.0000   1.0000
     1.0000   1.0000   1.0000   1.0000   1.0000   1.0000   1.0000   1.0000
     1.0000   1.0000   1.0000   1.0000   1.0000   1.0000   1.0000   1.0000
     1.0000   1.0000   1.0000   1.0000   1.0000   1.0000   1.0000   1.0000
     1.0000   1.0000   1.0000   1.0000   1.0000   1.0000   1.0000   1.0000
     1.0000   1.0000   1.0000   1.0000   1.0000   1.0000   1.0000   1.0000
     1.0000   1.0000   1.0000   1.0000   1.0000   1.0000   1.0000   1.0000
     1.0000   1.0000   1.0000   1.0000   1.0000   1.0000   1.0000   1.0000
     1.0000   1.0000   1.0000   1.0000   1.0000   1.0000   1.0000   1.0000
     1.0000   1.0000   1.0000   1.0000   1.0000   1.0000   1.0000   1.0000
     1.0000   1.0000   1.0000   1.0000   1.0000   1.0000   1.0000   1.0000
     1.0000   1.0000   0.0000

          k =-0.2000 0.1155 0.0000 (112171 PWs)   bands (ev):

   -73.8147 -73.8104 -73.8074 -73.8055 -73.8031 -73.8025 -73.7992 -73.7970
   -73.7947 -73.7898 -73.7888 -73.7871 -73.7831 -73.7422 -73.7326 -73.7296
   -38.2117 -38.2114 -38.2067 -38.1629 -38.1596 -38.1570 -38.1514 -38.1399
   -38.1328 -38.0967 -38.0728 -38.0706 -38.0473 -38.0435 -38.0384 -38.0291
   -38.0231 -38.0214 -38.0204 -38.0190 -38.0123 -38.0107 -38.0094 -38.0060
   -38.0001 -37.9952 -37.9936 -37.9922 -37.9890 -37.9877 -37.9855 -37.9836
   -37.9802 -37.9772 -37.9562 -37.9532 -37.9506 -37.9465 -37.9366 -37.9286
   -37.9247 -37.9148 -37.9107 -37.9043 -37.9003 -37.8903 -37.8646 -37.8606
   -21.3332 -15.4756 -14.5540 -13.9730 -13.7987 -13.7863 -13.4763 -13.4717
   -13.3230 -12.9645 -12.7881 -12.7538 -12.6895 -12.6797 -12.6557 -12.5845
   -12.5624 -12.5190 -12.4946 -12.4770 -12.4665 -12.4313 -12.4219 -12.3054
   -12.2928 -12.2601 -12.2429 -12.2115 -12.1853 -12.1738 -12.1669 -12.1504
   -12.0940 -12.0798  -7.8766  -7.4432  -6.2795  -6.2591  -6.2386  -6.2250
    -6.1232  -5.6688  -5.6327  -5.6201  -5.5446  -5.5266  -5.4862  -5.4664
    -5.4334  -5.4145  -5.3807  -5.3249  -5.3089  -5.2788  -5.2734  -5.0767
    -5.0601  -5.0123  -4.9979  -4.9485  -4.7368  -4.7332  -4.5634  -4.5047
    -4.4405  -4.3674  -4.3360  -4.2738  -4.2021  -4.1581  -4.1433  -4.1198
    -4.0966  -4.0617  -4.0375  -3.9932  -3.9807  -3.9121  -3.9019  -3.8933
    -3.6610  -3.5834  -3.5312  -3.4974  -3.4720  -3.4569  -3.4415  -3.3714
    -3.3628  -3.3125  -3.2917  -3.2745  -3.2563  -3.2017  -3.1908  -3.1499
    -3.0757  -2.9692  -2.9457  -2.9137  -2.8152  -2.7920  -2.7653  -2.7394
    -2.7175  -2.7044  -2.6919  -2.6823  -2.6636  -2.6364  -2.5828  -2.5395
    -2.4980  -2.4801  -2.4620  -2.4300  -2.3559  -2.3028  -2.1791  -2.1658
    -2.1152  -2.0668  -2.0137  -1.9923  -1.9650  -1.9545  -1.9238  -1.8997
    -1.8746  -1.8551  -1.8314  -1.8124  -1.7931  -1.7647  -1.7392  -1.7221
    -1.7045  -1.6937  -1.6752  -1.6543  -1.6445  -1.5994  -1.5658  -1.5442
    -1.5160  -1.4957  -1.4890  -1.4319  -1.4232  -1.3588  -1.3437  -1.3230
    -1.3060  -1.2723  -1.2447  -1.2162  -1.1501  -1.0727  -1.0375  -0.9992
    -0.8941  -0.7697  -0.7516  -0.7315  -0.5789  -0.5630  -0.5427  -0.5275
    -0.5110  -0.5022  -0.4061  -0.3758  -0.3511  -0.2427  -0.1655  -0.1378
     0.1983   1.3289   1.6810

     occupation numbers 
     1.0000   1.0000   1.0000   1.0000   1.0000   1.0000   1.0000   1.0000
     1.0000   1.0000   1.0000   1.0000   1.0000   1.0000   1.0000   1.0000
     1.0000   1.0000   1.0000   1.0000   1.0000   1.0000   1.0000   1.0000
     1.0000   1.0000   1.0000   1.0000   1.0000   1.0000   1.0000   1.0000
     1.0000   1.0000   1.0000   1.0000   1.0000   1.0000   1.0000   1.0000
     1.0000   1.0000   1.0000   1.0000   1.0000   1.0000   1.0000   1.0000
     1.0000   1.0000   1.0000   1.0000   1.0000   1.0000   1.0000   1.0000
     1.0000   1.0000   1.0000   1.0000   1.0000   1.0000   1.0000   1.0000
     1.0000   1.0000   1.0000   1.0000   1.0000   1.0000   1.0000   1.0000
     1.0000   1.0000   1.0000   1.0000   1.0000   1.0000   1.0000   1.0000
     1.0000   1.0000   1.0000   1.0000   1.0000   1.0000   1.0000   1.0000
     1.0000   1.0000   1.0000   1.0000   1.0000   1.0000   1.0000   1.0000
     1.0000   1.0000   1.0000   1.0000   1.0000   1.0000   1.0000   1.0000
     1.0000   1.0000   1.0000   1.0000   1.0000   1.0000   1.0000   1.0000
     1.0000   1.0000   1.0000   1.0000   1.0000   1.0000   1.0000   1.0000
     1.0000   1.0000   1.0000   1.0000   1.0000   1.0000   1.0000   1.0000
     1.0000   1.0000   1.0000   1.0000   1.0000   1.0000   1.0000   1.0000
     1.0000   1.0000   1.0000   1.0000   1.0000   1.0000   1.0000   1.0000
     1.0000   1.0000   1.0000   1.0000   1.0000   1.0000   1.0000   1.0000
     1.0000   1.0000   1.0000   1.0000   1.0000   1.0000   1.0000   1.0000
     1.0000   1.0000   1.0000   1.0000   1.0000   1.0000   1.0000   1.0000
     1.0000   1.0000   1.0000   1.0000   1.0000   1.0000   1.0000   1.0000
     1.0000   1.0000   1.0000   1.0000   1.0000   1.0000   1.0000   1.0000
     1.0000   1.0000   1.0000   1.0000   1.0000   1.0000   1.0000   1.0000
     1.0000   1.0000   1.0000   1.0000   1.0000   1.0000   1.0000   1.0000
     1.0000   1.0000   1.0000   1.0000   1.0000   1.0000   1.0000   1.0000
     1.0000   1.0000   1.0000   1.0000   1.0000   1.0000   1.0000   1.0000
     1.0000   1.0000   1.0000   1.0000   1.0000   1.0000   1.0000   1.0000
     1.0000   1.0000   1.0000   1.0000   1.0000   1.0000   1.0000   1.0000
     1.0000   1.0000   1.0000   1.0000   1.0000   1.0000   1.0000   1.0000
     1.0000   1.0000   0.0000

          k = 0.2000 0.1155 0.0000 (112171 PWs)   bands (ev):

   -73.8146 -73.8104 -73.8074 -73.8055 -73.8032 -73.8023 -73.7993 -73.7970
   -73.7946 -73.7899 -73.7888 -73.7872 -73.7830 -73.7422 -73.7326 -73.7296
   -38.2123 -38.2102 -38.2073 -38.1641 -38.1591 -38.1562 -38.1507 -38.1400
   -38.1334 -38.0969 -38.0730 -38.0704 -38.0473 -38.0424 -38.0398 -38.0291
   -38.0237 -38.0214 -38.0197 -38.0181 -38.0133 -38.0105 -38.0086 -38.0061
   -38.0005 -37.9951 -37.9942 -37.9908 -37.9888 -37.9879 -37.9867 -37.9835
   -37.9802 -37.9771 -37.9553 -37.9543 -37.9507 -37.9462 -37.9365 -37.9287
   -37.9244 -37.9144 -37.9113 -37.9043 -37.9001 -37.8906 -37.8664 -37.8588
   -21.3332 -15.4756 -14.5540 -13.9731 -13.7980 -13.7868 -13.4752 -13.4734
   -13.3223 -12.9646 -12.7880 -12.7531 -12.6888 -12.6814 -12.6561 -12.5844
   -12.5635 -12.5177 -12.4923 -12.4788 -12.4664 -12.4332 -12.4209 -12.3010
   -12.2926 -12.2629 -12.2459 -12.2071 -12.1909 -12.1715 -12.1693 -12.1475
   -12.0913 -12.0823  -7.8766  -7.4432  -6.2737  -6.2614  -6.2419  -6.2256
    -6.1232  -5.6616  -5.6383  -5.6168  -5.5445  -5.5317  -5.4852  -5.4680
    -5.4378  -5.4196  -5.3677  -5.3243  -5.3118  -5.2791  -5.2721  -5.0740
    -5.0671  -5.0107  -5.0011  -4.9426  -4.7381  -4.7335  -4.5572  -4.5046
    -4.4353  -4.3882  -4.3354  -4.2683  -4.2010  -4.1589  -4.1454  -4.1203
    -4.0961  -4.0526  -4.0370  -4.0000  -3.9796  -3.9093  -3.9056  -3.8956
    -3.6540  -3.5628  -3.5479  -3.5032  -3.4632  -3.4537  -3.4372  -3.3783
    -3.3689  -3.3066  -3.2970  -3.2790  -3.2492  -3.2080  -3.1932  -3.1439
    -3.0840  -2.9826  -2.9361  -2.9012  -2.8129  -2.7926  -2.7716  -2.7411
    -2.7280  -2.7051  -2.6939  -2.6826  -2.6510  -2.6232  -2.5750  -2.5426
    -2.5232  -2.4840  -2.4689  -2.4163  -2.3525  -2.2957  -2.1896  -2.1646
    -2.1088  -2.0675  -2.0115  -1.9841  -1.9594  -1.9471  -1.9157  -1.9015
    -1.8939  -1.8677  -1.8293  -1.8131  -1.7975  -1.7671  -1.7423  -1.7318
    -1.7042  -1.6850  -1.6717  -1.6477  -1.6291  -1.6108  -1.5848  -1.5320
    -1.5265  -1.4975  -1.4487  -1.4394  -1.4193  -1.3941  -1.3462  -1.3063
    -1.3017  -1.2909  -1.2404  -1.2004  -1.1538  -1.0564  -1.0383  -1.0139
    -0.8917  -0.7597  -0.7502  -0.7459  -0.5898  -0.5541  -0.5422  -0.5270
    -0.5138  -0.5063  -0.4020  -0.3772  -0.3461  -0.2435  -0.1616  -0.1415
     0.1990   1.3237   1.6875

     occupation numbers 
     1.0000   1.0000   1.0000   1.0000   1.0000   1.0000   1.0000   1.0000
     1.0000   1.0000   1.0000   1.0000   1.0000   1.0000   1.0000   1.0000
     1.0000   1.0000   1.0000   1.0000   1.0000   1.0000   1.0000   1.0000
     1.0000   1.0000   1.0000   1.0000   1.0000   1.0000   1.0000   1.0000
     1.0000   1.0000   1.0000   1.0000   1.0000   1.0000   1.0000   1.0000
     1.0000   1.0000   1.0000   1.0000   1.0000   1.0000   1.0000   1.0000
     1.0000   1.0000   1.0000   1.0000   1.0000   1.0000   1.0000   1.0000
     1.0000   1.0000   1.0000   1.0000   1.0000   1.0000   1.0000   1.0000
     1.0000   1.0000   1.0000   1.0000   1.0000   1.0000   1.0000   1.0000
     1.0000   1.0000   1.0000   1.0000   1.0000   1.0000   1.0000   1.0000
     1.0000   1.0000   1.0000   1.0000   1.0000   1.0000   1.0000   1.0000
     1.0000   1.0000   1.0000   1.0000   1.0000   1.0000   1.0000   1.0000
     1.0000   1.0000   1.0000   1.0000   1.0000   1.0000   1.0000   1.0000
     1.0000   1.0000   1.0000   1.0000   1.0000   1.0000   1.0000   1.0000
     1.0000   1.0000   1.0000   1.0000   1.0000   1.0000   1.0000   1.0000
     1.0000   1.0000   1.0000   1.0000   1.0000   1.0000   1.0000   1.0000
     1.0000   1.0000   1.0000   1.0000   1.0000   1.0000   1.0000   1.0000
     1.0000   1.0000   1.0000   1.0000   1.0000   1.0000   1.0000   1.0000
     1.0000   1.0000   1.0000   1.0000   1.0000   1.0000   1.0000   1.0000
     1.0000   1.0000   1.0000   1.0000   1.0000   1.0000   1.0000   1.0000
     1.0000   1.0000   1.0000   1.0000   1.0000   1.0000   1.0000   1.0000
     1.0000   1.0000   1.0000   1.0000   1.0000   1.0000   1.0000   1.0000
     1.0000   1.0000   1.0000   1.0000   1.0000   1.0000   1.0000   1.0000
     1.0000   1.0000   1.0000   1.0000   1.0000   1.0000   1.0000   1.0000
     1.0000   1.0000   1.0000   1.0000   1.0000   1.0000   1.0000   1.0000
     1.0000   1.0000   1.0000   1.0000   1.0000   1.0000   1.0000   1.0000
     1.0000   1.0000   1.0000   1.0000   1.0000   1.0000   1.0000   1.0000
     1.0000   1.0000   1.0000   1.0000   1.0000   1.0000   1.0000   1.0000
     1.0000   1.0000   1.0000   1.0000   1.0000   1.0000   1.0000   1.0000
     1.0000   1.0000   1.0000   1.0000   1.0000   1.0000   1.0000   1.0000
     1.0000   1.0000   0.0000

          k =-0.4000 0.2309 0.0000 (112236 PWs)   bands (ev):

   -73.8145 -73.8106 -73.8076 -73.8056 -73.8029 -73.8025 -73.7991 -73.7969
   -73.7947 -73.7899 -73.7888 -73.7871 -73.7831 -73.7422 -73.7326 -73.7296
   -38.2011 -38.1985 -38.1851 -38.1799 -38.1732 -38.1576 -38.1554 -38.1394
   -38.1239 -38.1179 -38.0982 -38.0943 -38.0576 -38.0514 -38.0435 -38.0350
   -38.0247 -38.0207 -38.0080 -38.0077 -38.0059 -38.0039 -38.0000 -37.9970
   -37.9946 -37.9919 -37.9909 -37.9893 -37.9858 -37.9823 -37.9771 -37.9749
   -37.9681 -37.9608 -37.9581 -37.9520 -37.9456 -37.9428 -37.9403 -37.9370
   -37.9295 -37.9237 -37.9178 -37.9099 -37.9006 -37.8857 -37.8782 -37.8639
   -21.3332 -15.4756 -14.4325 -14.2301 -13.8660 -13.8558 -13.2460 -13.2408
   -13.0205 -12.9943 -12.9726 -12.9084 -12.8307 -12.7295 -12.7017 -12.6833
   -12.5309 -12.5049 -12.4590 -12.4509 -12.4288 -12.4233 -12.3844 -12.3615
   -12.3510 -12.2809 -12.2195 -12.1976 -12.1748 -12.1598 -12.1538 -12.1509
   -12.0551 -12.0390  -7.8766  -7.4432  -6.1424  -6.1212  -6.0994  -6.0839
    -6.0187  -5.8717  -5.8527  -5.8333  -5.7073  -5.5258  -5.5070  -5.4815
    -5.4504  -5.4427  -5.4348  -5.3860  -5.3767  -5.3136  -5.3060  -5.0761
    -5.0542  -5.0208  -5.0040  -4.7987  -4.6000  -4.5453  -4.4727  -4.4368
    -4.4091  -4.3690  -4.3491  -4.3053  -4.2415  -4.2182  -4.1927  -4.1575
    -4.1190  -4.1104  -4.0985  -4.0726  -4.0655  -4.0492  -4.0384  -3.6829
    -3.5666  -3.5178  -3.4704  -3.4514  -3.4215  -3.3916  -3.3532  -3.3143
    -3.2898  -3.2769  -3.2563  -3.2390  -3.2110  -3.1929  -3.1424  -3.1128
    -3.0638  -3.0342  -3.0072  -2.9463  -2.9270  -2.8951  -2.8219  -2.7612
    -2.7172  -2.6981  -2.6509  -2.6250  -2.5912  -2.5753  -2.5504  -2.4783
    -2.4253  -2.4193  -2.3900  -2.3272  -2.2755  -2.2481  -2.2394  -2.1620
    -2.1172  -2.0940  -2.0487  -2.0258  -2.0066  -1.9877  -1.9514  -1.9178
    -1.9040  -1.8910  -1.8808  -1.8628  -1.8546  -1.8464  -1.8350  -1.8170
    -1.7802  -1.7500  -1.7111  -1.6864  -1.6824  -1.6567  -1.6420  -1.6077
    -1.5814  -1.5493  -1.4932  -1.4652  -1.4425  -1.3492  -1.3213  -1.2909
    -1.2597  -1.2082  -1.1692  -1.1236  -1.1140  -1.0971  -1.0689  -0.9829
    -0.9589  -0.8703  -0.7285  -0.7124  -0.6343  -0.6171  -0.4981  -0.4489
    -0.4415  -0.4195  -0.3987  -0.3685  -0.2869  -0.0926   0.0071   0.0382
     0.1486   1.3753   1.6884

     occupation numbers 
     1.0000   1.0000   1.0000   1.0000   1.0000   1.0000   1.0000   1.0000
     1.0000   1.0000   1.0000   1.0000   1.0000   1.0000   1.0000   1.0000
     1.0000   1.0000   1.0000   1.0000   1.0000   1.0000   1.0000   1.0000
     1.0000   1.0000   1.0000   1.0000   1.0000   1.0000   1.0000   1.0000
     1.0000   1.0000   1.0000   1.0000   1.0000   1.0000   1.0000   1.0000
     1.0000   1.0000   1.0000   1.0000   1.0000   1.0000   1.0000   1.0000
     1.0000   1.0000   1.0000   1.0000   1.0000   1.0000   1.0000   1.0000
     1.0000   1.0000   1.0000   1.0000   1.0000   1.0000   1.0000   1.0000
     1.0000   1.0000   1.0000   1.0000   1.0000   1.0000   1.0000   1.0000
     1.0000   1.0000   1.0000   1.0000   1.0000   1.0000   1.0000   1.0000
     1.0000   1.0000   1.0000   1.0000   1.0000   1.0000   1.0000   1.0000
     1.0000   1.0000   1.0000   1.0000   1.0000   1.0000   1.0000   1.0000
     1.0000   1.0000   1.0000   1.0000   1.0000   1.0000   1.0000   1.0000
     1.0000   1.0000   1.0000   1.0000   1.0000   1.0000   1.0000   1.0000
     1.0000   1.0000   1.0000   1.0000   1.0000   1.0000   1.0000   1.0000
     1.0000   1.0000   1.0000   1.0000   1.0000   1.0000   1.0000   1.0000
     1.0000   1.0000   1.0000   1.0000   1.0000   1.0000   1.0000   1.0000
     1.0000   1.0000   1.0000   1.0000   1.0000   1.0000   1.0000   1.0000
     1.0000   1.0000   1.0000   1.0000   1.0000   1.0000   1.0000   1.0000
     1.0000   1.0000   1.0000   1.0000   1.0000   1.0000   1.0000   1.0000
     1.0000   1.0000   1.0000   1.0000   1.0000   1.0000   1.0000   1.0000
     1.0000   1.0000   1.0000   1.0000   1.0000   1.0000   1.0000   1.0000
     1.0000   1.0000   1.0000   1.0000   1.0000   1.0000   1.0000   1.0000
     1.0000   1.0000   1.0000   1.0000   1.0000   1.0000   1.0000   1.0000
     1.0000   1.0000   1.0000   1.0000   1.0000   1.0000   1.0000   1.0000
     1.0000   1.0000   1.0000   1.0000   1.0000   1.0000   1.0000   1.0000
     1.0000   1.0000   1.0000   1.0000   1.0000   1.0000   1.0000   1.0000
     1.0000   1.0000   1.0000   1.0000   1.0000   1.0000   1.0000   1.0000
     1.0000   1.0000   1.0000   1.0000   1.0000   1.0000   1.0000   1.0000
     1.0000   1.0000   1.0000   1.0000   1.0000   1.0000   1.0000   1.0000
     1.0000   1.0000   0.0000

          k = 0.4000 0.2309 0.0000 (112236 PWs)   bands (ev):

   -73.8144 -73.8108 -73.8075 -73.8055 -73.8030 -73.8020 -73.7996 -73.7970
   -73.7945 -73.7900 -73.7887 -73.7872 -73.7830 -73.7422 -73.7326 -73.7296
   -38.1998 -38.1994 -38.1856 -38.1813 -38.1716 -38.1569 -38.1558 -38.1402
   -38.1233 -38.1177 -38.0992 -38.0946 -38.0561 -38.0527 -38.0434 -38.0352
   -38.0252 -38.0190 -38.0085 -38.0076 -38.0065 -38.0041 -38.0001 -37.9975
   -37.9928 -37.9923 -37.9906 -37.9883 -37.9869 -37.9825 -37.9771 -37.9746
   -37.9697 -37.9602 -37.9583 -37.9516 -37.9445 -37.9429 -37.9405 -37.9361
   -37.9283 -37.9246 -37.9186 -37.9109 -37.8986 -37.8867 -37.8816 -37.8614
   -21.3332 -15.4756 -14.4324 -14.2303 -13.8655 -13.8563 -13.2457 -13.2420
   -13.0174 -12.9939 -12.9747 -12.9077 -12.8313 -12.7272 -12.7036 -12.6842
   -12.5386 -12.4971 -12.4631 -12.4483 -12.4278 -12.4233 -12.3850 -12.3601
   -12.3487 -12.2808 -12.2265 -12.1956 -12.1766 -12.1588 -12.1540 -12.1483
   -12.0522 -12.0415  -7.8766  -7.4432  -6.1408  -6.1141  -6.1022  -6.0825
    -6.0314  -5.8645  -5.8527  -5.8302  -5.7119  -5.5275  -5.5061  -5.4843
    -5.4457  -5.4445  -5.4366  -5.3856  -5.3785  -5.3112  -5.3048  -5.0689
    -5.0655  -5.0191  -5.0083  -4.7718  -4.6094  -4.5539  -4.4791  -4.4468
    -4.4153  -4.3682  -4.3453  -4.3017  -4.2358  -4.2225  -4.1884  -4.1547
    -4.1225  -4.1128  -4.0995  -4.0740  -4.0609  -4.0470  -4.0396  -3.6714
    -3.5595  -3.5179  -3.4591  -3.4458  -3.4257  -3.3961  -3.3554  -3.3227
    -3.2877  -3.2760  -3.2506  -3.2338  -3.2158  -3.2006  -3.1318  -3.1135
    -3.0731  -3.0533  -3.0136  -2.9466  -2.9254  -2.8993  -2.8306  -2.7624
    -2.7163  -2.6798  -2.6370  -2.6163  -2.6096  -2.5949  -2.5077  -2.4915
    -2.4504  -2.4256  -2.3676  -2.3276  -2.2699  -2.2541  -2.2388  -2.1428
    -2.1135  -2.1007  -2.0339  -2.0059  -1.9970  -1.9784  -1.9692  -1.9531
    -1.9268  -1.8961  -1.8818  -1.8611  -1.8486  -1.8427  -1.8345  -1.8121
    -1.7960  -1.7457  -1.7171  -1.6989  -1.6867  -1.6345  -1.6227  -1.6162
    -1.5921  -1.5454  -1.5027  -1.4899  -1.4079  -1.3571  -1.3039  -1.2851
    -1.2478  -1.2294  -1.1869  -1.1315  -1.1149  -1.0557  -1.0490  -0.9935
    -0.9680  -0.8787  -0.7247  -0.7188  -0.6337  -0.6234  -0.5059  -0.4525
    -0.4436  -0.4169  -0.4012  -0.3571  -0.2815  -0.0934   0.0090   0.0344
     0.1511   1.3592   1.7089

     occupation numbers 
     1.0000   1.0000   1.0000   1.0000   1.0000   1.0000   1.0000   1.0000
     1.0000   1.0000   1.0000   1.0000   1.0000   1.0000   1.0000   1.0000
     1.0000   1.0000   1.0000   1.0000   1.0000   1.0000   1.0000   1.0000
     1.0000   1.0000   1.0000   1.0000   1.0000   1.0000   1.0000   1.0000
     1.0000   1.0000   1.0000   1.0000   1.0000   1.0000   1.0000   1.0000
     1.0000   1.0000   1.0000   1.0000   1.0000   1.0000   1.0000   1.0000
     1.0000   1.0000   1.0000   1.0000   1.0000   1.0000   1.0000   1.0000
     1.0000   1.0000   1.0000   1.0000   1.0000   1.0000   1.0000   1.0000
     1.0000   1.0000   1.0000   1.0000   1.0000   1.0000   1.0000   1.0000
     1.0000   1.0000   1.0000   1.0000   1.0000   1.0000   1.0000   1.0000
     1.0000   1.0000   1.0000   1.0000   1.0000   1.0000   1.0000   1.0000
     1.0000   1.0000   1.0000   1.0000   1.0000   1.0000   1.0000   1.0000
     1.0000   1.0000   1.0000   1.0000   1.0000   1.0000   1.0000   1.0000
     1.0000   1.0000   1.0000   1.0000   1.0000   1.0000   1.0000   1.0000
     1.0000   1.0000   1.0000   1.0000   1.0000   1.0000   1.0000   1.0000
     1.0000   1.0000   1.0000   1.0000   1.0000   1.0000   1.0000   1.0000
     1.0000   1.0000   1.0000   1.0000   1.0000   1.0000   1.0000   1.0000
     1.0000   1.0000   1.0000   1.0000   1.0000   1.0000   1.0000   1.0000
     1.0000   1.0000   1.0000   1.0000   1.0000   1.0000   1.0000   1.0000
     1.0000   1.0000   1.0000   1.0000   1.0000   1.0000   1.0000   1.0000
     1.0000   1.0000   1.0000   1.0000   1.0000   1.0000   1.0000   1.0000
     1.0000   1.0000   1.0000   1.0000   1.0000   1.0000   1.0000   1.0000
     1.0000   1.0000   1.0000   1.0000   1.0000   1.0000   1.0000   1.0000
     1.0000   1.0000   1.0000   1.0000   1.0000   1.0000   1.0000   1.0000
     1.0000   1.0000   1.0000   1.0000   1.0000   1.0000   1.0000   1.0000
     1.0000   1.0000   1.0000   1.0000   1.0000   1.0000   1.0000   1.0000
     1.0000   1.0000   1.0000   1.0000   1.0000   1.0000   1.0000   1.0000
     1.0000   1.0000   1.0000   1.0000   1.0000   1.0000   1.0000   1.0000
     1.0000   1.0000   1.0000   1.0000   1.0000   1.0000   1.0000   1.0000
     1.0000   1.0000   1.0000   1.0000   1.0000   1.0000   1.0000   1.0000
     1.0000   1.0000   0.0000

          k =-0.2000 0.3464 0.0000 (112231 PWs)   bands (ev):

   -73.8145 -73.8105 -73.8077 -73.8054 -73.8033 -73.8022 -73.7990 -73.7969
   -73.7949 -73.7898 -73.7888 -73.7871 -73.7831 -73.7422 -73.7326 -73.7296
   -38.2061 -38.1975 -38.1950 -38.1729 -38.1678 -38.1597 -38.1493 -38.1426
   -38.1268 -38.1187 -38.1032 -38.0704 -38.0553 -38.0489 -38.0443 -38.0323
   -38.0281 -38.0229 -38.0176 -38.0164 -38.0113 -38.0053 -37.9996 -37.9972
   -37.9939 -37.9894 -37.9876 -37.9851 -37.9835 -37.9792 -37.9772 -37.9761
   -37.9701 -37.9682 -37.9581 -37.9527 -37.9498 -37.9475 -37.9381 -37.9348
   -37.9275 -37.9209 -37.9178 -37.9122 -37.8953 -37.8889 -37.8734 -37.8641
   -21.3332 -15.4756 -14.4722 -14.0985 -14.0584 -13.5708 -13.5541 -13.1705
   -13.1177 -13.0061 -12.9320 -12.8049 -12.7881 -12.7029 -12.6713 -12.6159
   -12.5822 -12.5751 -12.5670 -12.4521 -12.4242 -12.3908 -12.3770 -12.3080
   -12.2903 -12.2718 -12.2496 -12.2252 -12.2219 -12.1549 -12.1482 -12.1068
   -12.0948 -12.0343  -7.8766  -7.4432  -6.1841  -6.1540  -6.1223  -6.1120
    -6.0987  -5.7582  -5.7308  -5.7131  -5.6945  -5.6235  -5.5992  -5.5575
    -5.5039  -5.4729  -5.3522  -5.3264  -5.2958  -5.2624  -5.2380  -5.2158
    -5.0942  -4.9093  -4.8904  -4.7918  -4.7540  -4.5982  -4.5050  -4.4390
    -4.3914  -4.3405  -4.3306  -4.3048  -4.2781  -4.2563  -4.2411  -4.2224
    -4.1606  -4.1261  -4.1077  -4.0908  -4.0515  -3.7676  -3.7350  -3.7241
    -3.7048  -3.6871  -3.6115  -3.5002  -3.4152  -3.3769  -3.3662  -3.3024
    -3.2842  -3.2383  -3.2242  -3.1981  -3.1603  -3.1443  -3.1119  -3.0797
    -3.0536  -3.0025  -2.9568  -2.9392  -2.9245  -2.9198  -2.9095  -2.8953
    -2.7768  -2.7235  -2.6878  -2.6665  -2.5992  -2.5499  -2.5143  -2.4686
    -2.4536  -2.4017  -2.3807  -2.3579  -2.3138  -2.2089  -2.1905  -2.1465
    -2.1246  -2.1174  -2.0994  -2.0677  -2.0229  -1.9780  -1.9656  -1.9289
    -1.9033  -1.8907  -1.8596  -1.8434  -1.8170  -1.8103  -1.7879  -1.7700
    -1.7357  -1.7066  -1.6900  -1.6687  -1.6419  -1.6257  -1.5802  -1.5775
    -1.5554  -1.5443  -1.5191  -1.4941  -1.4275  -1.3897  -1.3784  -1.3387
    -1.2752  -1.2394  -1.1894  -1.1687  -1.1516  -1.1112  -1.0389  -0.9862
    -0.8717  -0.8276  -0.6825  -0.6655  -0.6293  -0.6191  -0.6037  -0.5342
    -0.5300  -0.4103  -0.3786  -0.2523  -0.1995  -0.1909  -0.1456   0.0801
     0.1633   1.3370   1.7175

     occupation numbers 
     1.0000   1.0000   1.0000   1.0000   1.0000   1.0000   1.0000   1.0000
     1.0000   1.0000   1.0000   1.0000   1.0000   1.0000   1.0000   1.0000
     1.0000   1.0000   1.0000   1.0000   1.0000   1.0000   1.0000   1.0000
     1.0000   1.0000   1.0000   1.0000   1.0000   1.0000   1.0000   1.0000
     1.0000   1.0000   1.0000   1.0000   1.0000   1.0000   1.0000   1.0000
     1.0000   1.0000   1.0000   1.0000   1.0000   1.0000   1.0000   1.0000
     1.0000   1.0000   1.0000   1.0000   1.0000   1.0000   1.0000   1.0000
     1.0000   1.0000   1.0000   1.0000   1.0000   1.0000   1.0000   1.0000
     1.0000   1.0000   1.0000   1.0000   1.0000   1.0000   1.0000   1.0000
     1.0000   1.0000   1.0000   1.0000   1.0000   1.0000   1.0000   1.0000
     1.0000   1.0000   1.0000   1.0000   1.0000   1.0000   1.0000   1.0000
     1.0000   1.0000   1.0000   1.0000   1.0000   1.0000   1.0000   1.0000
     1.0000   1.0000   1.0000   1.0000   1.0000   1.0000   1.0000   1.0000
     1.0000   1.0000   1.0000   1.0000   1.0000   1.0000   1.0000   1.0000
     1.0000   1.0000   1.0000   1.0000   1.0000   1.0000   1.0000   1.0000
     1.0000   1.0000   1.0000   1.0000   1.0000   1.0000   1.0000   1.0000
     1.0000   1.0000   1.0000   1.0000   1.0000   1.0000   1.0000   1.0000
     1.0000   1.0000   1.0000   1.0000   1.0000   1.0000   1.0000   1.0000
     1.0000   1.0000   1.0000   1.0000   1.0000   1.0000   1.0000   1.0000
     1.0000   1.0000   1.0000   1.0000   1.0000   1.0000   1.0000   1.0000
     1.0000   1.0000   1.0000   1.0000   1.0000   1.0000   1.0000   1.0000
     1.0000   1.0000   1.0000   1.0000   1.0000   1.0000   1.0000   1.0000
     1.0000   1.0000   1.0000   1.0000   1.0000   1.0000   1.0000   1.0000
     1.0000   1.0000   1.0000   1.0000   1.0000   1.0000   1.0000   1.0000
     1.0000   1.0000   1.0000   1.0000   1.0000   1.0000   1.0000   1.0000
     1.0000   1.0000   1.0000   1.0000   1.0000   1.0000   1.0000   1.0000
     1.0000   1.0000   1.0000   1.0000   1.0000   1.0000   1.0000   1.0000
     1.0000   1.0000   1.0000   1.0000   1.0000   1.0000   1.0000   1.0000
     1.0000   1.0000   1.0000   1.0000   1.0000   1.0000   1.0000   1.0000
     1.0000   1.0000   1.0000   1.0000   1.0000   1.0000   1.0000   1.0000
     1.0000   1.0000   0.0000

          k = 0.4000-0.0000 0.0000 (112231 PWs)   bands (ev):

   -73.8145 -73.8107 -73.8075 -73.8056 -73.8029 -73.8024 -73.7994 -73.7970
   -73.7946 -73.7900 -73.7887 -73.7872 -73.7831 -73.7422 -73.7326 -73.7296
   -38.2062 -38.1971 -38.1954 -38.1727 -38.1689 -38.1595 -38.1491 -38.1417
   -38.1255 -38.1172 -38.1066 -38.0713 -38.0542 -38.0486 -38.0442 -38.0332
   -38.0267 -38.0235 -38.0184 -38.0164 -38.0113 -38.0063 -37.9999 -37.9955
   -37.9933 -37.9897 -37.9873 -37.9858 -37.9829 -37.9802 -37.9771 -37.9762
   -37.9696 -37.9665 -37.9587 -37.9532 -37.9508 -37.9466 -37.9380 -37.9362
   -37.9257 -37.9209 -37.9178 -37.9107 -37.8967 -37.8903 -37.8743 -37.8626
   -21.3332 -15.4756 -14.4722 -14.0963 -14.0606 -13.5643 -13.5612 -13.1667
   -13.1199 -13.0098 -12.9265 -12.8021 -12.7909 -12.7070 -12.6789 -12.6004
   -12.5966 -12.5725 -12.5580 -12.4545 -12.4206 -12.4092 -12.3626 -12.3062
   -12.2907 -12.2686 -12.2517 -12.2339 -12.2189 -12.1557 -12.1454 -12.1053
   -12.0956 -12.0347  -7.8766  -7.4432  -6.1753  -6.1605  -6.1214  -6.1121
    -6.1033  -5.7508  -5.7360  -5.7172  -5.6821  -5.6309  -5.6047  -5.5563
    -5.5017  -5.4703  -5.3484  -5.3317  -5.2870  -5.2683  -5.2402  -5.2248
    -5.0935  -4.8966  -4.8837  -4.8054  -4.7533  -4.5615  -4.5288  -4.4540
    -4.4039  -4.3425  -4.3346  -4.3080  -4.2729  -4.2609  -4.2387  -4.2058
    -4.1718  -4.1147  -4.1065  -4.0871  -4.0510  -3.7579  -3.7297  -3.7229
    -3.7032  -3.6937  -3.6208  -3.4817  -3.4242  -3.3924  -3.3659  -3.3132
    -3.2810  -3.2411  -3.2281  -3.1976  -3.1699  -3.1397  -3.1195  -3.0763
    -3.0329  -2.9868  -2.9632  -2.9444  -2.9358  -2.9135  -2.8979  -2.8897
    -2.7643  -2.7394  -2.6895  -2.6403  -2.6108  -2.5717  -2.5288  -2.4629
    -2.4582  -2.4108  -2.3800  -2.3361  -2.3131  -2.2152  -2.1744  -2.1463
    -2.1225  -2.1180  -2.0980  -2.0845  -1.9955  -1.9787  -1.9650  -1.9323
    -1.9168  -1.8914  -1.8688  -1.8556  -1.8391  -1.8137  -1.7796  -1.7581
    -1.7334  -1.7033  -1.6829  -1.6662  -1.6450  -1.6182  -1.5873  -1.5675
    -1.5488  -1.5391  -1.5199  -1.4932  -1.4411  -1.4035  -1.3588  -1.3308
    -1.2780  -1.2534  -1.1943  -1.1723  -1.1471  -1.0994  -1.0409  -0.9851
    -0.8612  -0.8417  -0.6769  -0.6679  -0.6294  -0.6156  -0.6076  -0.5337
    -0.5289  -0.4283  -0.3721  -0.2451  -0.2003  -0.1862  -0.1485   0.0777
     0.1629   1.3672   1.6848

     occupation numbers 
     1.0000   1.0000   1.0000   1.0000   1.0000   1.0000   1.0000   1.0000
     1.0000   1.0000   1.0000   1.0000   1.0000   1.0000   1.0000   1.0000
     1.0000   1.0000   1.0000   1.0000   1.0000   1.0000   1.0000   1.0000
     1.0000   1.0000   1.0000   1.0000   1.0000   1.0000   1.0000   1.0000
     1.0000   1.0000   1.0000   1.0000   1.0000   1.0000   1.0000   1.0000
     1.0000   1.0000   1.0000   1.0000   1.0000   1.0000   1.0000   1.0000
     1.0000   1.0000   1.0000   1.0000   1.0000   1.0000   1.0000   1.0000
     1.0000   1.0000   1.0000   1.0000   1.0000   1.0000   1.0000   1.0000
     1.0000   1.0000   1.0000   1.0000   1.0000   1.0000   1.0000   1.0000
     1.0000   1.0000   1.0000   1.0000   1.0000   1.0000   1.0000   1.0000
     1.0000   1.0000   1.0000   1.0000   1.0000   1.0000   1.0000   1.0000
     1.0000   1.0000   1.0000   1.0000   1.0000   1.0000   1.0000   1.0000
     1.0000   1.0000   1.0000   1.0000   1.0000   1.0000   1.0000   1.0000
     1.0000   1.0000   1.0000   1.0000   1.0000   1.0000   1.0000   1.0000
     1.0000   1.0000   1.0000   1.0000   1.0000   1.0000   1.0000   1.0000
     1.0000   1.0000   1.0000   1.0000   1.0000   1.0000   1.0000   1.0000
     1.0000   1.0000   1.0000   1.0000   1.0000   1.0000   1.0000   1.0000
     1.0000   1.0000   1.0000   1.0000   1.0000   1.0000   1.0000   1.0000
     1.0000   1.0000   1.0000   1.0000   1.0000   1.0000   1.0000   1.0000
     1.0000   1.0000   1.0000   1.0000   1.0000   1.0000   1.0000   1.0000
     1.0000   1.0000   1.0000   1.0000   1.0000   1.0000   1.0000   1.0000
     1.0000   1.0000   1.0000   1.0000   1.0000   1.0000   1.0000   1.0000
     1.0000   1.0000   1.0000   1.0000   1.0000   1.0000   1.0000   1.0000
     1.0000   1.0000   1.0000   1.0000   1.0000   1.0000   1.0000   1.0000
     1.0000   1.0000   1.0000   1.0000   1.0000   1.0000   1.0000   1.0000
     1.0000   1.0000   1.0000   1.0000   1.0000   1.0000   1.0000   1.0000
     1.0000   1.0000   1.0000   1.0000   1.0000   1.0000   1.0000   1.0000
     1.0000   1.0000   1.0000   1.0000   1.0000   1.0000   1.0000   1.0000
     1.0000   1.0000   1.0000   1.0000   1.0000   1.0000   1.0000   1.0000
     1.0000   1.0000   1.0000   1.0000   1.0000   1.0000   1.0000   1.0000
     1.0000   1.0000   0.0000

          k =-0.4000 0.4619 0.0000 (112237 PWs)   bands (ev):

   -73.8144 -73.8107 -73.8077 -73.8055 -73.8030 -73.8023 -73.7991 -73.7970
   -73.7947 -73.7899 -73.7887 -73.7871 -73.7831 -73.7422 -73.7326 -73.7296
   -38.1965 -38.1905 -38.1806 -38.1781 -38.1704 -38.1665 -38.1585 -38.1436
   -38.1398 -38.1237 -38.0873 -38.0841 -38.0782 -38.0452 -38.0417 -38.0360
   -38.0288 -38.0250 -38.0164 -38.0082 -38.0056 -38.0008 -37.9987 -37.9966
   -37.9947 -37.9936 -37.9902 -37.9857 -37.9824 -37.9771 -37.9698 -37.9664
   -37.9609 -37.9561 -37.9533 -37.9517 -37.9501 -37.9433 -37.9388 -37.9370
   -37.9312 -37.9246 -37.9202 -37.9168 -37.9062 -37.8877 -37.8750 -37.8672
   -21.3332 -15.4756 -14.3341 -14.2879 -14.1129 -13.5933 -13.2947 -13.2918
   -12.9559 -12.9455 -12.8829 -12.8543 -12.8252 -12.7996 -12.7943 -12.6614
   -12.6323 -12.5938 -12.4911 -12.4814 -12.3847 -12.3724 -12.3447 -12.3233
   -12.3085 -12.2965 -12.2587 -12.2332 -12.2280 -12.1317 -12.1187 -12.1130
   -12.0785 -12.0153  -7.8766  -7.4432  -6.1320  -6.0442  -6.0124  -5.9657
    -5.9105  -5.8865  -5.8732  -5.8546  -5.8057  -5.7412  -5.6823  -5.6215
    -5.6061  -5.5382  -5.3543  -5.2787  -5.2432  -5.2127  -5.1970  -5.1646
    -5.1533  -4.8490  -4.8284  -4.7379  -4.6166  -4.5808  -4.5390  -4.5181
    -4.4850  -4.4197  -4.3778  -4.3199  -4.3027  -4.2383  -4.2235  -4.2040
    -4.1893  -4.1598  -4.1179  -4.0912  -3.9521  -3.9442  -3.7864  -3.6645
    -3.6210  -3.5839  -3.4229  -3.3878  -3.3513  -3.3181  -3.3005  -3.2752
    -3.2722  -3.2619  -3.2383  -3.2264  -3.2165  -3.2083  -3.1407  -3.1167
    -3.0910  -3.0746  -3.0543  -3.0364  -2.9821  -2.9197  -2.8375  -2.8001
    -2.7307  -2.7035  -2.6865  -2.6631  -2.6074  -2.5874  -2.4866  -2.4073
    -2.3900  -2.3206  -2.3163  -2.3103  -2.2594  -2.1806  -2.1661  -2.1511
    -2.1290  -2.0836  -2.0695  -2.0400  -2.0180  -1.9647  -1.9515  -1.9353
    -1.9225  -1.9092  -1.8857  -1.8714  -1.8584  -1.8476  -1.8403  -1.8331
    -1.8068  -1.7846  -1.7531  -1.7194  -1.6940  -1.6805  -1.6560  -1.6397
    -1.6133  -1.5724  -1.5206  -1.4950  -1.4745  -1.4528  -1.4036  -1.3014
    -1.2675  -1.2271  -1.1595  -1.1096  -1.0881  -1.0707  -1.0352  -0.9567
    -0.8088  -0.7810  -0.6949  -0.6841  -0.6503  -0.6373  -0.5941  -0.5749
    -0.5581  -0.3939  -0.2723  -0.2675  -0.1691  -0.1130  -0.0703   0.1210
     0.1946   1.3750   1.6991

     occupation numbers 
     1.0000   1.0000   1.0000   1.0000   1.0000   1.0000   1.0000   1.0000
     1.0000   1.0000   1.0000   1.0000   1.0000   1.0000   1.0000   1.0000
     1.0000   1.0000   1.0000   1.0000   1.0000   1.0000   1.0000   1.0000
     1.0000   1.0000   1.0000   1.0000   1.0000   1.0000   1.0000   1.0000
     1.0000   1.0000   1.0000   1.0000   1.0000   1.0000   1.0000   1.0000
     1.0000   1.0000   1.0000   1.0000   1.0000   1.0000   1.0000   1.0000
     1.0000   1.0000   1.0000   1.0000   1.0000   1.0000   1.0000   1.0000
     1.0000   1.0000   1.0000   1.0000   1.0000   1.0000   1.0000   1.0000
     1.0000   1.0000   1.0000   1.0000   1.0000   1.0000   1.0000   1.0000
     1.0000   1.0000   1.0000   1.0000   1.0000   1.0000   1.0000   1.0000
     1.0000   1.0000   1.0000   1.0000   1.0000   1.0000   1.0000   1.0000
     1.0000   1.0000   1.0000   1.0000   1.0000   1.0000   1.0000   1.0000
     1.0000   1.0000   1.0000   1.0000   1.0000   1.0000   1.0000   1.0000
     1.0000   1.0000   1.0000   1.0000   1.0000   1.0000   1.0000   1.0000
     1.0000   1.0000   1.0000   1.0000   1.0000   1.0000   1.0000   1.0000
     1.0000   1.0000   1.0000   1.0000   1.0000   1.0000   1.0000   1.0000
     1.0000   1.0000   1.0000   1.0000   1.0000   1.0000   1.0000   1.0000
     1.0000   1.0000   1.0000   1.0000   1.0000   1.0000   1.0000   1.0000
     1.0000   1.0000   1.0000   1.0000   1.0000   1.0000   1.0000   1.0000
     1.0000   1.0000   1.0000   1.0000   1.0000   1.0000   1.0000   1.0000
     1.0000   1.0000   1.0000   1.0000   1.0000   1.0000   1.0000   1.0000
     1.0000   1.0000   1.0000   1.0000   1.0000   1.0000   1.0000   1.0000
     1.0000   1.0000   1.0000   1.0000   1.0000   1.0000   1.0000   1.0000
     1.0000   1.0000   1.0000   1.0000   1.0000   1.0000   1.0000   1.0000
     1.0000   1.0000   1.0000   1.0000   1.0000   1.0000   1.0000   1.0000
     1.0000   1.0000   1.0000   1.0000   1.0000   1.0000   1.0000   1.0000
     1.0000   1.0000   1.0000   1.0000   1.0000   1.0000   1.0000   1.0000
     1.0000   1.0000   1.0000   1.0000   1.0000   1.0000   1.0000   1.0000
     1.0000   1.0000   1.0000   1.0000   1.0000   1.0000   1.0000   1.0000
     1.0000   1.0000   1.0000   1.0000   1.0000   1.0000   1.0000   1.0000
     1.0000   1.0000   0.0000

          k = 0.6000 0.1155 0.0000 (112237 PWs)   bands (ev):

   -73.8144 -73.8108 -73.8076 -73.8055 -73.8031 -73.8020 -73.7994 -73.7970
   -73.7946 -73.7900 -73.7887 -73.7872 -73.7830 -73.7422 -73.7326 -73.7296
   -38.1956 -38.1912 -38.1814 -38.1782 -38.1699 -38.1661 -38.1583 -38.1436
   -38.1403 -38.1233 -38.0872 -38.0846 -38.0787 -38.0439 -38.0418 -38.0363
   -38.0287 -38.0254 -38.0154 -38.0087 -38.0062 -38.0004 -37.9991 -37.9972
   -37.9948 -37.9923 -37.9901 -37.9861 -37.9824 -37.9771 -37.9699 -37.9659
   -37.9622 -37.9559 -37.9532 -37.9519 -37.9494 -37.9439 -37.9384 -37.9357
   -37.9302 -37.9251 -37.9201 -37.9182 -37.9057 -37.8885 -37.8773 -37.8648
   -21.3332 -15.4756 -14.3336 -14.2885 -14.1128 -13.5933 -13.3021 -13.2843
   -12.9624 -12.9387 -12.8780 -12.8581 -12.8253 -12.7997 -12.7951 -12.6644
   -12.6309 -12.5920 -12.5012 -12.4709 -12.3916 -12.3686 -12.3409 -12.3195
   -12.3088 -12.2986 -12.2621 -12.2336 -12.2289 -12.1296 -12.1194 -12.1134
   -12.0780 -12.0155  -7.8766  -7.4432  -6.1320  -6.0407  -6.0091  -5.9638
    -5.9211  -5.9032  -5.8740  -5.8317  -5.8045  -5.7462  -5.6844  -5.6191
    -5.6084  -5.5345  -5.3527  -5.2759  -5.2517  -5.2199  -5.1938  -5.1675
    -5.1445  -4.8513  -4.8350  -4.6879  -4.6409  -4.6028  -4.5457  -4.5091
    -4.4855  -4.4299  -4.3776  -4.3173  -4.2952  -4.2385  -4.2287  -4.1952
    -4.1864  -4.1638  -4.1173  -4.0931  -3.9539  -3.9433  -3.7831  -3.6620
    -3.6232  -3.5756  -3.4247  -3.3639  -3.3546  -3.3281  -3.2929  -3.2824
    -3.2790  -3.2562  -3.2405  -3.2289  -3.2167  -3.1968  -3.1713  -3.1366
    -3.0822  -3.0735  -3.0504  -3.0148  -2.9863  -2.9309  -2.8349  -2.7977
    -2.7361  -2.7166  -2.6912  -2.6373  -2.6179  -2.5516  -2.4985  -2.4511
    -2.3852  -2.3269  -2.3115  -2.2898  -2.2405  -2.1923  -2.1682  -2.1377
    -2.1138  -2.0942  -2.0713  -2.0311  -2.0067  -1.9740  -1.9583  -1.9458
    -1.9264  -1.8969  -1.8924  -1.8752  -1.8646  -1.8557  -1.8484  -1.8333
    -1.7998  -1.7874  -1.7468  -1.7238  -1.6922  -1.6817  -1.6495  -1.6303
    -1.6130  -1.5931  -1.5248  -1.5116  -1.4658  -1.4258  -1.3891  -1.3132
    -1.2763  -1.2193  -1.1533  -1.1316  -1.0931  -1.0479  -1.0135  -0.9758
    -0.8055  -0.7850  -0.6914  -0.6890  -0.6508  -0.6449  -0.5935  -0.5872
    -0.5440  -0.3953  -0.2749  -0.2611  -0.1668  -0.1163  -0.0695   0.1214
     0.1951   1.3653   1.7110

     occupation numbers 
     1.0000   1.0000   1.0000   1.0000   1.0000   1.0000   1.0000   1.0000
     1.0000   1.0000   1.0000   1.0000   1.0000   1.0000   1.0000   1.0000
     1.0000   1.0000   1.0000   1.0000   1.0000   1.0000   1.0000   1.0000
     1.0000   1.0000   1.0000   1.0000   1.0000   1.0000   1.0000   1.0000
     1.0000   1.0000   1.0000   1.0000   1.0000   1.0000   1.0000   1.0000
     1.0000   1.0000   1.0000   1.0000   1.0000   1.0000   1.0000   1.0000
     1.0000   1.0000   1.0000   1.0000   1.0000   1.0000   1.0000   1.0000
     1.0000   1.0000   1.0000   1.0000   1.0000   1.0000   1.0000   1.0000
     1.0000   1.0000   1.0000   1.0000   1.0000   1.0000   1.0000   1.0000
     1.0000   1.0000   1.0000   1.0000   1.0000   1.0000   1.0000   1.0000
     1.0000   1.0000   1.0000   1.0000   1.0000   1.0000   1.0000   1.0000
     1.0000   1.0000   1.0000   1.0000   1.0000   1.0000   1.0000   1.0000
     1.0000   1.0000   1.0000   1.0000   1.0000   1.0000   1.0000   1.0000
     1.0000   1.0000   1.0000   1.0000   1.0000   1.0000   1.0000   1.0000
     1.0000   1.0000   1.0000   1.0000   1.0000   1.0000   1.0000   1.0000
     1.0000   1.0000   1.0000   1.0000   1.0000   1.0000   1.0000   1.0000
     1.0000   1.0000   1.0000   1.0000   1.0000   1.0000   1.0000   1.0000
     1.0000   1.0000   1.0000   1.0000   1.0000   1.0000   1.0000   1.0000
     1.0000   1.0000   1.0000   1.0000   1.0000   1.0000   1.0000   1.0000
     1.0000   1.0000   1.0000   1.0000   1.0000   1.0000   1.0000   1.0000
     1.0000   1.0000   1.0000   1.0000   1.0000   1.0000   1.0000   1.0000
     1.0000   1.0000   1.0000   1.0000   1.0000   1.0000   1.0000   1.0000
     1.0000   1.0000   1.0000   1.0000   1.0000   1.0000   1.0000   1.0000
     1.0000   1.0000   1.0000   1.0000   1.0000   1.0000   1.0000   1.0000
     1.0000   1.0000   1.0000   1.0000   1.0000   1.0000   1.0000   1.0000
     1.0000   1.0000   1.0000   1.0000   1.0000   1.0000   1.0000   1.0000
     1.0000   1.0000   1.0000   1.0000   1.0000   1.0000   1.0000   1.0000
     1.0000   1.0000   1.0000   1.0000   1.0000   1.0000   1.0000   1.0000
     1.0000   1.0000   1.0000   1.0000   1.0000   1.0000   1.0000   1.0000
     1.0000   1.0000   1.0000   1.0000   1.0000   1.0000   1.0000   1.0000
     1.0000   1.0000   0.0000

     highest occupied, lowest unoccupied level (ev):     1.6167    1.6753

!    total energy              =  -16138.55516726 Ry
     total all-electron energy =   -595550.628373 Ry
     estimated scf accuracy    <          5.4E-11 Ry

     The total energy is the sum of the following terms:
     one-electron contribution =  -18310.87405038 Ry
     hartree contribution      =    9259.21314122 Ry
     xc contribution           =    -931.71809569 Ry
     ewald contribution        =    6414.81429198 Ry
     DFT-D3 Dispersion         =      -0.65559832 Ry
     one-center paw contrib.   =  -12569.33485606 Ry
      -> PAW hartree energy AE =      92.00285104 Ry
      -> PAW hartree energy PS =     -91.51079710 Ry
      -> PAW xc energy AE      =    -644.66491560 Ry
      -> PAW xc energy PS      =      38.62151659 Ry
      -> total E_H with PAW    =    9259.70519516 Ry
      -> total E_XC with PAW   =   -1537.76149471 Ry

     total magnetization       =     1.00 Bohr mag/cell
     absolute magnetization    =     1.12 Bohr mag/cell

     convergence has been achieved in  33 iterations

     negative rho (up, down):  4.794E-03 5.162E-03

     Forces acting on atoms (cartesian axes, Ry/au):

     atom    1 type  2   force =    -0.00000278   -0.00008693   -0.00015209
     atom    2 type  2   force =    -0.00019156    0.00002028    0.00012849
     atom    3 type  2   force =    -0.00025723   -0.00016915    0.00002689
     atom    4 type  2   force =     0.00027461    0.00027954    0.00006154
     atom    5 type  2   force =    -0.00001695   -0.00023118   -0.00001755
     atom    6 type  2   force =    -0.00000913    0.00008081    0.00000197
     atom    7 type  2   force =     0.00007601   -0.00002881    0.00005841
     atom    8 type  2   force =     0.00013295    0.00007584    0.00007022
     atom    9 type  2   force =    -0.00021352   -0.00007460    0.00007583
     atom   10 type  2   force =     0.00007850    0.00008131    0.00009438
     atom   11 type  2   force =    -0.00008594    0.00020725    0.00005763
     atom   12 type  2   force =    -0.00000708    0.00006071   -0.00013555
     atom   13 type  2   force =    -0.00013440    0.00015830    0.00008454
     atom   14 type  2   force =     0.00011823    0.00000586   -0.00000755
     atom   15 type  2   force =     0.00001589   -0.00014798   -0.00011795
     atom   16 type  2   force =    -0.00024334   -0.00015785   -0.00005273
     atom   17 type  1   force =    -0.00008623    0.00017340   -0.00002055
     atom   18 type  1   force =    -0.00006032   -0.00018621   -0.00005780
     atom   19 type  1   force =    -0.00010718    0.00010846   -0.00003206
     atom   20 type  1   force =     0.00012397   -0.00001851   -0.00007615
     atom   21 type  1   force =    -0.00009002    0.00000653    0.00005448
     atom   22 type  1   force =    -0.00002691   -0.00001048   -0.00036248
     atom   23 type  1   force =    -0.00007574    0.00001704    0.00000222
     atom   24 type  1   force =     0.00012124    0.00000306    0.00002296
     atom   25 type  1   force =    -0.00001731   -0.00003998    0.00001452
     atom   26 type  1   force =     0.00005006   -0.00007381   -0.00008602
     atom   27 type  1   force =     0.00011221    0.00006800   -0.00001372
     atom   28 type  1   force =    -0.00028410    0.00004247   -0.00037293
     atom   29 type  1   force =    -0.00002118   -0.00012678   -0.00012509
     atom   30 type  1   force =    -0.00007598   -0.00000612    0.00007868
     atom   31 type  1   force =    -0.00022054   -0.00006648   -0.00003698
     atom   32 type  1   force =     0.00026077    0.00008117   -0.00017939
     atom   33 type  1   force =     0.00002647    0.00005016   -0.00015551
     atom   34 type  1   force =     0.00001173    0.00006439    0.00004124
     atom   35 type  1   force =     0.00002207    0.00000141   -0.00003526
     atom   36 type  1   force =    -0.00003692   -0.00004485    0.00004536
     atom   37 type  1   force =    -0.00011587    0.00001523   -0.00012478
     atom   38 type  1   force =     0.00008659   -0.00015925    0.00000825
     atom   39 type  1   force =     0.00014874    0.00003055    0.00001916
     atom   40 type  1   force =     0.00011002   -0.00003379    0.00007025
     atom   41 type  1   force =    -0.00011562    0.00005078    0.00006518
     atom   42 type  1   force =     0.00004387    0.00005920    0.00000371
     atom   43 type  1   force =    -0.00025560    0.00000779    0.00015519
     atom   44 type  1   force =    -0.00007573    0.00009435   -0.00037369
     atom   45 type  1   force =    -0.00009811   -0.00004401    0.00005260
     atom   46 type  1   force =     0.00000978    0.00004013   -0.00015235
     atom   47 type  1   force =    -0.00004428   -0.00017209   -0.00015216
     atom   48 type  1   force =    -0.00002722    0.00004891    0.00015863
     atom   49 type  3   force =     0.00103887    0.00002959   -0.00042798
     atom   50 type  3   force =    -0.00036268   -0.00077649    0.00055060
     atom   51 type  3   force =    -0.00036331   -0.00009693   -0.00006077
     atom   52 type  3   force =     0.00040493    0.00033576    0.00052325
     atom   53 type  3   force =    -0.00082856    0.00024982    0.00039295
     atom   54 type  4   force =    -0.01287505   -0.00141646   -0.00163378
     atom   55 type  5   force =     0.02049458    0.00216608    0.00427798
     atom   56 type  6   force =    -0.00146117    0.00006118   -0.00041413
     atom   57 type  6   force =    -0.00248106    0.00005385   -0.00202774
     atom   58 type  6   force =    -0.00239345   -0.00066043    0.00020764
     The non-local contrib.  to forces
     atom    1 type  2   force =    -0.00047658    0.00023358   -0.00009677
     atom    2 type  2   force =     0.00035029   -0.00014749   -0.00019652
     atom    3 type  2   force =    -0.00391622   -0.00386561    0.00605634
     atom    4 type  2   force =    -0.00237103   -0.00005533    0.00310370
     atom    5 type  2   force =    -0.00054852    0.00926057    0.00835297
     atom    6 type  2   force =     0.00406128   -0.00044825    0.01269540
     atom    7 type  2   force =     0.00359263   -0.00281433    0.00570175
     atom    8 type  2   force =     0.00047904    0.00022105    0.00051675
     atom    9 type  2   force =     0.00018712    0.00104142    0.00332362
     atom   10 type  2   force =    -0.00362573    0.00166633    0.01381954
     atom   11 type  2   force =    -0.00039193   -0.00031303    0.01551593
     atom   12 type  2   force =     0.00588857   -0.00340632    0.00756464
     atom   13 type  2   force =    -0.00013756    0.00028898   -0.00031540
     atom   14 type  2   force =     0.00074649    0.00162604    0.00308761
     atom   15 type  2   force =    -0.00071032   -0.00209783    0.00704560
     atom   16 type  2   force =    -0.00285614   -0.00023932    0.00573370
     atom   17 type  1   force =     0.00084332    0.00126049   -0.27572264
     atom   18 type  1   force =     0.00428986    0.00240545   -0.27658509
     atom   19 type  1   force =     0.00093998    0.00009727   -0.27535234
     atom   20 type  1   force =    -0.00088116   -0.00064132   -0.27641487
     atom   21 type  1   force =    -0.00026409    0.00141114   -0.27545710
     atom   22 type  1   force =     0.01181148    0.02363009   -0.15684033
     atom   23 type  1   force =    -0.00157208   -0.00214873   -0.18685959
     atom   24 type  1   force =     0.00274827   -0.00128614   -0.27541047
     atom   25 type  1   force =     0.00010670   -0.00085892   -0.27675014
     atom   26 type  1   force =     0.00289108    0.00946447   -0.25643107
     atom   27 type  1   force =     0.01801163    0.00620813   -0.22549500
     atom   28 type  1   force =     0.01933488   -0.01747574   -0.19311641
     atom   29 type  1   force =     0.00088294   -0.00184315   -0.27491789
     atom   30 type  1   force =    -0.00196687    0.00125371   -0.27604979
     atom   31 type  1   force =    -0.02383837   -0.01163331   -0.21271205
     atom   32 type  1   force =    -0.00973323   -0.00781130   -0.24419721
     atom   33 type  1   force =    -0.00022765    0.00030915    0.27623215
     atom   34 type  1   force =     0.00171790    0.00243644    0.27673869
     atom   35 type  1   force =     0.00154191   -0.00049339    0.27628775
     atom   36 type  1   force =    -0.00082739   -0.00082508    0.27581765
     atom   37 type  1   force =     0.00033383    0.00196924    0.27562152
     atom   38 type  1   force =     0.00295775    0.00259640    0.27715963
     atom   39 type  1   force =     0.00249519    0.00067473    0.27701926
     atom   40 type  1   force =     0.00205935   -0.00164612    0.27531000
     atom   41 type  1   force =     0.00021989    0.00048332    0.27665485
     atom   42 type  1   force =    -0.00264112    0.00245794    0.27561269
     atom   43 type  1   force =    -0.00194009   -0.00055605    0.27975766
     atom   44 type  1   force =     0.00087902   -0.00430248    0.27701538
     atom   45 type  1   force =    -0.00063782   -0.00172546    0.27610589
     atom   46 type  1   force =    -0.00124884   -0.00047801    0.27628356
     atom   47 type  1   force =    -0.00340934   -0.00009011    0.27528085
     atom   48 type  1   force =    -0.00234798   -0.00163323    0.27541557
     atom   49 type  3   force =    -0.18482135    0.03140913   -0.05936533
     atom   50 type  3   force =    -0.00792755   -0.13037333   -0.07495322
     atom   51 type  3   force =     0.19379170   -0.01613875   -0.09642321
     atom   52 type  3   force =     0.02062638    0.14049427   -0.09329151
     atom   53 type  3   force =     0.02006229    0.02839323    0.14957132
     atom   54 type  4   force =    -0.84562073   -0.27223289    0.94154874
     atom   55 type  5   force =     1.85946554    0.52715939   -1.51600165
     atom   56 type  6   force =    -0.00673840   -0.07207777   -0.06509866
     atom   57 type  6   force =     0.00938055   -0.01502777    0.09982465
     atom   58 type  6   force =    -0.02974844    0.08337448   -0.04091665
     The ionic contribution  to forces
     atom    1 type  2   force =    -0.93907089   -0.19600925   -8.51256388
     atom    2 type  2   force =    -0.97129361   -1.15723502   -8.88090420
     atom    3 type  2   force =     1.92155697    0.65036054   -9.44021102
     atom    4 type  2   force =     1.76629096    1.72469159   -9.24153106
     atom    5 type  2   force =    -0.75995027   -3.39361769  -10.32524161
     atom    6 type  2   force =    -3.93294641   -3.11189076  -14.38153298
     atom    7 type  2   force =    -3.78862754    1.11563069  -12.06386766
     atom    8 type  2   force =    -0.45966499    0.22311274   -8.34438852
     atom    9 type  2   force =     1.12806346   -2.55009653  -10.29890558
     atom   10 type  2   force =     1.18903375   -3.57182094  -19.43074082
     atom   11 type  2   force =    -2.00061721    2.17430127  -20.50159782
     atom   12 type  2   force =    -1.90128425    2.98578849  -10.56671085
     atom   13 type  2   force =     0.52944251    0.57617894   -8.42004574
     atom   14 type  2   force =     3.83140528   -2.05742601  -11.86137852
     atom   15 type  2   force =     3.84665352    1.90193385  -17.31763718
     atom   16 type  2   force =     0.57170075    4.70712247  -12.98712368
     atom   17 type  1   force =    -0.13995502   -0.66153915   32.26070652
     atom   18 type  1   force =    -2.24079245   -1.69688417   31.29243049
     atom   19 type  1   force =    -1.12811788    0.05283421   31.69745276
     atom   20 type  1   force =     1.01112416    0.86422168   32.41859641
     atom   21 type  1   force =     0.17391914   -1.94547202   32.03470681
     atom   22 type  1   force =    -2.23711380   -5.30461737   25.62225170
     atom   23 type  1   force =    -4.76006285    0.06298698   24.69044389
     atom   24 type  1   force =    -2.11294273    1.73161224   31.40454461
     atom   25 type  1   force =    -0.02614830    0.43247029   32.25585982
     atom   26 type  1   force =     2.91714514   -4.06795662   28.41185094
     atom   27 type  1   force =     1.27436494   -0.00863794   20.49486243
     atom   28 type  1   force =    -2.26234573    5.24372636   26.48562531
     atom   29 type  1   force =     0.01957608    1.75607838   32.08029174
     atom   30 type  1   force =     1.12810861   -0.96875711   32.14795140
     atom   31 type  1   force =     4.85797285    0.33656183   28.22811184
     atom   32 type  1   force =     3.17819599    3.98359949   28.83961012
     atom   33 type  1   force =    -0.05123098   -0.12671936  -39.08007282
     atom   34 type  1   force =    -0.56937506   -0.42794252  -39.19381122
     atom   35 type  1   force =    -0.28923339   -0.04253921  -39.24764346
     atom   36 type  1   force =     0.27290874    0.22250694  -39.08998863
     atom   37 type  1   force =    -0.01843338   -0.48713736  -39.20271562
     atom   38 type  1   force =    -0.41716358   -0.93184244  -40.31566424
     atom   39 type  1   force =    -0.90976084   -0.05707314  -40.68655847
     atom   40 type  1   force =    -0.52218080    0.40409535  -39.34404364
     atom   41 type  1   force =     0.05819780    0.12837155  -39.16754107
     atom   42 type  1   force =     0.64030975   -0.72197590  -40.20936941
     atom   43 type  1   force =     0.29420704    0.05130069  -41.17788054
     atom   44 type  1   force =    -0.25854496    0.97333963  -40.32981554
     atom   45 type  1   force =     0.01553441    0.50312315  -39.10193332
     atom   46 type  1   force =     0.32773883   -0.23275599  -39.01145993
     atom   47 type  1   force =     0.87974582   -0.02485059  -39.93816535
     atom   48 type  1   force =     0.55126781    0.76653829  -40.07734763
     atom   49 type  3   force =   -21.25551857    3.68288788   58.89373826
     atom   50 type  3   force =    -1.57815968  -20.68190568   58.09329225
     atom   51 type  3   force =    21.71267917   -2.58773106   61.20181911
     atom   52 type  3   force =     2.76347426   20.97701848   58.84882889
     atom   53 type  3   force =     7.89712439    2.05873282   63.40418507
     atom   54 type  4   force =     4.21321731   -0.01903341   20.53121201
     atom   55 type  5   force =   -13.16737429   -2.86465781   24.88334920
     atom   56 type  6   force =     0.53567233    2.64582541    5.37907961
     atom   57 type  6   force =    -2.17825657    0.17643534    1.33628366
     atom   58 type  6   force =     1.36953428   -3.21526254    4.81130719
     The local contribution  to forces
     atom    1 type  2   force =     0.93914465    0.19614942    8.51248887
     atom    2 type  2   force =     0.97079919    1.15688102    8.88098168
     atom    3 type  2   force =    -1.91823366   -0.64730448    9.43494591
     atom    4 type  2   force =    -1.76404382   -1.72423627    9.23880490
     atom    5 type  2   force =     0.76008502    3.38418921   10.31649717
     atom    6 type  2   force =     3.92814772    3.11095182   14.36645115
     atom    7 type  2   force =     3.78377163   -1.11251676   12.05651942
     atom    8 type  2   force =     0.45927262   -0.22335939    8.34433759
     atom    9 type  2   force =    -1.12821508    2.54848944   10.29514967
     atom   10 type  2   force =    -1.18520820    3.57066586   19.41402288
     atom   11 type  2   force =     2.00166436   -2.17359665   20.48124656
     atom   12 type  2   force =     1.89560250   -2.98218744   10.55875801
     atom   13 type  2   force =    -0.52921206   -0.57602639    8.42017897
     atom   14 type  2   force =    -3.83051569    2.05557018   11.85616548
     atom   15 type  2   force =    -3.84536838   -1.89978112   17.30592702
     atom   16 type  2   force =    -0.56920091   -4.70541851   12.97905293
     atom   17 type  1   force =     0.13899428    0.66021412  -31.98638626
     atom   18 type  1   force =     2.23580084    1.69379526  -31.01773637
     atom   19 type  1   force =     1.12677998   -0.05275858  -31.42375926
     atom   20 type  1   force =    -1.00975553   -0.86329433  -32.14365692
     atom   21 type  1   force =    -0.17364072    1.94345358  -31.76065629
     atom   22 type  1   force =     2.22520034    5.28024704  -25.46527864
     atom   23 type  1   force =     4.76017311   -0.06087600  -24.50326739
     atom   24 type  1   force =     2.10961976   -1.72976434  -31.13090232
     atom   25 type  1   force =     0.02591731   -0.43151427  -31.98048168
     atom   26 type  1   force =    -2.92015810    4.05890491  -28.15544859
     atom   27 type  1   force =    -1.29090781    0.00213081  -20.26775173
     atom   28 type  1   force =     2.24324649   -5.22558987  -26.29274584
     atom   29 type  1   force =    -0.02040970   -1.75384996  -31.80692752
     atom   30 type  1   force =    -1.12586240    0.96721168  -31.87328247
     atom   31 type  1   force =    -4.83441478   -0.32542797  -28.01494376
     atom   32 type  1   force =    -3.16896874   -3.97532896  -28.59578104
     atom   33 type  1   force =     0.05145217    0.12644946   38.80465839
     atom   34 type  1   force =     0.56767348    0.42562360   38.91811473
     atom   35 type  1   force =     0.28772261    0.04299871   38.97228559
     atom   36 type  1   force =    -0.27214695   -0.22176167   38.81519325
     atom   37 type  1   force =     0.01799582    0.48526266   38.92792792
     atom   38 type  1   force =     0.41427879    0.92906887   40.03928737
     atom   39 type  1   force =     0.90736461    0.05641953   40.41033149
     atom   40 type  1   force =     0.52032695   -0.40250787   39.06975040
     atom   41 type  1   force =    -0.05849324   -0.12877682   38.89193889
     atom   42 type  1   force =    -0.63759319    0.71958720   39.93456888
     atom   43 type  1   force =    -0.29253733   -0.05073299   40.89905527
     atom   44 type  1   force =     0.25759751   -0.96893965   40.05322680
     atom   45 type  1   force =    -0.01501304   -0.50145174   38.82686724
     atom   46 type  1   force =    -0.32651970    0.23325168   38.73602736
     atom   47 type  1   force =    -0.87641846    0.02473452   39.66352584
     atom   48 type  1   force =    -0.54894341   -0.76483913   39.80286693
     atom   49 type  3   force =    21.43798840   -3.71304951  -58.82384803
     atom   50 type  3   force =     1.58957986   20.81120680  -58.00859451
     atom   51 type  3   force =   -21.90358763    2.60233772  -61.09834392
     atom   52 type  3   force =    -2.78097377  -21.11500929  -58.74666076
     atom   53 type  3   force =    -7.91649461   -2.08591307  -63.54778098
     atom   54 type  4   force =    -3.39818989    0.28524807  -21.46118371
     atom   55 type  5   force =    11.34706671    2.34428677  -23.37389943
     atom   56 type  6   force =    -0.53045880   -2.57382070   -5.31460786
     atom   57 type  6   force =     2.16660824   -0.16121336   -1.43821822
     atom   58 type  6   force =    -1.34230485    3.13145248   -4.77032423
     The core correction contribution to forces
     atom    1 type  2   force =     0.00025907   -0.00049007   -0.00037515
     atom    2 type  2   force =    -0.00015658    0.00035625   -0.00024294
     atom    3 type  2   force =     0.00079535    0.00078189   -0.00149995
     atom    4 type  2   force =     0.00075017    0.00025926   -0.00095124
     atom    5 type  2   force =     0.00021095   -0.00077974   -0.00060694
     atom    6 type  2   force =    -0.00028714    0.00076874   -0.00009476
     atom    7 type  2   force =     0.00050817   -0.00013608    0.00031914
     atom    8 type  2   force =    -0.00002392    0.00012204   -0.00061767
     atom    9 type  2   force =     0.00000906   -0.00005494   -0.00027185
     atom   10 type  2   force =    -0.00007078   -0.00142448    0.00039487
     atom   11 type  2   force =    -0.00121087    0.00051025    0.00110231
     atom   12 type  2   force =    -0.00068070    0.00050239   -0.00079314
     atom   13 type  2   force =    -0.00018260   -0.00017960   -0.00006108
     atom   14 type  2   force =    -0.00063592   -0.00026240    0.00047303
     atom   15 type  2   force =     0.00047415    0.00032283    0.00113592
     atom   16 type  2   force =     0.00025978   -0.00056103    0.00045811
     atom   17 type  1   force =    -0.00005250   -0.00000698    0.00196490
     atom   18 type  1   force =    -0.00015894   -0.00008387    0.00203969
     atom   19 type  1   force =    -0.00004808   -0.00005484    0.00197266
     atom   20 type  1   force =    -0.00000406    0.00000147    0.00199030
     atom   21 type  1   force =    -0.00003869   -0.00003552    0.00197247
     atom   22 type  1   force =    -0.00009260   -0.00042099   -0.00039939
     atom   23 type  1   force =     0.00004381    0.00006938   -0.00003826
     atom   24 type  1   force =    -0.00006745    0.00004266    0.00198213
     atom   25 type  1   force =     0.00005177    0.00002244    0.00198623
     atom   26 type  1   force =    -0.00002222   -0.00024019    0.00142804
     atom   27 type  1   force =    -0.00045485   -0.00005954    0.00111587
     atom   28 type  1   force =    -0.00030165    0.00037924    0.00020097
     atom   29 type  1   force =    -0.00002098    0.00009986    0.00197933
     atom   30 type  1   force =     0.00007985   -0.00003682    0.00200952
     atom   31 type  1   force =     0.00051749    0.00026262    0.00063577
     atom   32 type  1   force =     0.00016304    0.00019440    0.00122998
     atom   33 type  1   force =     0.00001669   -0.00000378   -0.00193214
     atom   34 type  1   force =    -0.00003149   -0.00005390   -0.00198918
     atom   35 type  1   force =     0.00000248    0.00003607   -0.00193398
     atom   36 type  1   force =     0.00001910    0.00002505   -0.00191730
     atom   37 type  1   force =     0.00000513   -0.00004331   -0.00192648
     atom   38 type  1   force =     0.00001028    0.00001064   -0.00197460
     atom   39 type  1   force =     0.00002922    0.00002685   -0.00198024
     atom   40 type  1   force =    -0.00005832    0.00000913   -0.00192235
     atom   41 type  1   force =    -0.00003621   -0.00001290   -0.00194791
     atom   42 type  1   force =    -0.00002447   -0.00003833   -0.00193370
     atom   43 type  1   force =     0.00000317   -0.00001127   -0.00220896
     atom   44 type  1   force =    -0.00002554    0.00001949   -0.00198796
     atom   45 type  1   force =     0.00001195    0.00001601   -0.00195970
     atom   46 type  1   force =     0.00003336    0.00000920   -0.00196702
     atom   47 type  1   force =     0.00004931    0.00003145   -0.00190613
     atom   48 type  1   force =     0.00002353    0.00000548   -0.00189430
     atom   49 type  3   force =     0.00425345   -0.00133447   -0.00309835
     atom   50 type  3   force =    -0.00144606    0.00370187   -0.00370997
     atom   51 type  3   force =    -0.00464070    0.00092689   -0.00154014
     atom   52 type  3   force =    -0.00174912   -0.00489013   -0.00188265
     atom   53 type  3   force =    -0.00265812   -0.00113520   -0.00365438
     atom   54 type  4   force =     0.01760999    0.00452506   -0.01246787
     atom   55 type  5   force =    -0.01838312   -0.00468785    0.01184914
     atom   56 type  6   force =     0.00000000    0.00000000    0.00000000
     atom   57 type  6   force =     0.00000000    0.00000000    0.00000000
     atom   58 type  6   force =     0.00000000    0.00000000    0.00000000
     The Hubbard contrib.    to forces
     atom    1 type  2   force =     0.00000000    0.00000000    0.00000000
     atom    2 type  2   force =     0.00000000    0.00000000    0.00000000
     atom    3 type  2   force =     0.00000000    0.00000000    0.00000000
     atom    4 type  2   force =     0.00000000    0.00000000    0.00000000
     atom    5 type  2   force =     0.00000000    0.00000000    0.00000000
     atom    6 type  2   force =     0.00000000    0.00000000    0.00000000
     atom    7 type  2   force =     0.00000000    0.00000000    0.00000000
     atom    8 type  2   force =     0.00000000    0.00000000    0.00000000
     atom    9 type  2   force =     0.00000000    0.00000000    0.00000000
     atom   10 type  2   force =     0.00000000    0.00000000    0.00000000
     atom   11 type  2   force =     0.00000000    0.00000000    0.00000000
     atom   12 type  2   force =     0.00000000    0.00000000    0.00000000
     atom   13 type  2   force =     0.00000000    0.00000000    0.00000000
     atom   14 type  2   force =     0.00000000    0.00000000    0.00000000
     atom   15 type  2   force =     0.00000000    0.00000000    0.00000000
     atom   16 type  2   force =     0.00000000    0.00000000    0.00000000
     atom   17 type  1   force =     0.00000000    0.00000000    0.00000000
     atom   18 type  1   force =     0.00000000    0.00000000    0.00000000
     atom   19 type  1   force =     0.00000000    0.00000000    0.00000000
     atom   20 type  1   force =     0.00000000    0.00000000    0.00000000
     atom   21 type  1   force =     0.00000000    0.00000000    0.00000000
     atom   22 type  1   force =     0.00000000    0.00000000    0.00000000
     atom   23 type  1   force =     0.00000000    0.00000000    0.00000000
     atom   24 type  1   force =     0.00000000    0.00000000    0.00000000
     atom   25 type  1   force =     0.00000000    0.00000000    0.00000000
     atom   26 type  1   force =     0.00000000    0.00000000    0.00000000
     atom   27 type  1   force =     0.00000000    0.00000000    0.00000000
     atom   28 type  1   force =     0.00000000    0.00000000    0.00000000
     atom   29 type  1   force =     0.00000000    0.00000000    0.00000000
     atom   30 type  1   force =     0.00000000    0.00000000    0.00000000
     atom   31 type  1   force =     0.00000000    0.00000000    0.00000000
     atom   32 type  1   force =     0.00000000    0.00000000    0.00000000
     atom   33 type  1   force =     0.00000000    0.00000000    0.00000000
     atom   34 type  1   force =     0.00000000    0.00000000    0.00000000
     atom   35 type  1   force =     0.00000000    0.00000000    0.00000000
     atom   36 type  1   force =     0.00000000    0.00000000    0.00000000
     atom   37 type  1   force =     0.00000000    0.00000000    0.00000000
     atom   38 type  1   force =     0.00000000    0.00000000    0.00000000
     atom   39 type  1   force =     0.00000000    0.00000000    0.00000000
     atom   40 type  1   force =     0.00000000    0.00000000    0.00000000
     atom   41 type  1   force =     0.00000000    0.00000000    0.00000000
     atom   42 type  1   force =     0.00000000    0.00000000    0.00000000
     atom   43 type  1   force =     0.00000000    0.00000000    0.00000000
     atom   44 type  1   force =     0.00000000    0.00000000    0.00000000
     atom   45 type  1   force =     0.00000000    0.00000000    0.00000000
     atom   46 type  1   force =     0.00000000    0.00000000    0.00000000
     atom   47 type  1   force =     0.00000000    0.00000000    0.00000000
     atom   48 type  1   force =     0.00000000    0.00000000    0.00000000
     atom   49 type  3   force =     0.00000000    0.00000000    0.00000000
     atom   50 type  3   force =     0.00000000    0.00000000    0.00000000
     atom   51 type  3   force =     0.00000000    0.00000000    0.00000000
     atom   52 type  3   force =     0.00000000    0.00000000    0.00000000
     atom   53 type  3   force =     0.00000000    0.00000000    0.00000000
     atom   54 type  4   force =     0.00000000    0.00000000    0.00000000
     atom   55 type  5   force =     0.00000000    0.00000000    0.00000000
     atom   56 type  6   force =     0.00000000    0.00000000    0.00000000
     atom   57 type  6   force =     0.00000000    0.00000000    0.00000000
     atom   58 type  6   force =     0.00000000    0.00000000    0.00000000
     The SCF correction term to forces
     atom    1 type  2   force =     0.00000047   -0.00000108   -0.00000219
     atom    2 type  2   force =    -0.00000363   -0.00000304   -0.00000241
     atom    3 type  2   force =    -0.00000211   -0.00000015   -0.00000079
     atom    4 type  2   force =     0.00000110    0.00000232   -0.00000189
     atom    5 type  2   force =     0.00000113   -0.00000174   -0.00000172
     atom    6 type  2   force =    -0.00000113   -0.00000788   -0.00000159
     atom    7 type  2   force =    -0.00000611   -0.00000148   -0.00000216
     atom    8 type  2   force =    -0.00000451    0.00000507   -0.00000179
     atom    9 type  2   force =    -0.00000174    0.00000271   -0.00000147
     atom   10 type  2   force =     0.00000442   -0.00000823   -0.00000022
     atom   11 type  2   force =     0.00000265   -0.00000094   -0.00000052
     atom   12 type  2   force =    -0.00000235    0.00000898   -0.00000202
     atom   13 type  2   force =    -0.00000149    0.00000461   -0.00000125
     atom   14 type  2   force =     0.00000027   -0.00000429   -0.00000131
     atom   15 type  2   force =     0.00000700    0.00000062   -0.00000033
     atom   16 type  2   force =     0.00000562    0.00000666   -0.00000226
     atom   17 type  1   force =     0.00000071   -0.00000003   -0.00000239
     atom   18 type  1   force =    -0.00000053   -0.00000125   -0.00000173
     atom   19 type  1   force =    -0.00000210   -0.00000119   -0.00000099
     atom   20 type  1   force =    -0.00000103    0.00000075   -0.00000173
     atom   21 type  1   force =     0.00000007    0.00000174   -0.00000267
     atom   22 type  1   force =     0.00000087   -0.00000238   -0.00000127
     atom   23 type  1   force =    -0.00000100   -0.00000250    0.00000087
     atom   24 type  1   force =    -0.00000208    0.00000184    0.00000012
     atom   25 type  1   force =    -0.00000110    0.00000324   -0.00000211
     atom   26 type  1   force =     0.00000049   -0.00000163   -0.00000224
     atom   27 type  1   force =     0.00000273   -0.00000210    0.00000094
     atom   28 type  1   force =     0.00000149    0.00000249    0.00000058
     atom   29 type  1   force =     0.00000029    0.00000106   -0.00000216
     atom   30 type  1   force =    -0.00000075   -0.00000034   -0.00000231
     atom   31 type  1   force =     0.00000044   -0.00000082   -0.00000106
     atom   32 type  1   force =     0.00000168    0.00000106   -0.00000152
     atom   33 type  1   force =     0.00000063   -0.00000007    0.00000170
     atom   34 type  1   force =    -0.00000070   -0.00000126    0.00000093
     atom   35 type  1   force =    -0.00000192   -0.00000129    0.00000023
     atom   36 type  1   force =    -0.00000094    0.00000093    0.00000111
     atom   37 type  1   force =     0.00000004    0.00000161    0.00000208
     atom   38 type  1   force =     0.00000064   -0.00000257    0.00000086
     atom   39 type  1   force =    -0.00000123   -0.00000229   -0.00000200
     atom   40 type  1   force =    -0.00000204    0.00000176   -0.00000106
     atom   41 type  1   force =    -0.00000097    0.00000319    0.00000138
     atom   42 type  1   force =     0.00000061   -0.00000193    0.00000201
     atom   43 type  1   force =     0.00000243   -0.00000178   -0.00000131
     atom   44 type  1   force =     0.00000140    0.00000261   -0.00000173
     atom   45 type  1   force =     0.00000029    0.00000109    0.00000133
     atom   46 type  1   force =    -0.00000053   -0.00000046    0.00000167
     atom   47 type  1   force =     0.00000071   -0.00000085    0.00000085
     atom   48 type  1   force =     0.00000153    0.00000141    0.00000085
     atom   49 type  3   force =     0.00000059   -0.00000208    0.00000160
     atom   50 type  3   force =     0.00000164   -0.00000208   -0.00000033
     atom   51 type  3   force =     0.00000155   -0.00000151   -0.00000020
     atom   52 type  3   force =     0.00000250   -0.00000063    0.00000136
     atom   53 type  3   force =     0.00000136   -0.00000123    0.00000058
     atom   54 type  4   force =     0.00000016   -0.00000021    0.00000030
     atom   55 type  5   force =     0.00000019   -0.00000027    0.00000056
     atom   56 type  6   force =     0.00000002   -0.00000002    0.00000007
     atom   57 type  6   force =     0.00000001   -0.00000007    0.00000012
     atom   58 type  6   force =     0.00000003   -0.00000003    0.00000004

     DFT-D3 dispersion contribution to forces:
     atom    1 type  2   force =     0.00014032    0.00003168    0.00039726
     atom    2 type  2   force =     0.00011260    0.00016976    0.00049312
     atom    3 type  2   force =    -0.00045774   -0.00014013    0.00073663
     atom    4 type  2   force =    -0.00035297   -0.00038082    0.00063735
     atom    5 type  2   force =     0.00018457    0.00071942    0.00098282
     atom    6 type  2   force =     0.00101636    0.00070834    0.00248497
     atom    7 type  2   force =     0.00083704   -0.00018965    0.00138814
     atom    8 type  2   force =     0.00007452   -0.00002446    0.00022410
     atom    9 type  2   force =    -0.00025653    0.00054451    0.00078166
     atom   10 type  2   force =    -0.00005515    0.00100397    0.00259837
     atom   11 type  2   force =     0.00046687   -0.00069245    0.00379140
     atom   12 type  2   force =     0.00046896   -0.00064418    0.00104803
     atom   13 type  2   force =    -0.00004339   -0.00010704    0.00032927
     atom   14 type  2   force =    -0.00088238    0.00050355    0.00164640
     atom   15 type  2   force =    -0.00104028   -0.00052512    0.00341124
     atom   16 type  2   force =    -0.00015262   -0.00106692    0.00182870
     atom   17 type  1   force =     0.00008280    0.00024614   -0.00058044
     atom   18 type  1   force =     0.00080072    0.00058357   -0.00020456
     atom   19 type  1   force =     0.00034074   -0.00000721   -0.00034466
     atom   20 type  1   force =    -0.00035860   -0.00030554   -0.00058910
     atom   21 type  1   force =    -0.00006592    0.00064881   -0.00050850
     atom   22 type  1   force =     0.00016662    0.00115433   -0.00009431
     atom   23 type  1   force =     0.00134308   -0.00001088   -0.00027706
     atom   24 type  1   force =     0.00076529   -0.00060199   -0.00019087
     atom   25 type  1   force =     0.00005611   -0.00016156   -0.00059737
     atom   26 type  1   force =     0.00019349   -0.00024354   -0.00148288
     atom   27 type  1   force =    -0.00090461    0.00042985   -0.00274600
     atom   28 type  1   force =    -0.00021977   -0.00099879   -0.00033731
     atom   29 type  1   force =    -0.00005000   -0.00061178   -0.00054836
     atom   30 type  1   force =    -0.00043461    0.00032397   -0.00054745
     atom   31 type  1   force =    -0.00045835    0.00017238   -0.00112749
     atom   32 type  1   force =     0.00060184   -0.00057232   -0.00103948
     atom   33 type  1   force =     0.00001542    0.00001595    0.00095744
     atom   34 type  1   force =     0.00002742    0.00000324    0.00098753
     atom   35 type  1   force =    -0.00000980    0.00000171    0.00096884
     atom   36 type  1   force =     0.00001032    0.00001019    0.00093951
     atom   37 type  1   force =    -0.00001751   -0.00003640    0.00096603
     atom   38 type  1   force =     0.00000252    0.00001107    0.00119946
     atom   39 type  1   force =     0.00002160   -0.00001393    0.00120935
     atom   40 type  1   force =    -0.00003531    0.00001516    0.00097712
     atom   41 type  1   force =    -0.00000308   -0.00001634    0.00095927
     atom   42 type  1   force =    -0.00000790    0.00003142    0.00112347
     atom   43 type  1   force =     0.00000900    0.00001039    0.00143330
     atom   44 type  1   force =     0.00001666   -0.00002404    0.00118960
     atom   45 type  1   force =     0.00000591   -0.00000586    0.00097139
     atom   46 type  1   force =     0.00000648    0.00001492    0.00096223
     atom   47 type  1   force =    -0.00001251    0.00000469    0.00111201
     atom   48 type  1   force =    -0.00002888   -0.00002271    0.00111744
     atom   49 type  3   force =    -0.00086383    0.00011985   -0.00785590
     atom   50 type  3   force =    -0.00241108   -0.00340287   -0.00548338
     atom   51 type  3   force =     0.00139241    0.00051100   -0.00557218
     atom   52 type  3   force =    -0.00097551    0.00272426   -0.00647186
     atom   53 type  3   force =     0.00113594    0.00017447   -0.00192843
     atom   54 type  4   force =     0.00010793    0.00007813   -0.00074302
     atom   55 type  5   force =    -0.00028063    0.00006705   -0.00101961
     atom   56 type  6   force =     0.00006350    0.00013545    0.00021295
     atom   57 type  6   force =    -0.00021348   -0.00013909    0.00008228
     atom   58 type  6   force =     0.00012535   -0.00022361    0.00014152

     Total force =     0.025263     Total SCF correction =     0.000029

     DFT-D3 dispersion Force =     0.017429


     Computing stress (Cartesian axis) and pressure


     negative rho (up, down):  4.794E-03 5.162E-03
          total   stress  (Ry/bohr**3)                   (kbar)     P=       -1.62
  -0.00001313  -0.00000122   0.00000036           -1.93       -0.18        0.05
  -0.00000122  -0.00000941   0.00000002           -0.18       -1.38        0.00
   0.00000036   0.00000002  -0.00001042            0.05        0.00       -1.53

     kinetic stress (kbar)   7255.95     -1.16     -9.05
                               -1.16   7272.75     -0.28
                               -9.05     -0.28   7301.22

     local   stress (kbar)-135460.07    -63.32    520.98
                              -63.32-134006.13    219.61
                              520.98    219.61 134104.29

     nonloc. stress (kbar)  -1419.03     -0.11      0.34
                               -0.11  -1420.34      0.32
                                0.34      0.32  -1427.20

     hartree stress (kbar)  68217.26     29.37   -249.70
                               29.37  67559.98   -102.64
                             -249.70   -102.64 -63303.47

     exc-cor stress (kbar)   2000.79      0.00     -0.01
                                0.00   2000.38     -0.04
                               -0.01     -0.04   2000.34

     corecor stress (kbar)  -3626.55      0.04      0.05
                                0.04  -3626.83      0.01
                                0.05      0.01  -3627.24

     ewald   stress (kbar)  63033.98     34.98   -262.52
                               34.98  62223.03   -116.98
                             -262.52   -116.98 -75046.93

     hubbard stress (kbar)      0.00      0.00      0.00
                                0.00      0.00      0.00
                                0.00      0.00      0.00

     DFT-D   stress (kbar)     -4.26      0.02     -0.04
                                0.02     -4.22      0.01
                               -0.04      0.01     -2.55

     XDM     stress (kbar)      0.00      0.00      0.00
                                0.00      0.00      0.00
                                0.00      0.00      0.00

     dft-nl  stress (kbar)      0.00      0.00      0.00
                                0.00      0.00      0.00
                                0.00      0.00      0.00

     TS-vdW  stress (kbar)      0.00      0.00      0.00
                                0.00      0.00      0.00
                                0.00      0.00      0.00

     MDB     stress (kbar)      0.00      0.00      0.00
                                0.00      0.00      0.00
                                0.00      0.00      0.00

     3D-RISM stress (kbar)      0.00      0.00      0.00
                                0.00      0.00      0.00
                                0.00      0.00      0.00


     Writing all to output data dir ./Ag-WS2-H2NOH.save/ :
     XML data file, charge density, pseudopotentials, collected wavefunctions

     init_run     :    161.92s CPU    165.45s WALL (       1 calls)
     electrons    :  11099.93s CPU  11323.34s WALL (       1 calls)
     forces       :     42.49s CPU     44.00s WALL (       1 calls)
     force_dftd3  :      0.13s CPU      0.15s WALL (       1 calls)
     stress       :    151.91s CPU    156.28s WALL (       1 calls)
     stres_dftd3  :      0.13s CPU      0.15s WALL (       1 calls)

     Called by init_run:
     wfcinit      :    154.17s CPU    157.07s WALL (       1 calls)
     wfcinit:atom :      0.65s CPU      0.67s WALL (      26 calls)
     wfcinit:wfcr :    149.93s CPU    152.71s WALL (      26 calls)
     potinit      :      2.59s CPU      2.71s WALL (       1 calls)
     hinit0       :      1.44s CPU      1.53s WALL (       1 calls)

     Called by electrons:
     c_bands      :   9612.81s CPU   9788.50s WALL (      34 calls)
     sum_band     :   1376.59s CPU   1411.61s WALL (      34 calls)
     v_of_rho     :     18.19s CPU     19.27s WALL (      34 calls)
     v_h          :      0.91s CPU      1.00s WALL (      34 calls)
     v_xc         :     18.33s CPU     19.36s WALL (      36 calls)
     newd         :     53.48s CPU     64.17s WALL (      34 calls)
     PAW_pot      :     34.62s CPU     35.04s WALL (      34 calls)
     mix_rho      :      4.73s CPU      4.95s WALL (      34 calls)
     energy_dftd3 :      0.05s CPU      0.05s WALL (       1 calls)

     Called by c_bands:
     init_us_2    :    122.30s CPU    125.75s WALL (    1846 calls)
     cegterg      :   9459.75s CPU   9632.12s WALL (     884 calls)

     Called by sum_band:
     sum_band:wei :      0.01s CPU      0.01s WALL (      34 calls)
     sum_band:loo :   1277.54s CPU   1298.92s WALL (      34 calls)
     sum_band:buf :     10.54s CPU     10.81s WALL (     884 calls)
     sum_band:ini :     57.97s CPU     59.58s WALL (     884 calls)
     sum_band:cal :    276.19s CPU    284.56s WALL (     884 calls)
     sum_band:bec :      3.45s CPU      3.52s WALL (     884 calls)
     addusdens    :     96.41s CPU    109.87s WALL (      34 calls)
                                        0.00s GPU  (      34 calls)
     addusd:skk   :      1.46s CPU      1.59s WALL (     204 calls)
                                        0.00s GPU  (     204 calls)

     Called by *egterg:
     cdiaghg      :    516.84s CPU    536.57s WALL (    6149 calls)
     cegterg:over :    510.15s CPU    523.34s WALL (    5291 calls)
     cegterg:upda :    242.85s CPU    247.36s WALL (    5291 calls)
     cegterg:last :    453.44s CPU    461.76s WALL (    1843 calls)
     cdiaghg:chol :     42.90s CPU     43.28s WALL (    6149 calls)
     cdiaghg:inve :      7.47s CPU      7.56s WALL (    6149 calls)
     cdiaghg:para :    146.29s CPU    158.03s WALL (   12298 calls)
     h_psi        :   7055.64s CPU   7165.79s WALL (    6201 calls)
     s_psi        :    658.06s CPU    665.98s WALL (    6201 calls)
     g_psi        :      9.80s CPU     10.15s WALL (    5291 calls)

     Called by h_psi:
     h_psi:calbec :    880.50s CPU    906.06s WALL (    6201 calls)
     vloc_psi     :   5472.31s CPU   5545.48s WALL (    6201 calls)
     add_vuspsi   :    675.66s CPU    684.87s WALL (    6201 calls)

     General routines
     calbec       :   1294.72s CPU   1332.67s WALL (    7527 calls)
     fft          :     18.13s CPU     19.62s WALL (     890 calls)
     ffts         :      1.69s CPU      1.81s WALL (     136 calls)
     fftw         :   5833.85s CPU   5903.70s WALL ( 1314092 calls)
     interpolate  :      2.63s CPU      2.85s WALL (      68 calls)

     Parallel routines

     PAW routines
     PAW_pot      :     34.62s CPU     35.04s WALL (      34 calls)

     PWSCF        :  11465.96s CPU  11735.91s WALL


   This run was terminated on:   9:15:43   2Aug2026            

=------------------------------------------------------------------------------=
   JOB DONE.
=------------------------------------------------------------------------------=
