
     Program PWSCF v.7.4.1 starts on 31Jul2026 at 22:17:42 

     This program is part of the open-source Quantum ESPRESSO suite
     for quantum simulation of materials; please cite
         "P. Giannozzi et al., J. Phys.:Condens. Matter 21 395502 (2009);
         "P. Giannozzi et al., J. Phys.:Condens. Matter 29 465901 (2017);
         "P. Giannozzi et al., J. Chem. Phys. 152 154105 (2020);
          URL http://www.quantum-espresso.org", 
     in publications or presentations arising from this work. More details at
     http://www.quantum-espresso.org/quote

     Parallel version (MPI & OpenMP), running on      64 processor cores
     Number of MPI processes:                64
     Threads/MPI process:                     1

     MPI processes distributed on     1 nodes
     95857 MiB available memory on the printing compute node when the environment starts

     Reading input from disp_005_atom54_+1z.in

     Current dimensions of program PWSCF are:
     Max number of different atomic species (ntypx) = 10
     Max number of k-points (npk) =  40000
     Max angular momentum in pseudopotentials (lmaxx) =  4
     file S.pbe-n-kjpaw_psl.1.0.0.UPF: wavefunction(s)  3S 3P renormalized
     file W.pbe-spn-kjpaw_psl.1.0.0.UPF: wavefunction(s)  6S 5P 5D renormalized
     file Ag.pbe-n-kjpaw_psl.1.0.0.UPF: wavefunction(s)  5S 5P renormalized
     file N.pbe-n-kjpaw_psl.1.0.0.UPF: wavefunction(s)  2S renormalized
     file O.pbe-n-kjpaw_psl.1.0.0.UPF: wavefunction(s)  2S 2P renormalized
     file H.pbe-kjpaw_psl.1.0.0.UPF: wavefunction(s)  1S renormalized
     Message from routine setup:
     the system is metallic, specify occupations

     R & G space division:  proc/nbgrp/npool/nimage =      64
     Subspace diagonalization in iterative solution of the eigenvalue problem:
     one sub-group per band group will be used
     ELPA distributed-memory algorithm (size of sub-group:  2*  2 procs)


     Parallelization info
     --------------------
     sticks:   dense  smooth     PW     G-vecs:    dense   smooth      PW
     Min         247     123     32                39673    14017    1874
     Max         248     124     33                39680    14030    1885
     Sum       15841    7909   2065              2539249   897387  120111

     Using Slab Decomposition



     bravais-lattice index     =            0
     lattice parameter (alat)  =      23.9624  a.u.
     unit-cell volume          =   18794.0729 (a.u.)^3
     number of atoms/cell      =           58
     number of atomic types    =            6
     number of electrons       =       485.00 (up: 243.00, down: 242.00)
     number of Kohn-Sham states=          243
     kinetic-energy cutoff     =      50.0000  Ry
     charge density cutoff     =     400.0000  Ry
     scf convergence threshold =      1.0E-10
     mixing beta               =       0.4000
     number of iterations used =            8  plain     mixing
     Exchange-correlation= SLA  PW   PBX  PBC
                           (   1   4   3   4   0   0   0)

     celldm(1)=  23.962422  celldm(2)=   0.000000  celldm(3)=   0.000000
     celldm(4)=   0.000000  celldm(5)=   0.000000  celldm(6)=   0.000000

     crystal axes: (cart. coord. in units of alat)
               a(1) = (   1.000000   0.000000   0.000000 )  
               a(2) = (  -0.500000   0.866025   0.000000 )  
               a(3) = (   0.000000   0.000000   1.577241 )  

     reciprocal axes: (cart. coord. in units 2 pi/alat)
               b(1) = (  1.000000  0.577350 -0.000000 )  
               b(2) = (  0.000000  1.154701  0.000000 )  
               b(3) = (  0.000000 -0.000000  0.634018 )  


     PseudoPot. # 1 for S  read from file:
     /share/work_r640/fmigm008/pseudo/S.pbe-n-kjpaw_psl.1.0.0.UPF
     MD5 check sum: fb45dfebcf3e72a4e1bd4a866ec2e262
     Pseudo is Projector augmented-wave + core cor, Zval =  6.0
     Generated using &quot;atomic&quot; code by A. Dal Corso  v.6.3
     Shape of augmentation charge: PSQ
     Using radial grid of 1151 points,  6 beta functions with: 
                l(1) =   0
                l(2) =   0
                l(3) =   1
                l(4) =   1
                l(5) =   2
                l(6) =   2
     Q(r) pseudized with 0 coefficients 


     PseudoPot. # 2 for W  read from file:
     /share/work_r640/fmigm008/pseudo/W.pbe-spn-kjpaw_psl.1.0.0.UPF
     MD5 check sum: 03c3df5b60893f488392c7401945500a
     Pseudo is Projector augmented-wave + core cor, Zval = 14.0
     Generated using &quot;atomic&quot; code by A. Dal Corso  v.6.2.2
     Shape of augmentation charge: PSQ
     Using radial grid of 1273 points,  6 beta functions with: 
                l(1) =   0
                l(2) =   0
                l(3) =   1
                l(4) =   1
                l(5) =   2
                l(6) =   2
     Q(r) pseudized with 0 coefficients 


     PseudoPot. # 3 for Ag read from file:
     /share/work_r640/fmigm008/pseudo/Ag.pbe-n-kjpaw_psl.1.0.0.UPF
     MD5 check sum: 51099775af2a3182a6a1caffb86952a3
     Pseudo is Projector augmented-wave + core cor, Zval = 11.0
     Generated using &quot;atomic&quot; code by A. Dal Corso  v.6.2.2
     Shape of augmentation charge: PSQ
     Using radial grid of 1237 points,  6 beta functions with: 
                l(1) =   0
                l(2) =   0
                l(3) =   1
                l(4) =   1
                l(5) =   2
                l(6) =   2
     Q(r) pseudized with 0 coefficients 


     PseudoPot. # 4 for N  read from file:
     /share/work_r640/fmigm008/pseudo/N.pbe-n-kjpaw_psl.1.0.0.UPF
     MD5 check sum: 14c48229446f9f2d411169a3abcbc3fa
     Pseudo is Projector augmented-wave + core cor, Zval =  5.0
     Generated using &quot;atomic&quot; code by A. Dal Corso  v.6.3
     Shape of augmentation charge: PSQ
     Using radial grid of 1085 points,  4 beta functions with: 
                l(1) =   0
                l(2) =   0
                l(3) =   1
                l(4) =   1
     Q(r) pseudized with 0 coefficients 


     PseudoPot. # 5 for O  read from file:
     /share/work_r640/fmigm008/pseudo/O.pbe-n-kjpaw_psl.1.0.0.UPF
     MD5 check sum: e99d9cef9b487d1ca56f5b95ecd0fd7a
     Pseudo is Projector augmented-wave + core cor, Zval =  6.0
     Generated using &quot;atomic&quot; code by A. Dal Corso  v.6.3
     Shape of augmentation charge: PSQ
     Using radial grid of 1095 points,  4 beta functions with: 
                l(1) =   0
                l(2) =   0
                l(3) =   1
                l(4) =   1
     Q(r) pseudized with 0 coefficients 


     PseudoPot. # 6 for H  read from file:
     /share/work_r640/fmigm008/pseudo/H.pbe-kjpaw_psl.1.0.0.UPF
     MD5 check sum: d81a744832360e4a8af0b0b5b123bc2a
     Pseudo is Projector augmented-wave, Zval =  1.0
     Generated using &quot;atomic&quot; code by A. Dal Corso  v.6.3MaX
     Shape of augmentation charge: PSQ
     Using radial grid of  929 points,  2 beta functions with: 
                l(1) =   0
                l(2) =   0
     Q(r) pseudized with 0 coefficients 


     atomic species   valence    mass     pseudopotential
     S                 6.00    32.06500     S ( 1.00)
     W                14.00   183.84000     W ( 1.00)
     Ag               11.00   107.87000     Ag( 1.00)
     N                 5.00    14.00700     N ( 1.00)
     O                 6.00    15.99900     O ( 1.00)
     H                 1.00     1.00800     H ( 1.00)

     Starting magnetic structure 
     atomic species   magnetization
     S               0.000
     W               0.000
     Ag              0.000
     N               0.000
     O               0.000
     H               0.000

     No symmetry found


                                    s                        frac. trans.

      isym =  1     identity                                     

 cryst.   s( 1) = (     1          0          0      )
                  (     0          1          0      )
                  (     0          0          1      )

 cart.    s( 1) = (  1.0000000  0.0000000  0.0000000 )
                  (  0.0000000  1.0000000  0.0000000 )
                  (  0.0000000  0.0000000  1.0000000 )


   Cartesian axes

     site n.     atom                  positions (alat units)
         1        W      tau(   1) = (  -0.0028587   0.1395947   0.2444812  )
         2        W      tau(   2) = (  -0.1282026   0.3564836   0.2443568  )
         3        W      tau(   3) = (  -0.2537731   0.5727289   0.2442261  )
         4        W      tau(   4) = (  -0.3783723   0.7888166   0.2441498  )
         5        W      tau(   5) = (   0.2469096   0.1395426   0.2440120  )
         6        W      tau(   6) = (   0.1225026   0.3570726   0.2432304  )
         7        W      tau(   7) = (  -0.0034888   0.5727502   0.2429844  )
         8        W      tau(   8) = (  -0.1283671   0.7891505   0.2439766  )
         9        W      tau(   9) = (   0.4969194   0.1397378   0.2430413  )
        10        W      tau(  10) = (   0.3721499   0.3552416   0.2405337  )
        11        W      tau(  11) = (   0.2452295   0.5727639   0.2402480  )
        12        W      tau(  12) = (   0.1220165   0.7890246   0.2436243  )
        13        W      tau(  13) = (   0.7467445   0.1394449   0.2440642  )
        14        W      tau(  14) = (   0.6211264   0.3563823   0.2436826  )
        15        W      tau(  15) = (   0.4971469   0.5732720   0.2421413  )
        16        W      tau(  16) = (   0.3721785   0.7886524   0.2428338  )
        17        S      tau(  17) = (   0.1219502   0.0672380   0.3684592  )
        18        S      tau(  18) = (  -0.0024014   0.2846735   0.3681910  )
        19        S      tau(  19) = (  -0.1281525   0.5008469   0.3682441  )
        20        S      tau(  20) = (  -0.2533258   0.7170167   0.3685687  )
        21        S      tau(  21) = (   0.3722606   0.0676427   0.3679766  )
        22        S      tau(  22) = (   0.2484890   0.2849851   0.3676532  )
        23        S      tau(  23) = (   0.1218721   0.5017515   0.3660861  )
        24        S      tau(  24) = (  -0.0030403   0.7167922   0.3679041  )
        25        S      tau(  25) = (   0.6215745   0.0674060   0.3678624  )
        26        S      tau(  26) = (   0.4959803   0.2843589   0.3667029  )
        27        S      tau(  27) = (   0.3710177   0.5007270   0.3638206  )
        28        S      tau(  28) = (   0.2481984   0.7153351   0.3669892  )
        29        S      tau(  29) = (   0.8717811   0.0668114   0.3679626  )
        30        S      tau(  30) = (   0.7463862   0.2840842   0.3681041  )
        31        S      tau(  31) = (   0.6195449   0.5004430   0.3687043  )
        32        S      tau(  32) = (   0.4956231   0.7159829   0.3681683  )
        33        S      tau(  33) = (   0.1218639   0.0672424   0.1203644  )
        34        S      tau(  34) = (  -0.0031686   0.2839920   0.1203246  )
        35        S      tau(  35) = (  -0.1290559   0.5005458   0.1199474  )
        36        S      tau(  36) = (  -0.2533637   0.7168463   0.1201865  )
        37        S      tau(  37) = (   0.3715067   0.0672515   0.1197328  )
        38        S      tau(  38) = (   0.2459712   0.2831895   0.1185177  )
        39        S      tau(  39) = (   0.1200987   0.4999851   0.1172124  )
        40        S      tau(  40) = (  -0.0034124   0.7174366   0.1195727  )
        41        S      tau(  41) = (   0.6220409   0.0671938   0.1195919  )
        42        S      tau(  42) = (   0.4978914   0.2834015   0.1177695  )
        43        S      tau(  43) = (   0.3720771   0.5008174   0.1169455  )
        44        S      tau(  44) = (   0.2466393   0.7180153   0.1180007  )
        45        S      tau(  45) = (   0.8722199   0.0680125   0.1199081  )
        46        S      tau(  46) = (   0.7469729   0.2840633   0.1202901  )
        47        S      tau(  47) = (   0.6222799   0.5003741   0.1191499  )
        48        S      tau(  48) = (   0.4972527   0.7176301   0.1185580  )
        49        Ag     tau(  49) = (   0.1547683   0.5150674   0.5753024  )
        50        Ag     tau(  50) = (   0.3069329   0.3595674   0.5464056  )
        51        Ag     tau(  51) = (   0.5024756   0.4743393   0.5615070  )
        52        Ag     tau(  52) = (   0.3399570   0.6321033   0.5430870  )
        53        Ag     tau(  53) = (   0.3428646   0.4953663   0.7084671  )
        54        N      tau(  54) = (   0.2596825   0.4648737   0.8690167  )
        55        O      tau(  55) = (   0.1477385   0.4509631   0.8500100  )
        56        H      tau(  56) = (   0.2650389   0.5234661   0.9229976  )
        57        H      tau(  57) = (   0.1408570   0.4629232   0.7729758  )
        58        H      tau(  58) = (   0.2837088   0.3964009   0.9032094  )

     --------------------------------------------
     DFT-D3 Dispersion Correction (3-body terms):
     --------------------------------------------
       Reference C6 values for interpolation: 

         atom   Coordination number   C6
         H          0.912             6.05
         H          0.000            15.18
         N          0.000            50.54
         N          0.994            44.25
         N          2.014            39.35
         N          2.990            31.16
         O          0.000            31.01
         O          0.993            25.63
         O          1.989            20.74
         S          0.000           268.01
         S          0.995           261.99
         S          1.990           251.62
         Ag         0.000           853.49
         Ag         0.968           537.23
         W          0.000          1628.72
         W          1.929          1086.81
         W         10.915           796.19

       Values used:

         atom   Coordination number  R0_AB[au]  C6      C8
         W          9.805            3.766    796.19 128250.55
         W          9.806            3.766    796.19 128250.55
         W          9.854            3.766    796.19 128250.55
         W          9.866            3.766    796.19 128250.55
         W          9.842            3.766    796.19 128250.55
         W          9.851            3.766    796.19 128250.55
         W          9.870            3.766    796.19 128250.55
         W          9.833            3.766    796.19 128250.55
         W          9.854            3.766    796.19 128250.55
         W          9.880            3.766    796.19 128250.55
         W          9.879            3.766    796.19 128250.55
         W          9.846            3.766    796.19 128250.55
         W          9.811            3.766    796.19 128250.55
         W          9.849            3.766    796.19 128250.55
         W          9.870            3.766    796.19 128250.55
         W          9.855            3.766    796.19 128250.55
         S          3.670            3.128    251.62  12327.25
         S          3.672            3.128    251.62  12327.25
         S          3.679            3.128    251.62  12327.25
         S          3.675            3.128    251.62  12327.25
         S          3.690            3.128    251.62  12327.25
         S          4.579            3.128    251.62  12327.25
         S          4.512            3.128    251.62  12327.25
         S          3.693            3.128    251.62  12327.25
         S          3.676            3.128    251.62  12327.25
         S          3.843            3.128    251.62  12327.25
         S          4.976            3.128    251.62  12327.25
         S          4.443            3.128    251.62  12327.25
         S          3.677            3.128    251.62  12327.25
         S          3.672            3.128    251.62  12327.25
         S          4.198            3.128    251.62  12327.25
         S          3.918            3.128    251.62  12327.25
         S          3.700            3.128    251.62  12327.25
         S          3.699            3.128    251.62  12327.25
         S          3.697            3.128    251.62  12327.25
         S          3.697            3.128    251.62  12327.25
         S          3.689            3.128    251.62  12327.25
         S          3.673            3.128    251.62  12327.25
         S          3.669            3.128    251.62  12327.25
         S          3.689            3.128    251.62  12327.25
         S          3.693            3.128    251.62  12327.25
         S          3.672            3.128    251.62  12327.25
         S          3.662            3.128    251.62  12327.25
         S          3.672            3.128    251.62  12327.25
         S          3.693            3.128    251.62  12327.25
         S          3.697            3.128    251.62  12327.25
         S          3.686            3.128    251.62  12327.25
         S          3.680            3.128    251.62  12327.25
         Ag         3.221            3.147    537.23  47741.54
         Ag         3.973            3.147    537.23  47741.54
         Ag         3.317            3.147    537.23  47741.54
         Ag         4.158            3.147    537.23  47741.54
         Ag         4.099            3.147    537.23  47741.54
         N          3.728            2.478     31.16    687.50
         O          2.000            2.345     20.82    420.13
         H          1.007            2.062      6.18     74.65
         H          1.030            2.062      6.16     74.42
         H          1.007            2.062      6.17     74.64

         Molecular C6 ( Ry / a.u.^6 ) =   1190031.33


   Crystallographic axes

     site n.     atom                  positions (cryst. coord.)
         1        W      tau(   1) = (  0.0777364  0.1611901  0.1550056  )
         2        W      tau(   2) = (  0.0776133  0.4116318  0.1549267  )
         3        W      tau(   3) = (  0.0768921  0.6613303  0.1548438  )
         4        W      tau(   4) = (  0.0770512  0.9108469  0.1547955  )
         5        W      tau(   5) = (  0.3274746  0.1611299  0.1547081  )
         6        W      tau(   6) = (  0.3286586  0.4123119  0.1542125  )
         7        W      tau(   7) = (  0.3271886  0.6613549  0.1540566  )
         8        W      tau(   8) = (  0.3272492  0.9112326  0.1546856  )
         9        W      tau(   9) = (  0.5775970  0.1613553  0.1540926  )
        10        W      tau(  10) = (  0.5772488  0.4101977  0.1525028  )
        11        W      tau(  11) = (  0.5759149  0.6613708  0.1523217  )
        12        W      tau(  12) = (  0.5775601  0.9110871  0.1544623  )
        13        W      tau(  13) = (  0.8272530  0.1610171  0.1547412  )
        14        W      tau(  14) = (  0.8268839  0.4115149  0.1544993  )
        15        W      tau(  15) = (  0.8281256  0.6619575  0.1535220  )
        16        W      tau(  16) = (  0.8275072  0.9106573  0.1539611  )
        17        S      tau(  17) = (  0.1607701  0.0776397  0.2336099  )
        18        S      tau(  18) = (  0.1619549  0.3287126  0.2334399  )
        19        S      tau(  19) = (  0.1610116  0.5783281  0.2334735  )
        20        S      tau(  20) = (  0.1606439  0.8279395  0.2336794  )
        21        S      tau(  21) = (  0.4113141  0.0781070  0.2333040  )
        22        S      tau(  22) = (  0.4130252  0.3290725  0.2330989  )
        23        S      tau(  23) = (  0.4115585  0.5793727  0.2321053  )
        24        S      tau(  24) = (  0.4107998  0.8276803  0.2332579  )
        25        S      tau(  25) = (  0.6604913  0.0778337  0.2332315  )
        26        S      tau(  26) = (  0.6601550  0.3283494  0.2324963  )
        27        S      tau(  27) = (  0.6601125  0.5781897  0.2306689  )
        28        S      tau(  28) = (  0.6611973  0.8259978  0.2326779  )
        29        S      tau(  29) = (  0.9103547  0.0771472  0.2332950  )
        30        S      tau(  30) = (  0.9104023  0.3280322  0.2333848  )
        31        S      tau(  31) = (  0.9084758  0.5778618  0.2337653  )
        32        S      tau(  32) = (  0.9089960  0.8267459  0.2334255  )
        33        S      tau(  33) = (  0.1606863  0.0776448  0.0763132  )
        34        S      tau(  34) = (  0.1607942  0.3279257  0.0762880  )
        35        S      tau(  35) = (  0.1599344  0.5779805  0.0760488  )
        36        S      tau(  36) = (  0.1605077  0.8277428  0.0762004  )
        37        S      tau(  37) = (  0.4103343  0.0776554  0.0759128  )
        38        S      tau(  38) = (  0.4094707  0.3269991  0.0751424  )
        39        S      tau(  39) = (  0.4087652  0.5773330  0.0743148  )
        40        S      tau(  40) = (  0.4107999  0.8284245  0.0758113  )
        41        S      tau(  41) = (  0.6608352  0.0775887  0.0758235  )
        42        S      tau(  42) = (  0.6615133  0.3272438  0.0746680  )
        43        S      tau(  43) = (  0.6612241  0.5782941  0.0741456  )
        44        S      tau(  44) = (  0.6611856  0.8290927  0.0748146  )
        45        S      tau(  45) = (  0.9114869  0.0785340  0.0760239  )
        46        S      tau(  46) = (  0.9109769  0.3280081  0.0762661  )
        47        S      tau(  47) = (  0.9111710  0.5777822  0.0755432  )
        48        S      tau(  48) = (  0.9115766  0.8286478  0.0751680  )
        49        Ag     tau(  49) = (  0.4521427  0.5947486  0.3647523  )
        50        Ag     tau(  50) = (  0.5145293  0.4151927  0.3464312  )
        51        Ag     tau(  51) = (  0.7763355  0.5477198  0.3560058  )
        52        Ag     tau(  52) = (  0.7049020  0.7298900  0.3443271  )
        53        Ag     tau(  53) = (  0.6288645  0.5719998  0.4491812  )
        54        N      tau(  54) = (  0.5280775  0.5367899  0.5509726  )
        55        O      tau(  55) = (  0.4081021  0.5207274  0.5389220  )
        56        H      tau(  56) = (  0.5672622  0.6044466  0.5851974  )
        57        H      tau(  57) = (  0.4081259  0.5345377  0.4900809  )
        58        H      tau(  58) = (  0.5125710  0.4577243  0.5726514  )

     number of k points=    13
                       cart. coord. in units 2pi/alat
        k(    1) = (   0.0000000   0.0000000   0.0000000), wk =   0.0400000
        k(    2) = (   0.0000000   0.2309401   0.0000000), wk =   0.0800000
        k(    3) = (   0.0000000   0.4618802   0.0000000), wk =   0.0800000
        k(    4) = (   0.2000000   0.3464102   0.0000000), wk =   0.0800000
        k(    5) = (   0.2000000   0.5773503   0.0000000), wk =   0.0800000
        k(    6) = (  -0.2000000   0.1154701   0.0000000), wk =   0.0800000
        k(    7) = (   0.2000000   0.1154701   0.0000000), wk =   0.0800000
        k(    8) = (  -0.4000000   0.2309401   0.0000000), wk =   0.0800000
        k(    9) = (   0.4000000   0.2309401   0.0000000), wk =   0.0800000
        k(   10) = (  -0.2000000   0.3464102   0.0000000), wk =   0.0800000
        k(   11) = (   0.4000000  -0.0000000   0.0000000), wk =   0.0800000
        k(   12) = (  -0.4000000   0.4618802   0.0000000), wk =   0.0800000
        k(   13) = (   0.6000000   0.1154701   0.0000000), wk =   0.0800000

                       cryst. coord.
        k(    1) = (   0.0000000   0.0000000   0.0000000), wk =   0.0400000
        k(    2) = (   0.0000000   0.2000000   0.0000000), wk =   0.0800000
        k(    3) = (   0.0000000   0.4000000   0.0000000), wk =   0.0800000
        k(    4) = (   0.2000000   0.2000000   0.0000000), wk =   0.0800000
        k(    5) = (   0.2000000   0.4000000   0.0000000), wk =   0.0800000
        k(    6) = (  -0.2000000   0.2000000   0.0000000), wk =   0.0800000
        k(    7) = (   0.2000000   0.0000000   0.0000000), wk =   0.0800000
        k(    8) = (  -0.4000000   0.4000000   0.0000000), wk =   0.0800000
        k(    9) = (   0.4000000   0.0000000   0.0000000), wk =   0.0800000
        k(   10) = (  -0.2000000   0.4000000   0.0000000), wk =   0.0800000
        k(   11) = (   0.4000000  -0.2000000   0.0000000), wk =   0.0800000
        k(   12) = (  -0.4000000   0.6000000   0.0000000), wk =   0.0800000
        k(   13) = (   0.6000000  -0.2000000   0.0000000), wk =   0.0800000

     Dense  grid:  2539249 G-vectors     FFT dimensions: ( 160, 160, 243)

     Smooth grid:   897387 G-vectors     FFT dimensions: ( 108, 108, 180)

     Dynamical RAM for                 wfc:       6.50 MB

     Dynamical RAM for     wfc (w. buffer):     175.50 MB

     Dynamical RAM for           str. fact:       3.63 MB

     Dynamical RAM for           local pot:       0.00 MB

     Dynamical RAM for          nlocal pot:      26.11 MB

     Dynamical RAM for                qrad:       9.63 MB

     Dynamical RAM for          rho,v,vnew:       8.32 MB

     Dynamical RAM for               rhoin:       2.77 MB

     Dynamical RAM for            rho*nmix:      19.38 MB

     Dynamical RAM for           G-vectors:       2.38 MB

     Dynamical RAM for          h,s,v(r/c):       2.70 MB

     Dynamical RAM for          <psi|beta>:       3.62 MB

     Dynamical RAM for                 psi:      13.00 MB

     Dynamical RAM for                hpsi:      13.00 MB

     Dynamical RAM for                spsi:      13.00 MB

     Dynamical RAM for      wfcinit/wfcrot:      14.35 MB

     Dynamical RAM for           addusdens:     132.60 MB

     Dynamical RAM for          addusforce:     170.39 MB

     Dynamical RAM for         addusstress:     122.61 MB

     Estimated static dynamical RAM per process >     237.27 MB

     Estimated max dynamical RAM per process >     427.03 MB

     Estimated total dynamical RAM >      26.69 GB
     Generating pointlists ...
     new r_m :   0.0782 (alat units)  1.8731 (a.u.) for type    1
     new r_m :   0.0782 (alat units)  1.8731 (a.u.) for type    2
     new r_m :   0.0756 (alat units)  1.8125 (a.u.) for type    3
     new r_m :   0.0329 (alat units)  0.7893 (a.u.) for type    4
     new r_m :   0.0323 (alat units)  0.7736 (a.u.) for type    5
     new r_m :   0.0323 (alat units)  0.7736 (a.u.) for type    6

     Initial potential from superposition of free atoms

     starting charge     484.9880, renormalised to     485.0000

     negative rho (up, down):  1.009E-03 1.009E-03
     Starting wfcs are  392 randomized atomic wfcs
     Checking if some PAW data can be deallocated... 
       PAW data deallocated on   32 nodes for type:  1
       PAW data deallocated on   42 nodes for type:  2
       PAW data deallocated on   59 nodes for type:  3
       PAW data deallocated on   63 nodes for type:  4
       PAW data deallocated on   63 nodes for type:  5
       PAW data deallocated on   61 nodes for type:  6

     total cpu time spent up to now is      190.0 secs

     per-process dynamical memory:   308.7 Mb

     Self-consistent Calculation

     iteration #  1     ecut=    50.00 Ry     beta= 0.40
     Davidson diagonalization with overlap

---- Real-time Memory Report at c_bands before calling an iterative solver
           366 MiB given to the printing process from OS
           301 MiB allocation reported by mallinfo(arena+hblkhd)
         78659 MiB available memory on the node where the printing process lives
------------------
     ethr =  1.00E-02,  avg # of iterations =  2.0

     Threshold (ethr) on eigenvalues was too large:
     Diagonalizing with lowered threshold

     Davidson diagonalization with overlap

---- Real-time Memory Report at c_bands before calling an iterative solver
           470 MiB given to the printing process from OS
           305 MiB allocation reported by mallinfo(arena+hblkhd)
         77286 MiB available memory on the node where the printing process lives
------------------
     ethr =  4.35E-04,  avg # of iterations =  4.8

     negative rho (up, down):  1.027E-02 6.712E-03

     total cpu time spent up to now is      947.0 secs

     total energy              =  -16138.22455085 Ry
     estimated scf accuracy    <       2.44862507 Ry

     total magnetization       =     1.00 Bohr mag/cell
     absolute magnetization    =     4.14 Bohr mag/cell

     iteration #  2     ecut=    50.00 Ry     beta= 0.40
     Davidson diagonalization with overlap

---- Real-time Memory Report at c_bands before calling an iterative solver
           478 MiB given to the printing process from OS
           312 MiB allocation reported by mallinfo(arena+hblkhd)
         75090 MiB available memory on the node where the printing process lives
------------------
     ethr =  5.05E-04,  avg # of iterations =  7.3

     negative rho (up, down):  3.214E-02 2.300E-02

     total cpu time spent up to now is     1342.8 secs

     total energy              =  -16138.44697230 Ry
     estimated scf accuracy    <       0.41289610 Ry

     total magnetization       =     1.00 Bohr mag/cell
     absolute magnetization    =     3.05 Bohr mag/cell

     iteration #  3     ecut=    50.00 Ry     beta= 0.40
     Davidson diagonalization with overlap

---- Real-time Memory Report at c_bands before calling an iterative solver
           481 MiB given to the printing process from OS
           313 MiB allocation reported by mallinfo(arena+hblkhd)
         75305 MiB available memory on the node where the printing process lives
------------------
     ethr =  8.51E-05,  avg # of iterations =  8.5

     negative rho (up, down):  3.680E-02 2.750E-02

     total cpu time spent up to now is     1755.1 secs

     total energy              =  -16138.51366372 Ry
     estimated scf accuracy    <       0.22206456 Ry

     total magnetization       =     1.00 Bohr mag/cell
     absolute magnetization    =     2.37 Bohr mag/cell

     iteration #  4     ecut=    50.00 Ry     beta= 0.40
     Davidson diagonalization with overlap

---- Real-time Memory Report at c_bands before calling an iterative solver
           482 MiB given to the printing process from OS
           314 MiB allocation reported by mallinfo(arena+hblkhd)
         75003 MiB available memory on the node where the printing process lives
------------------
     ethr =  4.58E-05,  avg # of iterations =  9.8

     negative rho (up, down):  3.093E-02 2.406E-02

     total cpu time spent up to now is     2136.3 secs

     total energy              =  -16138.54438041 Ry
     estimated scf accuracy    <       0.05228668 Ry

     total magnetization       =     1.00 Bohr mag/cell
     absolute magnetization    =     1.98 Bohr mag/cell

     iteration #  5     ecut=    50.00 Ry     beta= 0.40
     Davidson diagonalization with overlap

---- Real-time Memory Report at c_bands before calling an iterative solver
           510 MiB given to the printing process from OS
           346 MiB allocation reported by mallinfo(arena+hblkhd)
         74450 MiB available memory on the node where the printing process lives
------------------
     ethr =  1.08E-05,  avg # of iterations =  7.3

     negative rho (up, down):  2.106E-02 1.672E-02

     total cpu time spent up to now is     2530.5 secs

     total energy              =  -16138.54958554 Ry
     estimated scf accuracy    <       0.03139634 Ry

     total magnetization       =     1.00 Bohr mag/cell
     absolute magnetization    =     1.71 Bohr mag/cell

     iteration #  6     ecut=    50.00 Ry     beta= 0.40
     Davidson diagonalization with overlap

---- Real-time Memory Report at c_bands before calling an iterative solver
           516 MiB given to the printing process from OS
           348 MiB allocation reported by mallinfo(arena+hblkhd)
         74039 MiB available memory on the node where the printing process lives
------------------
     ethr =  6.47E-06,  avg # of iterations =  7.3

     negative rho (up, down):  1.383E-02 1.146E-02

     total cpu time spent up to now is     2890.1 secs

     total energy              =  -16138.55273776 Ry
     estimated scf accuracy    <       0.01645288 Ry

     total magnetization       =     1.00 Bohr mag/cell
     absolute magnetization    =     1.48 Bohr mag/cell

     iteration #  7     ecut=    50.00 Ry     beta= 0.40
     Davidson diagonalization with overlap

---- Real-time Memory Report at c_bands before calling an iterative solver
           516 MiB given to the printing process from OS
           350 MiB allocation reported by mallinfo(arena+hblkhd)
         74102 MiB available memory on the node where the printing process lives
------------------
     ethr =  3.39E-06,  avg # of iterations =  5.4

     negative rho (up, down):  1.981E-02 2.035E-02

     total cpu time spent up to now is     3237.7 secs

     total energy              =  -16138.55138997 Ry
     estimated scf accuracy    <       0.00823027 Ry

     total magnetization       =     1.00 Bohr mag/cell
     absolute magnetization    =     1.33 Bohr mag/cell

     iteration #  8     ecut=    50.00 Ry     beta= 0.40
     Davidson diagonalization with overlap

---- Real-time Memory Report at c_bands before calling an iterative solver
           517 MiB given to the printing process from OS
           350 MiB allocation reported by mallinfo(arena+hblkhd)
         74126 MiB available memory on the node where the printing process lives
------------------
     ethr =  1.70E-06,  avg # of iterations =  8.2

     negative rho (up, down):  2.111E-02 2.228E-02

     total cpu time spent up to now is     3579.1 secs

     total energy              =  -16138.55096578 Ry
     estimated scf accuracy    <       0.00206393 Ry

     total magnetization       =     1.00 Bohr mag/cell
     absolute magnetization    =     1.22 Bohr mag/cell

     iteration #  9     ecut=    50.00 Ry     beta= 0.40
     Davidson diagonalization with overlap

---- Real-time Memory Report at c_bands before calling an iterative solver
           518 MiB given to the printing process from OS
           351 MiB allocation reported by mallinfo(arena+hblkhd)
         78673 MiB available memory on the node where the printing process lives
------------------
     ethr =  4.26E-07,  avg # of iterations =  7.9

     negative rho (up, down):  1.518E-02 1.612E-02

     total cpu time spent up to now is     3978.9 secs

     total energy              =  -16138.55291827 Ry
     estimated scf accuracy    <       0.00050041 Ry

     total magnetization       =     1.00 Bohr mag/cell
     absolute magnetization    =     1.17 Bohr mag/cell

     iteration # 10     ecut=    50.00 Ry     beta= 0.40
     Davidson diagonalization with overlap

---- Real-time Memory Report at c_bands before calling an iterative solver
           519 MiB given to the printing process from OS
           352 MiB allocation reported by mallinfo(arena+hblkhd)
         76062 MiB available memory on the node where the printing process lives
------------------
     ethr =  1.03E-07,  avg # of iterations =  7.0

     negative rho (up, down):  1.096E-02 1.173E-02

     total cpu time spent up to now is     4378.7 secs

     total energy              =  -16138.55398242 Ry
     estimated scf accuracy    <       0.00014490 Ry

     total magnetization       =     1.00 Bohr mag/cell
     absolute magnetization    =     1.15 Bohr mag/cell

     iteration # 11     ecut=    50.00 Ry     beta= 0.40
     Davidson diagonalization with overlap

---- Real-time Memory Report at c_bands before calling an iterative solver
           522 MiB given to the printing process from OS
           354 MiB allocation reported by mallinfo(arena+hblkhd)
         75380 MiB available memory on the node where the printing process lives
------------------
     ethr =  2.99E-08,  avg # of iterations =  7.0

     negative rho (up, down):  7.851E-03 8.445E-03

     total cpu time spent up to now is     4828.8 secs

     total energy              =  -16138.55459182 Ry
     estimated scf accuracy    <       0.00009197 Ry

     total magnetization       =     1.00 Bohr mag/cell
     absolute magnetization    =     1.14 Bohr mag/cell

     iteration # 12     ecut=    50.00 Ry     beta= 0.40
     Davidson diagonalization with overlap

---- Real-time Memory Report at c_bands before calling an iterative solver
           523 MiB given to the printing process from OS
           355 MiB allocation reported by mallinfo(arena+hblkhd)
         76932 MiB available memory on the node where the printing process lives
------------------
     ethr =  1.90E-08,  avg # of iterations =  7.0

     negative rho (up, down):  5.985E-03 6.444E-03

     total cpu time spent up to now is     5231.8 secs

     total energy              =  -16138.55485456 Ry
     estimated scf accuracy    <       0.00002920 Ry

     total magnetization       =     1.00 Bohr mag/cell
     absolute magnetization    =     1.13 Bohr mag/cell

     iteration # 13     ecut=    50.00 Ry     beta= 0.40
     Davidson diagonalization with overlap

---- Real-time Memory Report at c_bands before calling an iterative solver
           523 MiB given to the printing process from OS
           355 MiB allocation reported by mallinfo(arena+hblkhd)
         74774 MiB available memory on the node where the printing process lives
------------------
     ethr =  6.02E-09,  avg # of iterations =  7.0

     negative rho (up, down):  5.206E-03 5.613E-03

     total cpu time spent up to now is     5634.6 secs

     total energy              =  -16138.55494319 Ry
     estimated scf accuracy    <       0.00001260 Ry

     total magnetization       =     1.00 Bohr mag/cell
     absolute magnetization    =     1.12 Bohr mag/cell

     iteration # 14     ecut=    50.00 Ry     beta= 0.40
     Davidson diagonalization with overlap

---- Real-time Memory Report at c_bands before calling an iterative solver
           523 MiB given to the printing process from OS
           355 MiB allocation reported by mallinfo(arena+hblkhd)
         74049 MiB available memory on the node where the printing process lives
------------------
     ethr =  2.60E-09,  avg # of iterations =  2.6

     negative rho (up, down):  4.885E-03 5.266E-03

     total cpu time spent up to now is     5970.8 secs

     total energy              =  -16138.55497927 Ry
     estimated scf accuracy    <       0.00000932 Ry

     total magnetization       =     1.00 Bohr mag/cell
     absolute magnetization    =     1.12 Bohr mag/cell

     iteration # 15     ecut=    50.00 Ry     beta= 0.40
     Davidson diagonalization with overlap

---- Real-time Memory Report at c_bands before calling an iterative solver
           523 MiB given to the printing process from OS
           355 MiB allocation reported by mallinfo(arena+hblkhd)
         74096 MiB available memory on the node where the printing process lives
------------------
     ethr =  1.92E-09,  avg # of iterations =  2.0

     negative rho (up, down):  4.827E-03 5.205E-03

     total cpu time spent up to now is     6269.4 secs

     total energy              =  -16138.55498643 Ry
     estimated scf accuracy    <       0.00000791 Ry

     total magnetization       =     1.00 Bohr mag/cell
     absolute magnetization    =     1.12 Bohr mag/cell

     iteration # 16     ecut=    50.00 Ry     beta= 0.40
     Davidson diagonalization with overlap

---- Real-time Memory Report at c_bands before calling an iterative solver
           523 MiB given to the printing process from OS
           355 MiB allocation reported by mallinfo(arena+hblkhd)
         73416 MiB available memory on the node where the printing process lives
------------------
     ethr =  1.63E-09,  avg # of iterations =  2.0

     negative rho (up, down):  5.454E-03 5.863E-03

     total cpu time spent up to now is     6564.3 secs

     total energy              =  -16138.55492190 Ry
     estimated scf accuracy    <       0.00000520 Ry

     total magnetization       =     1.00 Bohr mag/cell
     absolute magnetization    =     1.12 Bohr mag/cell

     iteration # 17     ecut=    50.00 Ry     beta= 0.40
     Davidson diagonalization with overlap

---- Real-time Memory Report at c_bands before calling an iterative solver
           523 MiB given to the printing process from OS
           355 MiB allocation reported by mallinfo(arena+hblkhd)
         73837 MiB available memory on the node where the printing process lives
------------------
     ethr =  1.07E-09,  avg # of iterations =  8.1

     negative rho (up, down):  5.007E-03 5.392E-03

     total cpu time spent up to now is     6993.9 secs

     total energy              =  -16138.55496544 Ry
     estimated scf accuracy    <       0.00000862 Ry

     total magnetization       =     1.00 Bohr mag/cell
     absolute magnetization    =     1.12 Bohr mag/cell

     iteration # 18     ecut=    50.00 Ry     beta= 0.40
     Davidson diagonalization with overlap

---- Real-time Memory Report at c_bands before calling an iterative solver
           523 MiB given to the printing process from OS
           355 MiB allocation reported by mallinfo(arena+hblkhd)
         74051 MiB available memory on the node where the printing process lives
------------------
     ethr =  1.07E-09,  avg # of iterations =  8.4

     negative rho (up, down):  4.817E-03 5.187E-03

     total cpu time spent up to now is     7365.1 secs

     total energy              =  -16138.55498745 Ry
     estimated scf accuracy    <       0.00000163 Ry

     total magnetization       =     1.00 Bohr mag/cell
     absolute magnetization    =     1.12 Bohr mag/cell

     iteration # 19     ecut=    50.00 Ry     beta= 0.40
     Davidson diagonalization with overlap

---- Real-time Memory Report at c_bands before calling an iterative solver
           523 MiB given to the printing process from OS
           355 MiB allocation reported by mallinfo(arena+hblkhd)
         74057 MiB available memory on the node where the printing process lives
------------------
     ethr =  3.37E-10,  avg # of iterations =  6.5

     negative rho (up, down):  4.802E-03 5.170E-03

     total cpu time spent up to now is     7832.1 secs

     total energy              =  -16138.55498921 Ry
     estimated scf accuracy    <       0.00000231 Ry

     total magnetization       =     1.00 Bohr mag/cell
     absolute magnetization    =     1.12 Bohr mag/cell

     iteration # 20     ecut=    50.00 Ry     beta= 0.40
     Davidson diagonalization with overlap

---- Real-time Memory Report at c_bands before calling an iterative solver
           523 MiB given to the printing process from OS
           355 MiB allocation reported by mallinfo(arena+hblkhd)
         73949 MiB available memory on the node where the printing process lives
------------------
     ethr =  3.37E-10,  avg # of iterations =  4.9

     negative rho (up, down):  4.813E-03 5.182E-03

     total cpu time spent up to now is     8194.9 secs

     total energy              =  -16138.55498733 Ry
     estimated scf accuracy    <       0.00000070 Ry

     total magnetization       =     1.00 Bohr mag/cell
     absolute magnetization    =     1.12 Bohr mag/cell

     iteration # 21     ecut=    50.00 Ry     beta= 0.40
     Davidson diagonalization with overlap

---- Real-time Memory Report at c_bands before calling an iterative solver
           530 MiB given to the printing process from OS
           355 MiB allocation reported by mallinfo(arena+hblkhd)
         73981 MiB available memory on the node where the printing process lives
------------------
     ethr =  1.44E-10,  avg # of iterations =  8.7

     negative rho (up, down):  4.808E-03 5.177E-03

     total cpu time spent up to now is     8677.2 secs

     total energy              =  -16138.55498818 Ry
     estimated scf accuracy    <       0.00000091 Ry

     total magnetization       =     1.00 Bohr mag/cell
     absolute magnetization    =     1.12 Bohr mag/cell

     iteration # 22     ecut=    50.00 Ry     beta= 0.40
     Davidson diagonalization with overlap

---- Real-time Memory Report at c_bands before calling an iterative solver
           531 MiB given to the printing process from OS
           355 MiB allocation reported by mallinfo(arena+hblkhd)
         73868 MiB available memory on the node where the printing process lives
------------------
     ethr =  1.44E-10,  avg # of iterations =  2.3

     negative rho (up, down):  4.801E-03 5.168E-03

     total cpu time spent up to now is     8979.9 secs

     total energy              =  -16138.55498910 Ry
     estimated scf accuracy    <       0.00000034 Ry

     total magnetization       =     1.00 Bohr mag/cell
     absolute magnetization    =     1.12 Bohr mag/cell

     iteration # 23     ecut=    50.00 Ry     beta= 0.40
     Davidson diagonalization with overlap

---- Real-time Memory Report at c_bands before calling an iterative solver
           531 MiB given to the printing process from OS
           355 MiB allocation reported by mallinfo(arena+hblkhd)
         72969 MiB available memory on the node where the printing process lives
------------------
     ethr =  6.91E-11,  avg # of iterations = 10.2

     negative rho (up, down):  4.798E-03 5.166E-03

     total cpu time spent up to now is     9462.4 secs

     total energy              =  -16138.55498943 Ry
     estimated scf accuracy    <       0.00000018 Ry

     total magnetization       =     1.00 Bohr mag/cell
     absolute magnetization    =     1.12 Bohr mag/cell

     iteration # 24     ecut=    50.00 Ry     beta= 0.40
     Davidson diagonalization with overlap

---- Real-time Memory Report at c_bands before calling an iterative solver
           531 MiB given to the printing process from OS
           355 MiB allocation reported by mallinfo(arena+hblkhd)
         73779 MiB available memory on the node where the printing process lives
------------------
     ethr =  3.71E-11,  avg # of iterations =  3.1

     negative rho (up, down):  4.798E-03 5.165E-03

     total cpu time spent up to now is     9767.8 secs

     total energy              =  -16138.55498944 Ry
     estimated scf accuracy    <       0.00000009 Ry

     total magnetization       =     1.00 Bohr mag/cell
     absolute magnetization    =     1.12 Bohr mag/cell

     iteration # 25     ecut=    50.00 Ry     beta= 0.40
     Davidson diagonalization with overlap

---- Real-time Memory Report at c_bands before calling an iterative solver
           531 MiB given to the printing process from OS
           355 MiB allocation reported by mallinfo(arena+hblkhd)
         73907 MiB available memory on the node where the printing process lives
------------------
     ethr =  1.81E-11,  avg # of iterations =  7.8

     negative rho (up, down):  4.797E-03 5.165E-03

     total cpu time spent up to now is    10177.8 secs

     total energy              =  -16138.55498951 Ry
     estimated scf accuracy    <          6.5E-09 Ry

     total magnetization       =     1.00 Bohr mag/cell
     absolute magnetization    =     1.12 Bohr mag/cell

     iteration # 26     ecut=    50.00 Ry     beta= 0.40
     Davidson diagonalization with overlap

---- Real-time Memory Report at c_bands before calling an iterative solver
           531 MiB given to the printing process from OS
           355 MiB allocation reported by mallinfo(arena+hblkhd)
         73877 MiB available memory on the node where the printing process lives
------------------
     ethr =  1.34E-12,  avg # of iterations =  6.8

     negative rho (up, down):  4.797E-03 5.165E-03

     total cpu time spent up to now is    10599.3 secs

     total energy              =  -16138.55498952 Ry
     estimated scf accuracy    <          5.3E-09 Ry

     total magnetization       =     1.00 Bohr mag/cell
     absolute magnetization    =     1.12 Bohr mag/cell

     iteration # 27     ecut=    50.00 Ry     beta= 0.40
     Davidson diagonalization with overlap

---- Real-time Memory Report at c_bands before calling an iterative solver
           531 MiB given to the printing process from OS
           355 MiB allocation reported by mallinfo(arena+hblkhd)
         72089 MiB available memory on the node where the printing process lives
------------------
     ethr =  1.10E-12,  avg # of iterations =  6.3

     negative rho (up, down):  4.797E-03 5.165E-03

     total cpu time spent up to now is    11008.3 secs

     total energy              =  -16138.55498952 Ry
     estimated scf accuracy    <          4.9E-09 Ry

     total magnetization       =     1.00 Bohr mag/cell
     absolute magnetization    =     1.12 Bohr mag/cell

     iteration # 28     ecut=    50.00 Ry     beta= 0.40
     Davidson diagonalization with overlap

---- Real-time Memory Report at c_bands before calling an iterative solver
           531 MiB given to the printing process from OS
           355 MiB allocation reported by mallinfo(arena+hblkhd)
         73650 MiB available memory on the node where the printing process lives
------------------
     ethr =  1.02E-12,  avg # of iterations =  2.0

     negative rho (up, down):  4.797E-03 5.165E-03

     total cpu time spent up to now is    11310.3 secs

     total energy              =  -16138.55498952 Ry
     estimated scf accuracy    <          2.8E-09 Ry

     total magnetization       =     1.00 Bohr mag/cell
     absolute magnetization    =     1.12 Bohr mag/cell

     iteration # 29     ecut=    50.00 Ry     beta= 0.40
     Davidson diagonalization with overlap

---- Real-time Memory Report at c_bands before calling an iterative solver
           531 MiB given to the printing process from OS
           355 MiB allocation reported by mallinfo(arena+hblkhd)
         73683 MiB available memory on the node where the printing process lives
------------------
     ethr =  5.69E-13,  avg # of iterations =  7.1

     negative rho (up, down):  4.797E-03 5.165E-03

     total cpu time spent up to now is    11760.5 secs

     total energy              =  -16138.55498952 Ry
     estimated scf accuracy    <          4.0E-09 Ry

     total magnetization       =     1.00 Bohr mag/cell
     absolute magnetization    =     1.12 Bohr mag/cell

     iteration # 30     ecut=    50.00 Ry     beta= 0.40
     Davidson diagonalization with overlap

---- Real-time Memory Report at c_bands before calling an iterative solver
           531 MiB given to the printing process from OS
           355 MiB allocation reported by mallinfo(arena+hblkhd)
         73672 MiB available memory on the node where the printing process lives
------------------
     ethr =  5.69E-13,  avg # of iterations =  2.0

     negative rho (up, down):  4.796E-03 5.165E-03

     total cpu time spent up to now is    12059.3 secs

     total energy              =  -16138.55498952 Ry
     estimated scf accuracy    <          3.2E-09 Ry

     total magnetization       =     1.00 Bohr mag/cell
     absolute magnetization    =     1.12 Bohr mag/cell

     iteration # 31     ecut=    50.00 Ry     beta= 0.40
     Davidson diagonalization with overlap

---- Real-time Memory Report at c_bands before calling an iterative solver
           531 MiB given to the printing process from OS
           355 MiB allocation reported by mallinfo(arena+hblkhd)
         73601 MiB available memory on the node where the printing process lives
------------------
     ethr =  5.69E-13,  avg # of iterations =  4.7

     negative rho (up, down):  4.796E-03 5.165E-03

     total cpu time spent up to now is    12382.3 secs

     total energy              =  -16138.55498952 Ry
     estimated scf accuracy    <          8.2E-10 Ry

     total magnetization       =     1.00 Bohr mag/cell
     absolute magnetization    =     1.12 Bohr mag/cell

     iteration # 32     ecut=    50.00 Ry     beta= 0.40
     Davidson diagonalization with overlap

---- Real-time Memory Report at c_bands before calling an iterative solver
           531 MiB given to the printing process from OS
           355 MiB allocation reported by mallinfo(arena+hblkhd)
         73614 MiB available memory on the node where the printing process lives
------------------
     ethr =  1.69E-13,  avg # of iterations =  7.5

     negative rho (up, down):  4.796E-03 5.165E-03

     total cpu time spent up to now is    12820.9 secs

     total energy              =  -16138.55498952 Ry
     estimated scf accuracy    <          6.2E-10 Ry

     total magnetization       =     1.00 Bohr mag/cell
     absolute magnetization    =     1.12 Bohr mag/cell

     iteration # 33     ecut=    50.00 Ry     beta= 0.40
     Davidson diagonalization with overlap

---- Real-time Memory Report at c_bands before calling an iterative solver
           531 MiB given to the printing process from OS
           355 MiB allocation reported by mallinfo(arena+hblkhd)
         73695 MiB available memory on the node where the printing process lives
------------------
     ethr =  1.29E-13,  avg # of iterations =  9.1

     negative rho (up, down):  4.796E-03 5.165E-03

     total cpu time spent up to now is    13159.2 secs

     total energy              =  -16138.55498952 Ry
     estimated scf accuracy    <          1.6E-10 Ry

     total magnetization       =     1.00 Bohr mag/cell
     absolute magnetization    =     1.12 Bohr mag/cell

     iteration # 34     ecut=    50.00 Ry     beta= 0.40
     Davidson diagonalization with overlap

---- Real-time Memory Report at c_bands before calling an iterative solver
           531 MiB given to the printing process from OS
           355 MiB allocation reported by mallinfo(arena+hblkhd)
         73586 MiB available memory on the node where the printing process lives
------------------
     ethr =  1.00E-13,  avg # of iterations =  4.9

     negative rho (up, down):  4.796E-03 5.165E-03

     Magnetic moment per site  (integrated on atomic sphere of radius R)
     atom   1 (R=0.078)  charge= 10.3731  magn=  0.0015
     atom   2 (R=0.078)  charge= 10.3731  magn=  0.0080
     atom   3 (R=0.078)  charge= 10.3740  magn= -0.0007
     atom   4 (R=0.078)  charge= 10.3743  magn=  0.0148
     atom   5 (R=0.078)  charge= 10.3763  magn=  0.0111
     atom   6 (R=0.078)  charge= 10.3757  magn=  0.0063
     atom   7 (R=0.078)  charge= 10.3783  magn=  0.0052
     atom   8 (R=0.078)  charge= 10.3749  magn=  0.0108
     atom   9 (R=0.078)  charge= 10.3753  magn=  0.0033
     atom  10 (R=0.078)  charge= 10.3820  magn=  0.0365
     atom  11 (R=0.078)  charge= 10.3836  magn=  0.0167
     atom  12 (R=0.078)  charge= 10.3743  magn=  0.0165
     atom  13 (R=0.078)  charge= 10.3732  magn=  0.0029
     atom  14 (R=0.078)  charge= 10.3740  magn= -0.0006
     atom  15 (R=0.078)  charge= 10.3816  magn=  0.0171
     atom  16 (R=0.078)  charge= 10.3760  magn=  0.0042
     atom  17 (R=0.078)  charge=  4.1591  magn=  0.0027
     atom  18 (R=0.078)  charge=  4.1558  magn=  0.0017
     atom  19 (R=0.078)  charge=  4.1586  magn= -0.0000
     atom  20 (R=0.078)  charge=  4.1590  magn=  0.0028
     atom  21 (R=0.078)  charge=  4.1594  magn=  0.0025
     atom  22 (R=0.078)  charge=  4.1750  magn=  0.0122
     atom  23 (R=0.078)  charge=  4.1787  magn=  0.0050
     atom  24 (R=0.078)  charge=  4.1586  magn=  0.0036
     atom  25 (R=0.078)  charge=  4.1591  magn=  0.0022
     atom  26 (R=0.078)  charge=  4.1626  magn=  0.0026
     atom  27 (R=0.078)  charge=  4.1805  magn=  0.0068
     atom  28 (R=0.078)  charge=  4.1668  magn=  0.0125
     atom  29 (R=0.078)  charge=  4.1578  magn=  0.0030
     atom  30 (R=0.078)  charge=  4.1574  magn=  0.0007
     atom  31 (R=0.078)  charge=  4.1566  magn=  0.0017
     atom  32 (R=0.078)  charge=  4.1575  magn=  0.0062
     atom  33 (R=0.078)  charge=  4.1610  magn=  0.0008
     atom  34 (R=0.078)  charge=  4.1591  magn=  0.0008
     atom  35 (R=0.078)  charge=  4.1606  magn= -0.0002
     atom  36 (R=0.078)  charge=  4.1609  magn=  0.0001
     atom  37 (R=0.078)  charge=  4.1601  magn=  0.0005
     atom  38 (R=0.078)  charge=  4.1589  magn=  0.0036
     atom  39 (R=0.078)  charge=  4.1568  magn=  0.0010
     atom  40 (R=0.078)  charge=  4.1595  magn= -0.0001
     atom  41 (R=0.078)  charge=  4.1602  magn=  0.0005
     atom  42 (R=0.078)  charge=  4.1579  magn=  0.0018
     atom  43 (R=0.078)  charge=  4.1526  magn=  0.0025
     atom  44 (R=0.078)  charge=  4.1584  magn=  0.0032
     atom  45 (R=0.078)  charge=  4.1594  magn=  0.0015
     atom  46 (R=0.078)  charge=  4.1597  magn=  0.0002
     atom  47 (R=0.078)  charge=  4.1603  magn=  0.0006
     atom  48 (R=0.078)  charge=  4.1598  magn=  0.0022
     atom  49 (R=0.076)  charge=  8.4233  magn=  0.0119
     atom  50 (R=0.076)  charge=  8.4189  magn=  0.0322
     atom  51 (R=0.076)  charge=  8.4226  magn=  0.0135
     atom  52 (R=0.076)  charge=  8.4191  magn=  0.0345
     atom  53 (R=0.076)  charge=  8.4087  magn=  0.0188
     atom  54 (R=0.033)  charge=  1.2886  magn= -0.0002
     atom  55 (R=0.032)  charge=  2.0225  magn=  0.0004
     atom  56 (R=0.032)  charge=  0.4271  magn=  0.0002
     atom  57 (R=0.032)  charge=  0.4027  magn=  0.0001
     atom  58 (R=0.032)  charge=  0.4233  magn=  0.0001

     total cpu time spent up to now is    13475.6 secs

     End of self-consistent calculation

 ------ SPIN UP ------------


          k = 0.0000 0.0000 0.0000 (112117 PWs)   bands (ev):

   -73.8190 -73.8156 -73.8125 -73.8100 -73.8080 -73.8071 -73.8046 -73.8025
   -73.7977 -73.7958 -73.7930 -73.7909 -73.7892 -73.7564 -73.7515 -73.7420
   -38.2269 -38.2219 -38.2208 -38.1659 -38.1651 -38.1602 -38.1598 -38.1534
   -38.1455 -38.0618 -38.0590 -38.0563 -38.0557 -38.0506 -38.0485 -38.0467
   -38.0333 -38.0315 -38.0289 -38.0283 -38.0245 -38.0238 -38.0215 -38.0194
   -38.0188 -38.0160 -38.0143 -38.0065 -37.9976 -37.9946 -37.9933 -37.9903
   -37.9886 -37.9845 -37.9708 -37.9606 -37.9593 -37.9564 -37.9538 -37.9483
   -37.9273 -37.9204 -37.9159 -37.9153 -37.9115 -37.9065 -37.8723 -37.8690
   -21.4580 -15.4825 -14.6010 -13.7144 -13.7012 -13.6770 -13.6465 -13.6334
   -13.6231 -12.9856 -12.7160 -12.6804 -12.6580 -12.6422 -12.6057 -12.5839
   -12.5426 -12.5098 -12.4757 -12.4593 -12.4481 -12.4461 -12.4247 -12.4234
   -12.4186 -12.2263 -12.2042 -12.1928 -12.1772 -12.1602 -12.1563 -12.1526
   -12.1494 -12.1469  -8.0412  -7.5872  -6.3459  -6.3302  -6.3121  -6.2863
    -6.0815  -5.6182  -5.5768  -5.5548  -5.5364  -5.5312  -5.4975  -5.4489
    -5.4182  -5.3954  -5.3176  -5.2876  -5.2655  -5.1097  -5.0976  -5.0683
    -5.0633  -5.0588  -5.0577  -5.0032  -5.0018  -4.9928  -4.5285  -4.4455
    -4.4061  -4.3512  -4.2980  -4.2881  -4.2722  -4.2512  -4.2369  -4.1866
    -4.0847  -4.0147  -3.9828  -3.9666  -3.9405  -3.7994  -3.7646  -3.7623
    -3.7066  -3.6822  -3.6787  -3.6048  -3.5175  -3.4782  -3.4112  -3.4068
    -3.3772  -3.3701  -3.2936  -3.2286  -3.2008  -3.1869  -3.1683  -3.1473
    -3.1374  -3.1290  -3.1157  -3.1121  -3.0661  -2.9653  -2.8254  -2.7644
    -2.7273  -2.6802  -2.6534  -2.5962  -2.5873  -2.5235  -2.5107  -2.4701
    -2.4650  -2.4382  -2.4371  -2.4309  -2.4027  -2.3459  -2.2954  -2.2128
    -2.1366  -2.0892  -1.9843  -1.9812  -1.9589  -1.9373  -1.8744  -1.8431
    -1.8186  -1.7853  -1.7733  -1.7698  -1.7576  -1.7556  -1.7477  -1.7475
    -1.7418  -1.7135  -1.7059  -1.6708  -1.6642  -1.6493  -1.6394  -1.6143
    -1.5853  -1.5360  -1.5279  -1.5100  -1.4574  -1.4223  -1.3776  -1.3612
    -1.3158  -1.2771  -1.2089  -1.1013  -1.0602  -1.0340  -1.0186  -0.9997
    -0.7335  -0.6976  -0.6935  -0.6912  -0.6819  -0.6780  -0.6528  -0.6497
    -0.6336  -0.4006  -0.3922  -0.3806  -0.3656  -0.3531  -0.3450  -0.3294
     0.1920   1.2526   1.5317

     occupation numbers 
     1.0000   1.0000   1.0000   1.0000   1.0000   1.0000   1.0000   1.0000
     1.0000   1.0000   1.0000   1.0000   1.0000   1.0000   1.0000   1.0000
     1.0000   1.0000   1.0000   1.0000   1.0000   1.0000   1.0000   1.0000
     1.0000   1.0000   1.0000   1.0000   1.0000   1.0000   1.0000   1.0000
     1.0000   1.0000   1.0000   1.0000   1.0000   1.0000   1.0000   1.0000
     1.0000   1.0000   1.0000   1.0000   1.0000   1.0000   1.0000   1.0000
     1.0000   1.0000   1.0000   1.0000   1.0000   1.0000   1.0000   1.0000
     1.0000   1.0000   1.0000   1.0000   1.0000   1.0000   1.0000   1.0000
     1.0000   1.0000   1.0000   1.0000   1.0000   1.0000   1.0000   1.0000
     1.0000   1.0000   1.0000   1.0000   1.0000   1.0000   1.0000   1.0000
     1.0000   1.0000   1.0000   1.0000   1.0000   1.0000   1.0000   1.0000
     1.0000   1.0000   1.0000   1.0000   1.0000   1.0000   1.0000   1.0000
     1.0000   1.0000   1.0000   1.0000   1.0000   1.0000   1.0000   1.0000
     1.0000   1.0000   1.0000   1.0000   1.0000   1.0000   1.0000   1.0000
     1.0000   1.0000   1.0000   1.0000   1.0000   1.0000   1.0000   1.0000
     1.0000   1.0000   1.0000   1.0000   1.0000   1.0000   1.0000   1.0000
     1.0000   1.0000   1.0000   1.0000   1.0000   1.0000   1.0000   1.0000
     1.0000   1.0000   1.0000   1.0000   1.0000   1.0000   1.0000   1.0000
     1.0000   1.0000   1.0000   1.0000   1.0000   1.0000   1.0000   1.0000
     1.0000   1.0000   1.0000   1.0000   1.0000   1.0000   1.0000   1.0000
     1.0000   1.0000   1.0000   1.0000   1.0000   1.0000   1.0000   1.0000
     1.0000   1.0000   1.0000   1.0000   1.0000   1.0000   1.0000   1.0000
     1.0000   1.0000   1.0000   1.0000   1.0000   1.0000   1.0000   1.0000
     1.0000   1.0000   1.0000   1.0000   1.0000   1.0000   1.0000   1.0000
     1.0000   1.0000   1.0000   1.0000   1.0000   1.0000   1.0000   1.0000
     1.0000   1.0000   1.0000   1.0000   1.0000   1.0000   1.0000   1.0000
     1.0000   1.0000   1.0000   1.0000   1.0000   1.0000   1.0000   1.0000
     1.0000   1.0000   1.0000   1.0000   1.0000   1.0000   1.0000   1.0000
     1.0000   1.0000   1.0000   1.0000   1.0000   1.0000   1.0000   1.0000
     1.0000   1.0000   1.0000   1.0000   1.0000   1.0000   1.0000   1.0000
     1.0000   1.0000   1.0000

          k = 0.0000 0.2309 0.0000 (112171 PWs)   bands (ev):

   -73.8188 -73.8158 -73.8125 -73.8102 -73.8078 -73.8071 -73.8046 -73.8025
   -73.7979 -73.7958 -73.7929 -73.7910 -73.7891 -73.7564 -73.7516 -73.7421
   -38.2217 -38.2167 -38.2145 -38.1724 -38.1677 -38.1643 -38.1574 -38.1499
   -38.1429 -38.1056 -38.0809 -38.0788 -38.0548 -38.0512 -38.0476 -38.0347
   -38.0313 -38.0285 -38.0262 -38.0236 -38.0204 -38.0183 -38.0154 -38.0136
   -38.0065 -38.0011 -37.9993 -37.9979 -37.9960 -37.9942 -37.9906 -37.9892
   -37.9877 -37.9844 -37.9711 -37.9639 -37.9617 -37.9568 -37.9537 -37.9485
   -37.9345 -37.9249 -37.9240 -37.9135 -37.9102 -37.9030 -37.8797 -37.8705
   -21.4580 -15.4825 -14.5594 -13.9798 -13.8049 -13.7878 -13.4968 -13.4638
   -13.3271 -12.9696 -12.8096 -12.7378 -12.7000 -12.6900 -12.6575 -12.5902
   -12.5576 -12.5456 -12.4968 -12.4792 -12.4595 -12.4397 -12.4259 -12.3194
   -12.2876 -12.2658 -12.2465 -12.2166 -12.1878 -12.1769 -12.1705 -12.1550
   -12.0977 -12.0825  -8.0412  -7.5872  -6.2843  -6.2728  -6.2397  -6.2385
    -6.0809  -5.6735  -5.6502  -5.6330  -5.5626  -5.5214  -5.4921  -5.4740
    -5.4330  -5.4209  -5.3988  -5.3239  -5.3197  -5.2903  -5.2731  -5.0762
    -5.0691  -5.0210  -5.0050  -4.9591  -4.7424  -4.7371  -4.5948  -4.4884
    -4.4568  -4.3890  -4.3259  -4.2917  -4.2128  -4.1642  -4.1498  -4.1234
    -4.1027  -4.0657  -4.0465  -4.0042  -3.9879  -3.9157  -3.9126  -3.9040
    -3.6686  -3.5752  -3.5446  -3.5103  -3.4723  -3.4447  -3.4413  -3.3865
    -3.3667  -3.3160  -3.2986  -3.2811  -3.2762  -3.2111  -3.1971  -3.1523
    -3.1056  -3.0000  -2.9683  -2.9371  -2.8609  -2.7913  -2.7794  -2.7518
    -2.7267  -2.7206  -2.7024  -2.6899  -2.6612  -2.6360  -2.6136  -2.5476
    -2.5209  -2.5052  -2.4803  -2.4410  -2.3660  -2.3176  -2.2067  -2.1674
    -2.1277  -2.0901  -2.0213  -2.0068  -1.9882  -1.9719  -1.9409  -1.9141
    -1.8943  -1.8665  -1.8563  -1.8223  -1.7965  -1.7661  -1.7490  -1.7391
    -1.7268  -1.7079  -1.6930  -1.6692  -1.6535  -1.6121  -1.5891  -1.5559
    -1.5395  -1.4984  -1.4874  -1.4645  -1.4369  -1.3758  -1.3398  -1.3303
    -1.3001  -1.2848  -1.2503  -1.2274  -1.1706  -1.0748  -1.0502  -1.0295
    -0.9003  -0.7835  -0.7657  -0.7531  -0.5762  -0.5679  -0.5563  -0.5377
    -0.5247  -0.5148  -0.4167  -0.3806  -0.3689  -0.2719  -0.1737  -0.1487
     0.1729   1.2590   1.5630

     occupation numbers 
     1.0000   1.0000   1.0000   1.0000   1.0000   1.0000   1.0000   1.0000
     1.0000   1.0000   1.0000   1.0000   1.0000   1.0000   1.0000   1.0000
     1.0000   1.0000   1.0000   1.0000   1.0000   1.0000   1.0000   1.0000
     1.0000   1.0000   1.0000   1.0000   1.0000   1.0000   1.0000   1.0000
     1.0000   1.0000   1.0000   1.0000   1.0000   1.0000   1.0000   1.0000
     1.0000   1.0000   1.0000   1.0000   1.0000   1.0000   1.0000   1.0000
     1.0000   1.0000   1.0000   1.0000   1.0000   1.0000   1.0000   1.0000
     1.0000   1.0000   1.0000   1.0000   1.0000   1.0000   1.0000   1.0000
     1.0000   1.0000   1.0000   1.0000   1.0000   1.0000   1.0000   1.0000
     1.0000   1.0000   1.0000   1.0000   1.0000   1.0000   1.0000   1.0000
     1.0000   1.0000   1.0000   1.0000   1.0000   1.0000   1.0000   1.0000
     1.0000   1.0000   1.0000   1.0000   1.0000   1.0000   1.0000   1.0000
     1.0000   1.0000   1.0000   1.0000   1.0000   1.0000   1.0000   1.0000
     1.0000   1.0000   1.0000   1.0000   1.0000   1.0000   1.0000   1.0000
     1.0000   1.0000   1.0000   1.0000   1.0000   1.0000   1.0000   1.0000
     1.0000   1.0000   1.0000   1.0000   1.0000   1.0000   1.0000   1.0000
     1.0000   1.0000   1.0000   1.0000   1.0000   1.0000   1.0000   1.0000
     1.0000   1.0000   1.0000   1.0000   1.0000   1.0000   1.0000   1.0000
     1.0000   1.0000   1.0000   1.0000   1.0000   1.0000   1.0000   1.0000
     1.0000   1.0000   1.0000   1.0000   1.0000   1.0000   1.0000   1.0000
     1.0000   1.0000   1.0000   1.0000   1.0000   1.0000   1.0000   1.0000
     1.0000   1.0000   1.0000   1.0000   1.0000   1.0000   1.0000   1.0000
     1.0000   1.0000   1.0000   1.0000   1.0000   1.0000   1.0000   1.0000
     1.0000   1.0000   1.0000   1.0000   1.0000   1.0000   1.0000   1.0000
     1.0000   1.0000   1.0000   1.0000   1.0000   1.0000   1.0000   1.0000
     1.0000   1.0000   1.0000   1.0000   1.0000   1.0000   1.0000   1.0000
     1.0000   1.0000   1.0000   1.0000   1.0000   1.0000   1.0000   1.0000
     1.0000   1.0000   1.0000   1.0000   1.0000   1.0000   1.0000   1.0000
     1.0000   1.0000   1.0000   1.0000   1.0000   1.0000   1.0000   1.0000
     1.0000   1.0000   1.0000   1.0000   1.0000   1.0000   1.0000   1.0000
     1.0000   1.0000   1.0000

          k = 0.0000 0.4619 0.0000 (112236 PWs)   bands (ev):

   -73.8185 -73.8162 -73.8126 -73.8104 -73.8076 -73.8070 -73.8046 -73.8024
   -73.7981 -73.7958 -73.7927 -73.7912 -73.7891 -73.7564 -73.7516 -73.7421
   -38.2085 -38.2059 -38.1925 -38.1899 -38.1779 -38.1683 -38.1619 -38.1490
   -38.1330 -38.1282 -38.1076 -38.1031 -38.0658 -38.0605 -38.0493 -38.0405
   -38.0334 -38.0225 -38.0189 -38.0146 -38.0113 -38.0086 -38.0049 -38.0026
   -38.0007 -37.9993 -37.9988 -37.9932 -37.9904 -37.9875 -37.9843 -37.9807
   -37.9756 -37.9721 -37.9689 -37.9674 -37.9551 -37.9534 -37.9514 -37.9497
   -37.9450 -37.9383 -37.9336 -37.9180 -37.9131 -37.8972 -37.8956 -37.8734
   -21.4580 -15.4825 -14.4377 -14.2363 -13.8747 -13.8559 -13.2679 -13.2326
   -13.0229 -13.0020 -12.9727 -12.9199 -12.8354 -12.7335 -12.7070 -12.6914
   -12.5242 -12.5170 -12.4654 -12.4522 -12.4392 -12.4270 -12.3848 -12.3715
   -12.3529 -12.2865 -12.2188 -12.2041 -12.1796 -12.1613 -12.1594 -12.1550
   -12.0585 -12.0417  -8.0412  -7.5872  -6.1414  -6.1183  -6.1001  -6.0723
    -6.0298  -5.8758  -5.8635  -5.8409  -5.7172  -5.5374  -5.5027  -5.4912
    -5.4631  -5.4486  -5.4402  -5.3964  -5.3767  -5.3290  -5.3045  -5.0695
    -5.0662  -5.0334  -5.0119  -4.8138  -4.6354  -4.5324  -4.4897  -4.4433
    -4.3972  -4.3783  -4.3521  -4.3166  -4.2480  -4.2348  -4.1944  -4.1635
    -4.1325  -4.1218  -4.1058  -4.0797  -4.0682  -4.0549  -4.0454  -3.6909
    -3.5759  -3.5126  -3.4849  -3.4461  -3.4216  -3.3947  -3.3701  -3.3130
    -3.2962  -3.2851  -3.2647  -3.2429  -3.2235  -3.1899  -3.1668  -3.1106
    -3.0691  -3.0638  -3.0128  -2.9742  -2.9555  -2.9188  -2.8676  -2.7732
    -2.7548  -2.7114  -2.6710  -2.6420  -2.6142  -2.5745  -2.5358  -2.4946
    -2.4544  -2.4351  -2.3992  -2.3222  -2.2821  -2.2578  -2.2450  -2.1892
    -2.1307  -2.1006  -2.0490  -2.0232  -2.0135  -2.0036  -1.9861  -1.9576
    -1.9360  -1.9120  -1.8835  -1.8766  -1.8589  -1.8461  -1.8423  -1.8306
    -1.7799  -1.7720  -1.7268  -1.7206  -1.7014  -1.6712  -1.6367  -1.6235
    -1.5972  -1.5582  -1.5368  -1.5083  -1.4376  -1.3935  -1.3049  -1.2922
    -1.2383  -1.2067  -1.1946  -1.1535  -1.1230  -1.1011  -1.0523  -1.0105
    -0.9810  -0.8981  -0.7369  -0.7258  -0.6443  -0.6281  -0.4994  -0.4605
    -0.4470  -0.4366  -0.4012  -0.3837  -0.3183  -0.0979  -0.0012   0.0218
     0.1231   1.2687   1.6155

     occupation numbers 
     1.0000   1.0000   1.0000   1.0000   1.0000   1.0000   1.0000   1.0000
     1.0000   1.0000   1.0000   1.0000   1.0000   1.0000   1.0000   1.0000
     1.0000   1.0000   1.0000   1.0000   1.0000   1.0000   1.0000   1.0000
     1.0000   1.0000   1.0000   1.0000   1.0000   1.0000   1.0000   1.0000
     1.0000   1.0000   1.0000   1.0000   1.0000   1.0000   1.0000   1.0000
     1.0000   1.0000   1.0000   1.0000   1.0000   1.0000   1.0000   1.0000
     1.0000   1.0000   1.0000   1.0000   1.0000   1.0000   1.0000   1.0000
     1.0000   1.0000   1.0000   1.0000   1.0000   1.0000   1.0000   1.0000
     1.0000   1.0000   1.0000   1.0000   1.0000   1.0000   1.0000   1.0000
     1.0000   1.0000   1.0000   1.0000   1.0000   1.0000   1.0000   1.0000
     1.0000   1.0000   1.0000   1.0000   1.0000   1.0000   1.0000   1.0000
     1.0000   1.0000   1.0000   1.0000   1.0000   1.0000   1.0000   1.0000
     1.0000   1.0000   1.0000   1.0000   1.0000   1.0000   1.0000   1.0000
     1.0000   1.0000   1.0000   1.0000   1.0000   1.0000   1.0000   1.0000
     1.0000   1.0000   1.0000   1.0000   1.0000   1.0000   1.0000   1.0000
     1.0000   1.0000   1.0000   1.0000   1.0000   1.0000   1.0000   1.0000
     1.0000   1.0000   1.0000   1.0000   1.0000   1.0000   1.0000   1.0000
     1.0000   1.0000   1.0000   1.0000   1.0000   1.0000   1.0000   1.0000
     1.0000   1.0000   1.0000   1.0000   1.0000   1.0000   1.0000   1.0000
     1.0000   1.0000   1.0000   1.0000   1.0000   1.0000   1.0000   1.0000
     1.0000   1.0000   1.0000   1.0000   1.0000   1.0000   1.0000   1.0000
     1.0000   1.0000   1.0000   1.0000   1.0000   1.0000   1.0000   1.0000
     1.0000   1.0000   1.0000   1.0000   1.0000   1.0000   1.0000   1.0000
     1.0000   1.0000   1.0000   1.0000   1.0000   1.0000   1.0000   1.0000
     1.0000   1.0000   1.0000   1.0000   1.0000   1.0000   1.0000   1.0000
     1.0000   1.0000   1.0000   1.0000   1.0000   1.0000   1.0000   1.0000
     1.0000   1.0000   1.0000   1.0000   1.0000   1.0000   1.0000   1.0000
     1.0000   1.0000   1.0000   1.0000   1.0000   1.0000   1.0000   1.0000
     1.0000   1.0000   1.0000   1.0000   1.0000   1.0000   1.0000   1.0000
     1.0000   1.0000   1.0000   1.0000   1.0000   1.0000   1.0000   1.0000
     1.0000   1.0000   1.0000

          k = 0.2000 0.3464 0.0000 (112231 PWs)   bands (ev):

   -73.8185 -73.8162 -73.8126 -73.8102 -73.8077 -73.8069 -73.8047 -73.8025
   -73.7978 -73.7959 -73.7927 -73.7912 -73.7891 -73.7564 -73.7516 -73.7421
   -38.2139 -38.2052 -38.2019 -38.1811 -38.1781 -38.1663 -38.1576 -38.1501
   -38.1342 -38.1257 -38.1184 -38.0796 -38.0616 -38.0579 -38.0495 -38.0392
   -38.0341 -38.0310 -38.0272 -38.0217 -38.0179 -38.0114 -38.0050 -38.0021
   -37.9974 -37.9946 -37.9929 -37.9911 -37.9887 -37.9861 -37.9846 -37.9833
   -37.9782 -37.9746 -37.9711 -37.9678 -37.9610 -37.9570 -37.9538 -37.9492
   -37.9430 -37.9339 -37.9281 -37.9230 -37.9070 -37.9019 -37.8886 -37.8741
   -21.4580 -15.4825 -14.4776 -14.1060 -14.0612 -13.5695 -13.5666 -13.1773
   -13.1208 -13.0119 -12.9378 -12.8125 -12.7921 -12.7129 -12.6738 -12.6079
   -12.5974 -12.5788 -12.5739 -12.4600 -12.4270 -12.3936 -12.3792 -12.3157
   -12.2924 -12.2754 -12.2543 -12.2346 -12.2228 -12.1571 -12.1526 -12.1101
   -12.0974 -12.0379  -8.0412  -7.5872  -6.1818  -6.1657  -6.1330  -6.1081
    -6.0777  -5.7688  -5.7398  -5.7235  -5.6838  -5.6467  -5.6043  -5.5690
    -5.5077  -5.4762  -5.3580  -5.3370  -5.2867  -5.2784  -5.2458  -5.2312
    -5.0978  -4.9080  -4.8924  -4.8185  -4.7535  -4.6092  -4.4941  -4.4732
    -4.4007  -4.3696  -4.3404  -4.3070  -4.2785  -4.2656  -4.2373  -4.2292
    -4.1755  -4.1252  -4.1099  -4.0945  -4.0579  -3.7667  -3.7385  -3.7290
    -3.7212  -3.6962  -3.6036  -3.5005  -3.4324  -3.4029  -3.3534  -3.3245
    -3.2947  -3.2479  -3.2277  -3.2092  -3.1714  -3.1521  -3.1103  -3.0939
    -3.0437  -3.0176  -2.9929  -2.9539  -2.9464  -2.9285  -2.9184  -2.9030
    -2.8194  -2.7413  -2.7234  -2.6555  -2.6379  -2.5605  -2.5205  -2.4801
    -2.4662  -2.4411  -2.3896  -2.3635  -2.3176  -2.2231  -2.1873  -2.1671
    -2.1340  -2.1274  -2.0987  -2.0905  -2.0204  -2.0016  -1.9841  -1.9545
    -1.9313  -1.9087  -1.8861  -1.8595  -1.8401  -1.8315  -1.8024  -1.7570
    -1.7398  -1.7205  -1.7163  -1.6814  -1.6744  -1.6253  -1.5985  -1.5775
    -1.5689  -1.5441  -1.5397  -1.5111  -1.4305  -1.3955  -1.3838  -1.3686
    -1.2940  -1.2288  -1.2100  -1.1878  -1.1588  -1.1210  -1.0352  -1.0193
    -0.8775  -0.8508  -0.6844  -0.6748  -0.6413  -0.6340  -0.6185  -0.5443
    -0.5354  -0.4433  -0.3788  -0.2581  -0.2140  -0.2025  -0.1627   0.0690
     0.1359   1.2817   1.5877

     occupation numbers 
     1.0000   1.0000   1.0000   1.0000   1.0000   1.0000   1.0000   1.0000
     1.0000   1.0000   1.0000   1.0000   1.0000   1.0000   1.0000   1.0000
     1.0000   1.0000   1.0000   1.0000   1.0000   1.0000   1.0000   1.0000
     1.0000   1.0000   1.0000   1.0000   1.0000   1.0000   1.0000   1.0000
     1.0000   1.0000   1.0000   1.0000   1.0000   1.0000   1.0000   1.0000
     1.0000   1.0000   1.0000   1.0000   1.0000   1.0000   1.0000   1.0000
     1.0000   1.0000   1.0000   1.0000   1.0000   1.0000   1.0000   1.0000
     1.0000   1.0000   1.0000   1.0000   1.0000   1.0000   1.0000   1.0000
     1.0000   1.0000   1.0000   1.0000   1.0000   1.0000   1.0000   1.0000
     1.0000   1.0000   1.0000   1.0000   1.0000   1.0000   1.0000   1.0000
     1.0000   1.0000   1.0000   1.0000   1.0000   1.0000   1.0000   1.0000
     1.0000   1.0000   1.0000   1.0000   1.0000   1.0000   1.0000   1.0000
     1.0000   1.0000   1.0000   1.0000   1.0000   1.0000   1.0000   1.0000
     1.0000   1.0000   1.0000   1.0000   1.0000   1.0000   1.0000   1.0000
     1.0000   1.0000   1.0000   1.0000   1.0000   1.0000   1.0000   1.0000
     1.0000   1.0000   1.0000   1.0000   1.0000   1.0000   1.0000   1.0000
     1.0000   1.0000   1.0000   1.0000   1.0000   1.0000   1.0000   1.0000
     1.0000   1.0000   1.0000   1.0000   1.0000   1.0000   1.0000   1.0000
     1.0000   1.0000   1.0000   1.0000   1.0000   1.0000   1.0000   1.0000
     1.0000   1.0000   1.0000   1.0000   1.0000   1.0000   1.0000   1.0000
     1.0000   1.0000   1.0000   1.0000   1.0000   1.0000   1.0000   1.0000
     1.0000   1.0000   1.0000   1.0000   1.0000   1.0000   1.0000   1.0000
     1.0000   1.0000   1.0000   1.0000   1.0000   1.0000   1.0000   1.0000
     1.0000   1.0000   1.0000   1.0000   1.0000   1.0000   1.0000   1.0000
     1.0000   1.0000   1.0000   1.0000   1.0000   1.0000   1.0000   1.0000
     1.0000   1.0000   1.0000   1.0000   1.0000   1.0000   1.0000   1.0000
     1.0000   1.0000   1.0000   1.0000   1.0000   1.0000   1.0000   1.0000
     1.0000   1.0000   1.0000   1.0000   1.0000   1.0000   1.0000   1.0000
     1.0000   1.0000   1.0000   1.0000   1.0000   1.0000   1.0000   1.0000
     1.0000   1.0000   1.0000   1.0000   1.0000   1.0000   1.0000   1.0000
     1.0000   1.0000   1.0000

          k = 0.2000 0.5774 0.0000 (112237 PWs)   bands (ev):

   -73.8184 -73.8163 -73.8126 -73.8105 -73.8076 -73.8068 -73.8047 -73.8024
   -73.7980 -73.7959 -73.7927 -73.7912 -73.7891 -73.7564 -73.7516 -73.7421
   -38.2028 -38.1989 -38.1887 -38.1854 -38.1786 -38.1731 -38.1673 -38.1525
   -38.1492 -38.1348 -38.0947 -38.0931 -38.0890 -38.0529 -38.0475 -38.0419
   -38.0358 -38.0325 -38.0196 -38.0192 -38.0094 -38.0069 -38.0046 -38.0029
   -38.0018 -37.9991 -37.9942 -37.9904 -37.9876 -37.9841 -37.9770 -37.9726
   -37.9712 -37.9686 -37.9637 -37.9610 -37.9582 -37.9550 -37.9523 -37.9480
   -37.9444 -37.9397 -37.9338 -37.9310 -37.9195 -37.8994 -37.8904 -37.8771
   -21.4580 -15.4825 -14.3387 -14.2951 -14.1168 -13.5978 -13.3042 -13.2958
   -12.9566 -12.9509 -12.8908 -12.8557 -12.8441 -12.8043 -12.7950 -12.6605
   -12.6332 -12.6053 -12.4945 -12.4865 -12.3863 -12.3746 -12.3611 -12.3256
   -12.3117 -12.2991 -12.2609 -12.2355 -12.2344 -12.1328 -12.1227 -12.1205
   -12.0807 -12.0184  -8.0412  -7.5872  -6.0996  -6.0494  -6.0115  -5.9884
    -5.9237  -5.8985  -5.8783  -5.8523  -5.8116  -5.7458  -5.6893  -5.6265
    -5.6153  -5.5432  -5.3660  -5.2690  -5.2574  -5.2218  -5.2066  -5.1732
    -5.1572  -4.8587  -4.8344  -4.7561  -4.6364  -4.5810  -4.5505  -4.5238
    -4.4770  -4.4208  -4.4012  -4.3215  -4.3142  -4.2415  -4.2349  -4.2150
    -4.1912  -4.1674  -4.1246  -4.0976  -3.9559  -3.9523  -3.7933  -3.6649
    -3.6460  -3.5643  -3.4438  -3.3942  -3.3627  -3.3307  -3.3069  -3.2885
    -3.2751  -3.2625  -3.2467  -3.2363  -3.2180  -3.2019  -3.1459  -3.1256
    -3.1040  -3.0824  -3.0642  -3.0371  -3.0097  -2.9609  -2.8812  -2.8320
    -2.7553  -2.7227  -2.7001  -2.6740  -2.6353  -2.5500  -2.5180  -2.4580
    -2.3992  -2.3354  -2.3223  -2.3105  -2.2565  -2.2082  -2.1820  -2.1370
    -2.1223  -2.1118  -2.0817  -2.0641  -2.0199  -1.9890  -1.9693  -1.9582
    -1.9411  -1.9203  -1.8996  -1.8830  -1.8718  -1.8586  -1.8457  -1.8377
    -1.8256  -1.7847  -1.7709  -1.7415  -1.7109  -1.6897  -1.6821  -1.6531
    -1.6207  -1.5754  -1.5629  -1.5100  -1.4809  -1.4688  -1.4163  -1.3365
    -1.2869  -1.1974  -1.1622  -1.1464  -1.0992  -1.0835  -1.0099  -1.0008
    -0.8161  -0.8019  -0.7045  -0.6936  -0.6625  -0.6479  -0.5951  -0.5855
    -0.5686  -0.4199  -0.2813  -0.2726  -0.1916  -0.1276  -0.0691   0.0853
     0.1859   1.2908   1.6040

     occupation numbers 
     1.0000   1.0000   1.0000   1.0000   1.0000   1.0000   1.0000   1.0000
     1.0000   1.0000   1.0000   1.0000   1.0000   1.0000   1.0000   1.0000
     1.0000   1.0000   1.0000   1.0000   1.0000   1.0000   1.0000   1.0000
     1.0000   1.0000   1.0000   1.0000   1.0000   1.0000   1.0000   1.0000
     1.0000   1.0000   1.0000   1.0000   1.0000   1.0000   1.0000   1.0000
     1.0000   1.0000   1.0000   1.0000   1.0000   1.0000   1.0000   1.0000
     1.0000   1.0000   1.0000   1.0000   1.0000   1.0000   1.0000   1.0000
     1.0000   1.0000   1.0000   1.0000   1.0000   1.0000   1.0000   1.0000
     1.0000   1.0000   1.0000   1.0000   1.0000   1.0000   1.0000   1.0000
     1.0000   1.0000   1.0000   1.0000   1.0000   1.0000   1.0000   1.0000
     1.0000   1.0000   1.0000   1.0000   1.0000   1.0000   1.0000   1.0000
     1.0000   1.0000   1.0000   1.0000   1.0000   1.0000   1.0000   1.0000
     1.0000   1.0000   1.0000   1.0000   1.0000   1.0000   1.0000   1.0000
     1.0000   1.0000   1.0000   1.0000   1.0000   1.0000   1.0000   1.0000
     1.0000   1.0000   1.0000   1.0000   1.0000   1.0000   1.0000   1.0000
     1.0000   1.0000   1.0000   1.0000   1.0000   1.0000   1.0000   1.0000
     1.0000   1.0000   1.0000   1.0000   1.0000   1.0000   1.0000   1.0000
     1.0000   1.0000   1.0000   1.0000   1.0000   1.0000   1.0000   1.0000
     1.0000   1.0000   1.0000   1.0000   1.0000   1.0000   1.0000   1.0000
     1.0000   1.0000   1.0000   1.0000   1.0000   1.0000   1.0000   1.0000
     1.0000   1.0000   1.0000   1.0000   1.0000   1.0000   1.0000   1.0000
     1.0000   1.0000   1.0000   1.0000   1.0000   1.0000   1.0000   1.0000
     1.0000   1.0000   1.0000   1.0000   1.0000   1.0000   1.0000   1.0000
     1.0000   1.0000   1.0000   1.0000   1.0000   1.0000   1.0000   1.0000
     1.0000   1.0000   1.0000   1.0000   1.0000   1.0000   1.0000   1.0000
     1.0000   1.0000   1.0000   1.0000   1.0000   1.0000   1.0000   1.0000
     1.0000   1.0000   1.0000   1.0000   1.0000   1.0000   1.0000   1.0000
     1.0000   1.0000   1.0000   1.0000   1.0000   1.0000   1.0000   1.0000
     1.0000   1.0000   1.0000   1.0000   1.0000   1.0000   1.0000   1.0000
     1.0000   1.0000   1.0000   1.0000   1.0000   1.0000   1.0000   1.0000
     1.0000   1.0000   1.0000

          k =-0.2000 0.1155 0.0000 (112171 PWs)   bands (ev):

   -73.8189 -73.8157 -73.8126 -73.8104 -73.8078 -73.8068 -73.8046 -73.8025
   -73.7977 -73.7959 -73.7930 -73.7909 -73.7892 -73.7564 -73.7516 -73.7421
   -38.2217 -38.2169 -38.2141 -38.1709 -38.1671 -38.1659 -38.1610 -38.1483
   -38.1417 -38.1050 -38.0822 -38.0781 -38.0532 -38.0506 -38.0466 -38.0364
   -38.0302 -38.0297 -38.0271 -38.0259 -38.0188 -38.0179 -38.0157 -38.0143
   -38.0061 -38.0027 -37.9996 -37.9982 -37.9954 -37.9938 -37.9902 -37.9883
   -37.9875 -37.9843 -37.9710 -37.9643 -37.9619 -37.9562 -37.9537 -37.9485
   -37.9348 -37.9267 -37.9228 -37.9126 -37.9105 -37.9024 -37.8768 -37.8736
   -21.4580 -15.4825 -14.5594 -13.9785 -13.8050 -13.7906 -13.4817 -13.4770
   -13.3277 -12.9700 -12.7946 -12.7619 -12.6945 -12.6846 -12.6599 -12.5898
   -12.5676 -12.5241 -12.5003 -12.4813 -12.4725 -12.4348 -12.4242 -12.3105
   -12.2971 -12.2640 -12.2466 -12.2159 -12.1891 -12.1781 -12.1701 -12.1529
   -12.0974 -12.0833  -8.0412  -7.5872  -6.2884  -6.2673  -6.2465  -6.2331
    -6.0810  -5.6818  -5.6425  -5.6280  -5.5524  -5.5347  -5.4955  -5.4718
    -5.4417  -5.4230  -5.3869  -5.3310  -5.3136  -5.2853  -5.2794  -5.0849
    -5.0657  -5.0187  -5.0025  -4.9544  -4.7433  -4.7382  -4.5766  -4.5184
    -4.4535  -4.3754  -4.3432  -4.2834  -4.2110  -4.1651  -4.1505  -4.1256
    -4.1028  -4.0691  -4.0432  -3.9992  -3.9868  -3.9182  -3.9085  -3.8998
    -3.6626  -3.5910  -3.5371  -3.5057  -3.4814  -3.4627  -3.4477  -3.3779
    -3.3684  -3.3146  -3.2983  -3.2817  -3.2658  -3.2090  -3.1969  -3.1576
    -3.1050  -2.9888  -2.9682  -2.9319  -2.8369  -2.8018  -2.7786  -2.7531
    -2.7324  -2.7175  -2.7011  -2.6932  -2.6781  -2.6549  -2.6077  -2.5498
    -2.5192  -2.4843  -2.4730  -2.4452  -2.3722  -2.3145  -2.2001  -2.1789
    -2.1373  -2.0916  -2.0249  -2.0081  -1.9829  -1.9695  -1.9483  -1.9109
    -1.8886  -1.8695  -1.8455  -1.8238  -1.8095  -1.7776  -1.7476  -1.7338
    -1.7139  -1.7031  -1.6877  -1.6703  -1.6565  -1.6119  -1.5800  -1.5595
    -1.5307  -1.5087  -1.4988  -1.4384  -1.4294  -1.3768  -1.3548  -1.3331
    -1.3170  -1.2794  -1.2597  -1.2256  -1.1673  -1.0836  -1.0487  -1.0185
    -0.9032  -0.7792  -0.7622  -0.7438  -0.5896  -0.5722  -0.5560  -0.5366
    -0.5218  -0.5136  -0.4187  -0.3862  -0.3621  -0.2698  -0.1754  -0.1485
     0.1717   1.2808   1.5392

     occupation numbers 
     1.0000   1.0000   1.0000   1.0000   1.0000   1.0000   1.0000   1.0000
     1.0000   1.0000   1.0000   1.0000   1.0000   1.0000   1.0000   1.0000
     1.0000   1.0000   1.0000   1.0000   1.0000   1.0000   1.0000   1.0000
     1.0000   1.0000   1.0000   1.0000   1.0000   1.0000   1.0000   1.0000
     1.0000   1.0000   1.0000   1.0000   1.0000   1.0000   1.0000   1.0000
     1.0000   1.0000   1.0000   1.0000   1.0000   1.0000   1.0000   1.0000
     1.0000   1.0000   1.0000   1.0000   1.0000   1.0000   1.0000   1.0000
     1.0000   1.0000   1.0000   1.0000   1.0000   1.0000   1.0000   1.0000
     1.0000   1.0000   1.0000   1.0000   1.0000   1.0000   1.0000   1.0000
     1.0000   1.0000   1.0000   1.0000   1.0000   1.0000   1.0000   1.0000
     1.0000   1.0000   1.0000   1.0000   1.0000   1.0000   1.0000   1.0000
     1.0000   1.0000   1.0000   1.0000   1.0000   1.0000   1.0000   1.0000
     1.0000   1.0000   1.0000   1.0000   1.0000   1.0000   1.0000   1.0000
     1.0000   1.0000   1.0000   1.0000   1.0000   1.0000   1.0000   1.0000
     1.0000   1.0000   1.0000   1.0000   1.0000   1.0000   1.0000   1.0000
     1.0000   1.0000   1.0000   1.0000   1.0000   1.0000   1.0000   1.0000
     1.0000   1.0000   1.0000   1.0000   1.0000   1.0000   1.0000   1.0000
     1.0000   1.0000   1.0000   1.0000   1.0000   1.0000   1.0000   1.0000
     1.0000   1.0000   1.0000   1.0000   1.0000   1.0000   1.0000   1.0000
     1.0000   1.0000   1.0000   1.0000   1.0000   1.0000   1.0000   1.0000
     1.0000   1.0000   1.0000   1.0000   1.0000   1.0000   1.0000   1.0000
     1.0000   1.0000   1.0000   1.0000   1.0000   1.0000   1.0000   1.0000
     1.0000   1.0000   1.0000   1.0000   1.0000   1.0000   1.0000   1.0000
     1.0000   1.0000   1.0000   1.0000   1.0000   1.0000   1.0000   1.0000
     1.0000   1.0000   1.0000   1.0000   1.0000   1.0000   1.0000   1.0000
     1.0000   1.0000   1.0000   1.0000   1.0000   1.0000   1.0000   1.0000
     1.0000   1.0000   1.0000   1.0000   1.0000   1.0000   1.0000   1.0000
     1.0000   1.0000   1.0000   1.0000   1.0000   1.0000   1.0000   1.0000
     1.0000   1.0000   1.0000   1.0000   1.0000   1.0000   1.0000   1.0000
     1.0000   1.0000   1.0000   1.0000   1.0000   1.0000   1.0000   1.0000
     1.0000   1.0000   1.0000

          k = 0.2000 0.1155 0.0000 (112171 PWs)   bands (ev):

   -73.8188 -73.8159 -73.8125 -73.8101 -73.8079 -73.8069 -73.8047 -73.8026
   -73.7976 -73.7959 -73.7929 -73.7910 -73.7891 -73.7564 -73.7516 -73.7421
   -38.2215 -38.2175 -38.2138 -38.1717 -38.1680 -38.1648 -38.1598 -38.1485
   -38.1419 -38.1052 -38.0820 -38.0784 -38.0534 -38.0509 -38.0472 -38.0364
   -38.0303 -38.0283 -38.0273 -38.0254 -38.0190 -38.0170 -38.0162 -38.0145
   -38.0064 -38.0018 -37.9997 -37.9982 -37.9956 -37.9934 -37.9914 -37.9884
   -37.9874 -37.9842 -37.9709 -37.9637 -37.9625 -37.9564 -37.9537 -37.9484
   -37.9348 -37.9260 -37.9223 -37.9146 -37.9097 -37.9025 -37.8784 -37.8720
   -21.4580 -15.4825 -14.5594 -13.9787 -13.8041 -13.7911 -13.4809 -13.4786
   -13.3269 -12.9700 -12.7948 -12.7612 -12.6940 -12.6858 -12.6602 -12.5898
   -12.5688 -12.5225 -12.4980 -12.4832 -12.4720 -12.4371 -12.4235 -12.3059
   -12.2968 -12.2671 -12.2497 -12.2110 -12.1947 -12.1750 -12.1732 -12.1504
   -12.0945 -12.0857  -8.0412  -7.5872  -6.2830  -6.2689  -6.2496  -6.2343
    -6.0809  -5.6757  -5.6459  -5.6256  -5.5535  -5.5390  -5.4925  -5.4745
    -5.4474  -5.4268  -5.3739  -5.3305  -5.3170  -5.2859  -5.2783  -5.0807
    -5.0735  -5.0166  -5.0062  -4.9490  -4.7441  -4.7389  -4.5723  -4.5143
    -4.4508  -4.3972  -4.3423  -4.2770  -4.2102  -4.1656  -4.1525  -4.1259
    -4.1024  -4.0593  -4.0431  -4.0062  -3.9851  -3.9157  -3.9126  -3.9022
    -3.6543  -3.5735  -3.5504  -3.5124  -3.4714  -3.4601  -3.4434  -3.3868
    -3.3745  -3.3115  -3.3027  -3.2848  -3.2576  -3.2159  -3.1996  -3.1500
    -3.1114  -3.0049  -2.9630  -2.9157  -2.8326  -2.8088  -2.7844  -2.7557
    -2.7411  -2.7145  -2.7009  -2.6954  -2.6689  -2.6408  -2.6021  -2.5533
    -2.5318  -2.5015  -2.4743  -2.4317  -2.3687  -2.3080  -2.2056  -2.1840
    -2.1264  -2.0937  -2.0226  -2.0029  -1.9758  -1.9719  -1.9340  -1.9120
    -1.9039  -1.8808  -1.8421  -1.8289  -1.8103  -1.7850  -1.7489  -1.7413
    -1.7145  -1.6970  -1.6839  -1.6615  -1.6434  -1.6292  -1.5936  -1.5479
    -1.5356  -1.5080  -1.4632  -1.4479  -1.4279  -1.4080  -1.3597  -1.3144
    -1.3086  -1.3001  -1.2543  -1.2124  -1.1735  -1.0661  -1.0491  -1.0319
    -0.9024  -0.7694  -0.7609  -0.7585  -0.6012  -0.5652  -0.5514  -0.5359
    -0.5242  -0.5185  -0.4142  -0.3870  -0.3585  -0.2705  -0.1716  -0.1525
     0.1723   1.2755   1.5456

     occupation numbers 
     1.0000   1.0000   1.0000   1.0000   1.0000   1.0000   1.0000   1.0000
     1.0000   1.0000   1.0000   1.0000   1.0000   1.0000   1.0000   1.0000
     1.0000   1.0000   1.0000   1.0000   1.0000   1.0000   1.0000   1.0000
     1.0000   1.0000   1.0000   1.0000   1.0000   1.0000   1.0000   1.0000
     1.0000   1.0000   1.0000   1.0000   1.0000   1.0000   1.0000   1.0000
     1.0000   1.0000   1.0000   1.0000   1.0000   1.0000   1.0000   1.0000
     1.0000   1.0000   1.0000   1.0000   1.0000   1.0000   1.0000   1.0000
     1.0000   1.0000   1.0000   1.0000   1.0000   1.0000   1.0000   1.0000
     1.0000   1.0000   1.0000   1.0000   1.0000   1.0000   1.0000   1.0000
     1.0000   1.0000   1.0000   1.0000   1.0000   1.0000   1.0000   1.0000
     1.0000   1.0000   1.0000   1.0000   1.0000   1.0000   1.0000   1.0000
     1.0000   1.0000   1.0000   1.0000   1.0000   1.0000   1.0000   1.0000
     1.0000   1.0000   1.0000   1.0000   1.0000   1.0000   1.0000   1.0000
     1.0000   1.0000   1.0000   1.0000   1.0000   1.0000   1.0000   1.0000
     1.0000   1.0000   1.0000   1.0000   1.0000   1.0000   1.0000   1.0000
     1.0000   1.0000   1.0000   1.0000   1.0000   1.0000   1.0000   1.0000
     1.0000   1.0000   1.0000   1.0000   1.0000   1.0000   1.0000   1.0000
     1.0000   1.0000   1.0000   1.0000   1.0000   1.0000   1.0000   1.0000
     1.0000   1.0000   1.0000   1.0000   1.0000   1.0000   1.0000   1.0000
     1.0000   1.0000   1.0000   1.0000   1.0000   1.0000   1.0000   1.0000
     1.0000   1.0000   1.0000   1.0000   1.0000   1.0000   1.0000   1.0000
     1.0000   1.0000   1.0000   1.0000   1.0000   1.0000   1.0000   1.0000
     1.0000   1.0000   1.0000   1.0000   1.0000   1.0000   1.0000   1.0000
     1.0000   1.0000   1.0000   1.0000   1.0000   1.0000   1.0000   1.0000
     1.0000   1.0000   1.0000   1.0000   1.0000   1.0000   1.0000   1.0000
     1.0000   1.0000   1.0000   1.0000   1.0000   1.0000   1.0000   1.0000
     1.0000   1.0000   1.0000   1.0000   1.0000   1.0000   1.0000   1.0000
     1.0000   1.0000   1.0000   1.0000   1.0000   1.0000   1.0000   1.0000
     1.0000   1.0000   1.0000   1.0000   1.0000   1.0000   1.0000   1.0000
     1.0000   1.0000   1.0000   1.0000   1.0000   1.0000   1.0000   1.0000
     1.0000   1.0000   1.0000

          k =-0.4000 0.2309 0.0000 (112236 PWs)   bands (ev):

   -73.8186 -73.8159 -73.8126 -73.8109 -73.8077 -73.8063 -73.8049 -73.8025
   -73.7977 -73.7960 -73.7930 -73.7909 -73.7892 -73.7564 -73.7515 -73.7421
   -38.2097 -38.2039 -38.1924 -38.1861 -38.1851 -38.1663 -38.1632 -38.1491
   -38.1324 -38.1260 -38.1079 -38.1030 -38.0651 -38.0600 -38.0492 -38.0420
   -38.0312 -38.0267 -38.0166 -38.0143 -38.0115 -38.0102 -38.0062 -38.0017
   -38.0006 -37.9995 -37.9973 -37.9947 -37.9896 -37.9879 -37.9843 -37.9814
   -37.9773 -37.9715 -37.9681 -37.9673 -37.9553 -37.9533 -37.9514 -37.9488
   -37.9466 -37.9403 -37.9318 -37.9191 -37.9111 -37.8942 -37.8925 -37.8782
   -21.4580 -15.4825 -14.4382 -14.2351 -13.8720 -13.8602 -13.2520 -13.2463
   -13.0274 -13.0001 -12.9776 -12.9132 -12.8348 -12.7356 -12.7062 -12.6873
   -12.5390 -12.5118 -12.4640 -12.4552 -12.4328 -12.4254 -12.3888 -12.3657
   -12.3552 -12.2843 -12.2244 -12.2025 -12.1780 -12.1637 -12.1570 -12.1544
   -12.0585 -12.0423  -8.0412  -7.5872  -6.1431  -6.1246  -6.0947  -6.0735
    -6.0253  -5.8792  -5.8588  -5.8420  -5.7141  -5.5370  -5.5138  -5.4926
    -5.4569  -5.4492  -5.4400  -5.3916  -5.3822  -5.3198  -5.3124  -5.0850
    -5.0606  -5.0263  -5.0081  -4.8075  -4.6122  -4.5598  -4.4849  -4.4449
    -4.4165  -4.3761  -4.3550  -4.3139  -4.2491  -4.2251  -4.1983  -4.1643
    -4.1249  -4.1167  -4.1044  -4.0775  -4.0713  -4.0567  -4.0455  -3.6850
    -3.5709  -3.5260  -3.4807  -3.4616  -3.4280  -3.4013  -3.3614  -3.3212
    -3.2955  -3.2834  -3.2632  -3.2448  -3.2175  -3.2018  -3.1530  -3.1184
    -3.0756  -3.0499  -3.0173  -2.9753  -2.9412  -2.9093  -2.8430  -2.7830
    -2.7446  -2.7175  -2.6673  -2.6337  -2.6160  -2.5899  -2.5536  -2.5005
    -2.4341  -2.4291  -2.4019  -2.3397  -2.2886  -2.2568  -2.2478  -2.1797
    -2.1292  -2.1213  -2.0633  -2.0349  -2.0213  -1.9977  -1.9680  -1.9398
    -1.9212  -1.9040  -1.8936  -1.8731  -1.8678  -1.8552  -1.8419  -1.8270
    -1.7945  -1.7661  -1.7232  -1.7007  -1.6978  -1.6741  -1.6561  -1.6179
    -1.5961  -1.5673  -1.5084  -1.4804  -1.4555  -1.3632  -1.3351  -1.3055
    -1.2689  -1.2251  -1.1770  -1.1322  -1.1245  -1.1055  -1.0801  -0.9922
    -0.9746  -0.8827  -0.7390  -0.7235  -0.6444  -0.6273  -0.5151  -0.4593
    -0.4534  -0.4281  -0.4073  -0.3805  -0.3085  -0.1049  -0.0024   0.0279
     0.1174   1.3269   1.5512

     occupation numbers 
     1.0000   1.0000   1.0000   1.0000   1.0000   1.0000   1.0000   1.0000
     1.0000   1.0000   1.0000   1.0000   1.0000   1.0000   1.0000   1.0000
     1.0000   1.0000   1.0000   1.0000   1.0000   1.0000   1.0000   1.0000
     1.0000   1.0000   1.0000   1.0000   1.0000   1.0000   1.0000   1.0000
     1.0000   1.0000   1.0000   1.0000   1.0000   1.0000   1.0000   1.0000
     1.0000   1.0000   1.0000   1.0000   1.0000   1.0000   1.0000   1.0000
     1.0000   1.0000   1.0000   1.0000   1.0000   1.0000   1.0000   1.0000
     1.0000   1.0000   1.0000   1.0000   1.0000   1.0000   1.0000   1.0000
     1.0000   1.0000   1.0000   1.0000   1.0000   1.0000   1.0000   1.0000
     1.0000   1.0000   1.0000   1.0000   1.0000   1.0000   1.0000   1.0000
     1.0000   1.0000   1.0000   1.0000   1.0000   1.0000   1.0000   1.0000
     1.0000   1.0000   1.0000   1.0000   1.0000   1.0000   1.0000   1.0000
     1.0000   1.0000   1.0000   1.0000   1.0000   1.0000   1.0000   1.0000
     1.0000   1.0000   1.0000   1.0000   1.0000   1.0000   1.0000   1.0000
     1.0000   1.0000   1.0000   1.0000   1.0000   1.0000   1.0000   1.0000
     1.0000   1.0000   1.0000   1.0000   1.0000   1.0000   1.0000   1.0000
     1.0000   1.0000   1.0000   1.0000   1.0000   1.0000   1.0000   1.0000
     1.0000   1.0000   1.0000   1.0000   1.0000   1.0000   1.0000   1.0000
     1.0000   1.0000   1.0000   1.0000   1.0000   1.0000   1.0000   1.0000
     1.0000   1.0000   1.0000   1.0000   1.0000   1.0000   1.0000   1.0000
     1.0000   1.0000   1.0000   1.0000   1.0000   1.0000   1.0000   1.0000
     1.0000   1.0000   1.0000   1.0000   1.0000   1.0000   1.0000   1.0000
     1.0000   1.0000   1.0000   1.0000   1.0000   1.0000   1.0000   1.0000
     1.0000   1.0000   1.0000   1.0000   1.0000   1.0000   1.0000   1.0000
     1.0000   1.0000   1.0000   1.0000   1.0000   1.0000   1.0000   1.0000
     1.0000   1.0000   1.0000   1.0000   1.0000   1.0000   1.0000   1.0000
     1.0000   1.0000   1.0000   1.0000   1.0000   1.0000   1.0000   1.0000
     1.0000   1.0000   1.0000   1.0000   1.0000   1.0000   1.0000   1.0000
     1.0000   1.0000   1.0000   1.0000   1.0000   1.0000   1.0000   1.0000
     1.0000   1.0000   1.0000   1.0000   1.0000   1.0000   1.0000   1.0000
     1.0000   1.0000   1.0000

          k = 0.4000 0.2309 0.0000 (112236 PWs)   bands (ev):

   -73.8184 -73.8165 -73.8125 -73.8102 -73.8078 -73.8065 -73.8049 -73.8026
   -73.7974 -73.7962 -73.7927 -73.7912 -73.7891 -73.7564 -73.7516 -73.7421
   -38.2080 -38.2060 -38.1921 -38.1888 -38.1824 -38.1652 -38.1636 -38.1490
   -38.1319 -38.1265 -38.1085 -38.1033 -38.0646 -38.0610 -38.0490 -38.0422
   -38.0304 -38.0268 -38.0158 -38.0134 -38.0127 -38.0115 -38.0063 -38.0020
   -37.9998 -37.9985 -37.9968 -37.9936 -37.9915 -37.9880 -37.9840 -37.9814
   -37.9786 -37.9713 -37.9687 -37.9662 -37.9548 -37.9523 -37.9518 -37.9486
   -37.9467 -37.9393 -37.9319 -37.9200 -37.9115 -37.8960 -37.8936 -37.8758
   -21.4580 -15.4825 -14.4381 -14.2353 -13.8714 -13.8608 -13.2518 -13.2473
   -13.0241 -13.0000 -12.9796 -12.9124 -12.8357 -12.7332 -12.7080 -12.6882
   -12.5458 -12.5045 -12.4683 -12.4528 -12.4317 -12.4256 -12.3891 -12.3643
   -12.3528 -12.2843 -12.2312 -12.2004 -12.1800 -12.1627 -12.1574 -12.1518
   -12.0555 -12.0448  -8.0412  -7.5872  -6.1384  -6.1215  -6.0949  -6.0734
    -6.0390  -5.8719  -5.8585  -5.8386  -5.7191  -5.5381  -5.5123  -5.4955
    -5.4515  -5.4508  -5.4426  -5.3911  -5.3855  -5.3176  -5.3115  -5.0763
    -5.0723  -5.0246  -5.0128  -4.7796  -4.6256  -4.5637  -4.4934  -4.4551
    -4.4227  -4.3751  -4.3531  -4.3079  -4.2434  -4.2295  -4.1941  -4.1619
    -4.1284  -4.1182  -4.1055  -4.0794  -4.0663  -4.0543  -4.0460  -3.6704
    -3.5647  -3.5281  -3.4715  -3.4537  -3.4337  -3.4039  -3.3640  -3.3297
    -3.2940  -3.2813  -3.2579  -3.2422  -3.2220  -3.2075  -3.1426  -3.1216
    -3.0935  -3.0600  -3.0239  -2.9740  -2.9429  -2.9092  -2.8539  -2.7820
    -2.7474  -2.6947  -2.6603  -2.6335  -2.6227  -2.6051  -2.5230  -2.5008
    -2.4644  -2.4351  -2.3793  -2.3368  -2.2806  -2.2630  -2.2491  -2.1639
    -2.1288  -2.1211  -2.0480  -2.0200  -2.0140  -1.9902  -1.9832  -1.9674
    -1.9435  -1.9086  -1.8977  -1.8721  -1.8598  -1.8510  -1.8419  -1.8271
    -1.8104  -1.7558  -1.7354  -1.7159  -1.6988  -1.6526  -1.6389  -1.6303
    -1.6023  -1.5602  -1.5161  -1.5028  -1.4294  -1.3663  -1.3177  -1.2977
    -1.2649  -1.2412  -1.1963  -1.1378  -1.1216  -1.0686  -1.0571  -1.0081
    -0.9807  -0.8941  -0.7342  -0.7298  -0.6430  -0.6336  -0.5247  -0.4628
    -0.4521  -0.4263  -0.4082  -0.3707  -0.3024  -0.1065  -0.0011   0.0239
     0.1207   1.3100   1.5718

     occupation numbers 
     1.0000   1.0000   1.0000   1.0000   1.0000   1.0000   1.0000   1.0000
     1.0000   1.0000   1.0000   1.0000   1.0000   1.0000   1.0000   1.0000
     1.0000   1.0000   1.0000   1.0000   1.0000   1.0000   1.0000   1.0000
     1.0000   1.0000   1.0000   1.0000   1.0000   1.0000   1.0000   1.0000
     1.0000   1.0000   1.0000   1.0000   1.0000   1.0000   1.0000   1.0000
     1.0000   1.0000   1.0000   1.0000   1.0000   1.0000   1.0000   1.0000
     1.0000   1.0000   1.0000   1.0000   1.0000   1.0000   1.0000   1.0000
     1.0000   1.0000   1.0000   1.0000   1.0000   1.0000   1.0000   1.0000
     1.0000   1.0000   1.0000   1.0000   1.0000   1.0000   1.0000   1.0000
     1.0000   1.0000   1.0000   1.0000   1.0000   1.0000   1.0000   1.0000
     1.0000   1.0000   1.0000   1.0000   1.0000   1.0000   1.0000   1.0000
     1.0000   1.0000   1.0000   1.0000   1.0000   1.0000   1.0000   1.0000
     1.0000   1.0000   1.0000   1.0000   1.0000   1.0000   1.0000   1.0000
     1.0000   1.0000   1.0000   1.0000   1.0000   1.0000   1.0000   1.0000
     1.0000   1.0000   1.0000   1.0000   1.0000   1.0000   1.0000   1.0000
     1.0000   1.0000   1.0000   1.0000   1.0000   1.0000   1.0000   1.0000
     1.0000   1.0000   1.0000   1.0000   1.0000   1.0000   1.0000   1.0000
     1.0000   1.0000   1.0000   1.0000   1.0000   1.0000   1.0000   1.0000
     1.0000   1.0000   1.0000   1.0000   1.0000   1.0000   1.0000   1.0000
     1.0000   1.0000   1.0000   1.0000   1.0000   1.0000   1.0000   1.0000
     1.0000   1.0000   1.0000   1.0000   1.0000   1.0000   1.0000   1.0000
     1.0000   1.0000   1.0000   1.0000   1.0000   1.0000   1.0000   1.0000
     1.0000   1.0000   1.0000   1.0000   1.0000   1.0000   1.0000   1.0000
     1.0000   1.0000   1.0000   1.0000   1.0000   1.0000   1.0000   1.0000
     1.0000   1.0000   1.0000   1.0000   1.0000   1.0000   1.0000   1.0000
     1.0000   1.0000   1.0000   1.0000   1.0000   1.0000   1.0000   1.0000
     1.0000   1.0000   1.0000   1.0000   1.0000   1.0000   1.0000   1.0000
     1.0000   1.0000   1.0000   1.0000   1.0000   1.0000   1.0000   1.0000
     1.0000   1.0000   1.0000   1.0000   1.0000   1.0000   1.0000   1.0000
     1.0000   1.0000   1.0000   1.0000   1.0000   1.0000   1.0000   1.0000
     1.0000   1.0000   1.0000

          k =-0.2000 0.3464 0.0000 (112231 PWs)   bands (ev):

   -73.8186 -73.8159 -73.8126 -73.8106 -73.8076 -73.8067 -73.8046 -73.8024
   -73.7979 -73.7958 -73.7929 -73.7910 -73.7891 -73.7564 -73.7516 -73.7421
   -38.2142 -38.2041 -38.2026 -38.1812 -38.1776 -38.1663 -38.1575 -38.1513
   -38.1348 -38.1275 -38.1150 -38.0790 -38.0629 -38.0575 -38.0499 -38.0392
   -38.0342 -38.0305 -38.0271 -38.0223 -38.0181 -38.0102 -38.0056 -38.0017
   -37.9982 -37.9953 -37.9933 -37.9904 -37.9883 -37.9859 -37.9842 -37.9830
   -37.9786 -37.9755 -37.9715 -37.9671 -37.9603 -37.9573 -37.9537 -37.9491
   -37.9435 -37.9344 -37.9287 -37.9235 -37.9054 -37.9005 -37.8886 -37.8751
   -21.4580 -15.4825 -14.4777 -14.1052 -14.0620 -13.5763 -13.5593 -13.1780
   -13.1214 -13.0119 -12.9376 -12.8108 -12.7937 -12.7088 -12.6748 -12.6223
   -12.5875 -12.5791 -12.5711 -12.4573 -12.4284 -12.3961 -12.3817 -12.3126
   -12.2941 -12.2763 -12.2537 -12.2289 -12.2251 -12.1589 -12.1521 -12.1106
   -12.0977 -12.0376  -8.0412  -7.5872  -6.1926  -6.1616  -6.1261  -6.1060
    -6.0777  -5.7715  -5.7405  -5.7194  -5.7021  -5.6289  -5.6049  -5.5665
    -5.5102  -5.4786  -5.3589  -5.3337  -5.3027  -5.2679  -5.2446  -5.2238
    -5.1003  -4.9167  -4.8973  -4.7994  -4.7585  -4.6119  -4.5204  -4.4508
    -4.3982  -4.3472  -4.3380  -4.3121  -4.2832  -4.2634  -4.2483  -4.2301
    -4.1669  -4.1328  -4.1139  -4.0958  -4.0567  -3.7754  -3.7427  -3.7314
    -3.7112  -3.6947  -3.6050  -3.5109  -3.4254  -3.3850  -3.3755  -3.3097
    -3.2918  -3.2437  -3.2357  -3.2066  -3.1693  -3.1501  -3.1297  -3.0866
    -3.0652  -3.0151  -2.9773  -2.9482  -2.9358  -2.9296  -2.9257  -2.9045
    -2.8009  -2.7424  -2.7217  -2.6791  -2.6325  -2.5612  -2.5307  -2.4801
    -2.4653  -2.4115  -2.3933  -2.3669  -2.3244  -2.2234  -2.2007  -2.1608
    -2.1406  -2.1264  -2.1110  -2.0855  -2.0406  -1.9934  -1.9865  -1.9469
    -1.9233  -1.9046  -1.8722  -1.8580  -1.8289  -1.8208  -1.8003  -1.7808
    -1.7495  -1.7172  -1.7054  -1.6823  -1.6588  -1.6416  -1.5922  -1.5865
    -1.5642  -1.5516  -1.5342  -1.5139  -1.4456  -1.4003  -1.3884  -1.3498
    -1.2933  -1.2510  -1.1996  -1.1760  -1.1612  -1.1243  -1.0491  -1.0070
    -0.8795  -0.8407  -0.6907  -0.6742  -0.6410  -0.6311  -0.6133  -0.5462
    -0.5392  -0.4334  -0.3886  -0.2607  -0.2095  -0.2020  -0.1651   0.0697
     0.1342   1.2896   1.5777

     occupation numbers 
     1.0000   1.0000   1.0000   1.0000   1.0000   1.0000   1.0000   1.0000
     1.0000   1.0000   1.0000   1.0000   1.0000   1.0000   1.0000   1.0000
     1.0000   1.0000   1.0000   1.0000   1.0000   1.0000   1.0000   1.0000
     1.0000   1.0000   1.0000   1.0000   1.0000   1.0000   1.0000   1.0000
     1.0000   1.0000   1.0000   1.0000   1.0000   1.0000   1.0000   1.0000
     1.0000   1.0000   1.0000   1.0000   1.0000   1.0000   1.0000   1.0000
     1.0000   1.0000   1.0000   1.0000   1.0000   1.0000   1.0000   1.0000
     1.0000   1.0000   1.0000   1.0000   1.0000   1.0000   1.0000   1.0000
     1.0000   1.0000   1.0000   1.0000   1.0000   1.0000   1.0000   1.0000
     1.0000   1.0000   1.0000   1.0000   1.0000   1.0000   1.0000   1.0000
     1.0000   1.0000   1.0000   1.0000   1.0000   1.0000   1.0000   1.0000
     1.0000   1.0000   1.0000   1.0000   1.0000   1.0000   1.0000   1.0000
     1.0000   1.0000   1.0000   1.0000   1.0000   1.0000   1.0000   1.0000
     1.0000   1.0000   1.0000   1.0000   1.0000   1.0000   1.0000   1.0000
     1.0000   1.0000   1.0000   1.0000   1.0000   1.0000   1.0000   1.0000
     1.0000   1.0000   1.0000   1.0000   1.0000   1.0000   1.0000   1.0000
     1.0000   1.0000   1.0000   1.0000   1.0000   1.0000   1.0000   1.0000
     1.0000   1.0000   1.0000   1.0000   1.0000   1.0000   1.0000   1.0000
     1.0000   1.0000   1.0000   1.0000   1.0000   1.0000   1.0000   1.0000
     1.0000   1.0000   1.0000   1.0000   1.0000   1.0000   1.0000   1.0000
     1.0000   1.0000   1.0000   1.0000   1.0000   1.0000   1.0000   1.0000
     1.0000   1.0000   1.0000   1.0000   1.0000   1.0000   1.0000   1.0000
     1.0000   1.0000   1.0000   1.0000   1.0000   1.0000   1.0000   1.0000
     1.0000   1.0000   1.0000   1.0000   1.0000   1.0000   1.0000   1.0000
     1.0000   1.0000   1.0000   1.0000   1.0000   1.0000   1.0000   1.0000
     1.0000   1.0000   1.0000   1.0000   1.0000   1.0000   1.0000   1.0000
     1.0000   1.0000   1.0000   1.0000   1.0000   1.0000   1.0000   1.0000
     1.0000   1.0000   1.0000   1.0000   1.0000   1.0000   1.0000   1.0000
     1.0000   1.0000   1.0000   1.0000   1.0000   1.0000   1.0000   1.0000
     1.0000   1.0000   1.0000   1.0000   1.0000   1.0000   1.0000   1.0000
     1.0000   1.0000   1.0000

          k = 0.4000-0.0000 0.0000 (112231 PWs)   bands (ev):

   -73.8186 -73.8161 -73.8126 -73.8105 -73.8078 -73.8064 -73.8049 -73.8025
   -73.7975 -73.7961 -73.7929 -73.7910 -73.7891 -73.7564 -73.7516 -73.7421
   -38.2142 -38.2048 -38.2016 -38.1810 -38.1778 -38.1676 -38.1580 -38.1514
   -38.1340 -38.1260 -38.1145 -38.0788 -38.0637 -38.0581 -38.0497 -38.0399
   -38.0327 -38.0307 -38.0272 -38.0238 -38.0160 -38.0112 -38.0059 -38.0005
   -37.9981 -37.9955 -37.9932 -37.9909 -37.9897 -37.9871 -37.9840 -37.9820
   -37.9771 -37.9766 -37.9713 -37.9674 -37.9603 -37.9568 -37.9535 -37.9488
   -37.9441 -37.9337 -37.9298 -37.9241 -37.9035 -37.9002 -37.8875 -37.8771
   -21.4580 -15.4825 -14.4778 -14.1016 -14.0656 -13.5707 -13.5656 -13.1730
   -13.1247 -13.0158 -12.9314 -12.8067 -12.7978 -12.7135 -12.6840 -12.6045
   -12.6016 -12.5761 -12.5631 -12.4590 -12.4257 -12.4149 -12.3668 -12.3097
   -12.2952 -12.2732 -12.2564 -12.2367 -12.2222 -12.1597 -12.1496 -12.1084
   -12.0991 -12.0381  -8.0412  -7.5872  -6.1839  -6.1697  -6.1224  -6.1124
    -6.0778  -5.7610  -5.7453  -5.7234  -5.6904  -5.6393  -5.6113  -5.5641
    -5.5082  -5.4758  -5.3544  -5.3376  -5.2953  -5.2743  -5.2471  -5.2320
    -5.0999  -4.9045  -4.8892  -4.8129  -4.7587  -4.5750  -4.5419  -4.4687
    -4.4125  -4.3494  -4.3406  -4.3159  -4.2782  -4.2670  -4.2462  -4.2133
    -4.1777  -4.1201  -4.1128  -4.0925  -4.0568  -3.7645  -3.7373  -3.7303
    -3.7104  -3.7012  -3.6189  -3.4853  -3.4330  -3.4051  -3.3749  -3.3260
    -3.2850  -3.2487  -3.2389  -3.2053  -3.1793  -3.1471  -3.1297  -3.0845
    -3.0462  -3.0078  -2.9717  -2.9546  -2.9437  -2.9257  -2.9105  -2.9029
    -2.7923  -2.7540  -2.7258  -2.6641  -2.6356  -2.5807  -2.5452  -2.4724
    -2.4673  -2.4230  -2.3904  -2.3492  -2.3226  -2.2293  -2.1836  -2.1651
    -2.1348  -2.1273  -2.1101  -2.1035  -2.0158  -1.9974  -1.9795  -1.9535
    -1.9298  -1.9036  -1.8863  -1.8678  -1.8558  -1.8246  -1.7937  -1.7737
    -1.7397  -1.7157  -1.6970  -1.6777  -1.6640  -1.6323  -1.5983  -1.5757
    -1.5593  -1.5502  -1.5357  -1.5085  -1.4527  -1.4157  -1.3730  -1.3429
    -1.2905  -1.2704  -1.2046  -1.1819  -1.1540  -1.1129  -1.0513  -1.0057
    -0.8705  -0.8527  -0.6850  -0.6776  -0.6421  -0.6259  -0.6177  -0.5445
    -0.5384  -0.4476  -0.3862  -0.2554  -0.2104  -0.1970  -0.1666   0.0669
     0.1343   1.3193   1.5468

     occupation numbers 
     1.0000   1.0000   1.0000   1.0000   1.0000   1.0000   1.0000   1.0000
     1.0000   1.0000   1.0000   1.0000   1.0000   1.0000   1.0000   1.0000
     1.0000   1.0000   1.0000   1.0000   1.0000   1.0000   1.0000   1.0000
     1.0000   1.0000   1.0000   1.0000   1.0000   1.0000   1.0000   1.0000
     1.0000   1.0000   1.0000   1.0000   1.0000   1.0000   1.0000   1.0000
     1.0000   1.0000   1.0000   1.0000   1.0000   1.0000   1.0000   1.0000
     1.0000   1.0000   1.0000   1.0000   1.0000   1.0000   1.0000   1.0000
     1.0000   1.0000   1.0000   1.0000   1.0000   1.0000   1.0000   1.0000
     1.0000   1.0000   1.0000   1.0000   1.0000   1.0000   1.0000   1.0000
     1.0000   1.0000   1.0000   1.0000   1.0000   1.0000   1.0000   1.0000
     1.0000   1.0000   1.0000   1.0000   1.0000   1.0000   1.0000   1.0000
     1.0000   1.0000   1.0000   1.0000   1.0000   1.0000   1.0000   1.0000
     1.0000   1.0000   1.0000   1.0000   1.0000   1.0000   1.0000   1.0000
     1.0000   1.0000   1.0000   1.0000   1.0000   1.0000   1.0000   1.0000
     1.0000   1.0000   1.0000   1.0000   1.0000   1.0000   1.0000   1.0000
     1.0000   1.0000   1.0000   1.0000   1.0000   1.0000   1.0000   1.0000
     1.0000   1.0000   1.0000   1.0000   1.0000   1.0000   1.0000   1.0000
     1.0000   1.0000   1.0000   1.0000   1.0000   1.0000   1.0000   1.0000
     1.0000   1.0000   1.0000   1.0000   1.0000   1.0000   1.0000   1.0000
     1.0000   1.0000   1.0000   1.0000   1.0000   1.0000   1.0000   1.0000
     1.0000   1.0000   1.0000   1.0000   1.0000   1.0000   1.0000   1.0000
     1.0000   1.0000   1.0000   1.0000   1.0000   1.0000   1.0000   1.0000
     1.0000   1.0000   1.0000   1.0000   1.0000   1.0000   1.0000   1.0000
     1.0000   1.0000   1.0000   1.0000   1.0000   1.0000   1.0000   1.0000
     1.0000   1.0000   1.0000   1.0000   1.0000   1.0000   1.0000   1.0000
     1.0000   1.0000   1.0000   1.0000   1.0000   1.0000   1.0000   1.0000
     1.0000   1.0000   1.0000   1.0000   1.0000   1.0000   1.0000   1.0000
     1.0000   1.0000   1.0000   1.0000   1.0000   1.0000   1.0000   1.0000
     1.0000   1.0000   1.0000   1.0000   1.0000   1.0000   1.0000   1.0000
     1.0000   1.0000   1.0000   1.0000   1.0000   1.0000   1.0000   1.0000
     1.0000   1.0000   1.0000

          k =-0.4000 0.4619 0.0000 (112237 PWs)   bands (ev):

   -73.8185 -73.8161 -73.8126 -73.8108 -73.8076 -73.8063 -73.8049 -73.8025
   -73.7977 -73.7960 -73.7929 -73.7910 -73.7891 -73.7564 -73.7516 -73.7421
   -38.2038 -38.1970 -38.1876 -38.1842 -38.1816 -38.1753 -38.1679 -38.1510
   -38.1482 -38.1346 -38.0963 -38.0921 -38.0869 -38.0540 -38.0468 -38.0432
   -38.0350 -38.0332 -38.0230 -38.0149 -38.0102 -38.0072 -38.0055 -38.0021
   -38.0010 -37.9983 -37.9955 -37.9900 -37.9878 -37.9841 -37.9767 -37.9736
   -37.9715 -37.9699 -37.9631 -37.9597 -37.9566 -37.9549 -37.9518 -37.9497
   -37.9475 -37.9401 -37.9358 -37.9289 -37.9168 -37.8980 -37.8873 -37.8815
   -21.4580 -15.4825 -14.3414 -14.2913 -14.1179 -13.5987 -13.3006 -13.2970
   -12.9639 -12.9517 -12.8889 -12.8589 -12.8297 -12.8032 -12.7984 -12.6679
   -12.6364 -12.5982 -12.4962 -12.4857 -12.3901 -12.3777 -12.3503 -12.3281
   -12.3115 -12.2993 -12.2632 -12.2368 -12.2315 -12.1360 -12.1220 -12.1170
   -12.0819 -12.0185  -8.0412  -7.5872  -6.0993  -6.0514  -6.0267  -5.9717
    -5.9173  -5.8926  -5.8797  -5.8618  -5.8103  -5.7469  -5.6915  -5.6281
    -5.6126  -5.5435  -5.3601  -5.2889  -5.2499  -5.2190  -5.2041  -5.1709
    -5.1599  -4.8569  -4.8351  -4.7484  -4.6226  -4.5926  -4.5469  -4.5276
    -4.4938  -4.4291  -4.3868  -4.3281  -4.3106  -4.2444  -4.2294  -4.2113
    -4.1958  -4.1662  -4.1225  -4.0966  -3.9594  -3.9493  -3.7933  -3.6712
    -3.6196  -3.5913  -3.4355  -3.3972  -3.3646  -3.3279  -3.3076  -3.2829
    -3.2786  -3.2690  -3.2438  -3.2337  -3.2217  -3.2159  -3.1512  -3.1233
    -3.0995  -3.0867  -3.0611  -3.0479  -2.9992  -2.9548  -2.8533  -2.8141
    -2.7450  -2.7332  -2.7139  -2.6831  -2.6335  -2.5846  -2.5121  -2.4199
    -2.4009  -2.3329  -2.3251  -2.3197  -2.2701  -2.2012  -2.1766  -2.1613
    -2.1480  -2.0922  -2.0814  -2.0546  -2.0308  -1.9813  -1.9709  -1.9506
    -1.9348  -1.9201  -1.8965  -1.8863  -1.8708  -1.8574  -1.8472  -1.8442
    -1.8203  -1.7974  -1.7641  -1.7304  -1.7069  -1.6974  -1.6746  -1.6556
    -1.6292  -1.5878  -1.5371  -1.5073  -1.4868  -1.4638  -1.4229  -1.3203
    -1.2865  -1.2383  -1.1727  -1.1189  -1.0956  -1.0780  -1.0457  -0.9754
    -0.8166  -0.7904  -0.7049  -0.6941  -0.6604  -0.6489  -0.6024  -0.5864
    -0.5698  -0.4188  -0.2833  -0.2771  -0.1818  -0.1217  -0.0797   0.0855
     0.1846   1.3277   1.5640

     occupation numbers 
     1.0000   1.0000   1.0000   1.0000   1.0000   1.0000   1.0000   1.0000
     1.0000   1.0000   1.0000   1.0000   1.0000   1.0000   1.0000   1.0000
     1.0000   1.0000   1.0000   1.0000   1.0000   1.0000   1.0000   1.0000
     1.0000   1.0000   1.0000   1.0000   1.0000   1.0000   1.0000   1.0000
     1.0000   1.0000   1.0000   1.0000   1.0000   1.0000   1.0000   1.0000
     1.0000   1.0000   1.0000   1.0000   1.0000   1.0000   1.0000   1.0000
     1.0000   1.0000   1.0000   1.0000   1.0000   1.0000   1.0000   1.0000
     1.0000   1.0000   1.0000   1.0000   1.0000   1.0000   1.0000   1.0000
     1.0000   1.0000   1.0000   1.0000   1.0000   1.0000   1.0000   1.0000
     1.0000   1.0000   1.0000   1.0000   1.0000   1.0000   1.0000   1.0000
     1.0000   1.0000   1.0000   1.0000   1.0000   1.0000   1.0000   1.0000
     1.0000   1.0000   1.0000   1.0000   1.0000   1.0000   1.0000   1.0000
     1.0000   1.0000   1.0000   1.0000   1.0000   1.0000   1.0000   1.0000
     1.0000   1.0000   1.0000   1.0000   1.0000   1.0000   1.0000   1.0000
     1.0000   1.0000   1.0000   1.0000   1.0000   1.0000   1.0000   1.0000
     1.0000   1.0000   1.0000   1.0000   1.0000   1.0000   1.0000   1.0000
     1.0000   1.0000   1.0000   1.0000   1.0000   1.0000   1.0000   1.0000
     1.0000   1.0000   1.0000   1.0000   1.0000   1.0000   1.0000   1.0000
     1.0000   1.0000   1.0000   1.0000   1.0000   1.0000   1.0000   1.0000
     1.0000   1.0000   1.0000   1.0000   1.0000   1.0000   1.0000   1.0000
     1.0000   1.0000   1.0000   1.0000   1.0000   1.0000   1.0000   1.0000
     1.0000   1.0000   1.0000   1.0000   1.0000   1.0000   1.0000   1.0000
     1.0000   1.0000   1.0000   1.0000   1.0000   1.0000   1.0000   1.0000
     1.0000   1.0000   1.0000   1.0000   1.0000   1.0000   1.0000   1.0000
     1.0000   1.0000   1.0000   1.0000   1.0000   1.0000   1.0000   1.0000
     1.0000   1.0000   1.0000   1.0000   1.0000   1.0000   1.0000   1.0000
     1.0000   1.0000   1.0000   1.0000   1.0000   1.0000   1.0000   1.0000
     1.0000   1.0000   1.0000   1.0000   1.0000   1.0000   1.0000   1.0000
     1.0000   1.0000   1.0000   1.0000   1.0000   1.0000   1.0000   1.0000
     1.0000   1.0000   1.0000   1.0000   1.0000   1.0000   1.0000   1.0000
     1.0000   1.0000   1.0000

          k = 0.6000 0.1155 0.0000 (112237 PWs)   bands (ev):

   -73.8183 -73.8165 -73.8126 -73.8104 -73.8077 -73.8064 -73.8049 -73.8025
   -73.7976 -73.7961 -73.7927 -73.7912 -73.7891 -73.7564 -73.7516 -73.7421
   -38.2025 -38.1987 -38.1884 -38.1857 -38.1788 -38.1753 -38.1674 -38.1508
   -38.1490 -38.1344 -38.0957 -38.0941 -38.0865 -38.0536 -38.0469 -38.0429
   -38.0351 -38.0334 -38.0226 -38.0141 -38.0109 -38.0080 -38.0049 -38.0025
   -38.0014 -37.9968 -37.9952 -37.9909 -37.9879 -37.9840 -37.9766 -37.9738
   -37.9714 -37.9707 -37.9629 -37.9596 -37.9570 -37.9551 -37.9522 -37.9495
   -37.9436 -37.9408 -37.9340 -37.9313 -37.9179 -37.8988 -37.8888 -37.8792
   -21.4580 -15.4825 -14.3408 -14.2922 -14.1177 -13.5987 -13.3079 -13.2897
   -12.9698 -12.9457 -12.8839 -12.8624 -12.8301 -12.8036 -12.7990 -12.6704
   -12.6353 -12.5964 -12.5061 -12.4756 -12.3968 -12.3744 -12.3464 -12.3235
   -12.3123 -12.3015 -12.2664 -12.2373 -12.2324 -12.1338 -12.1228 -12.1174
   -12.0812 -12.0187  -8.0412  -7.5872  -6.0989  -6.0483  -6.0221  -5.9708
    -5.9309  -5.9089  -5.8791  -5.8374  -5.8095  -5.7520  -5.6934  -5.6259
    -5.6148  -5.5400  -5.3590  -5.2852  -5.2585  -5.2279  -5.1992  -5.1748
    -5.1507  -4.8589  -4.8418  -4.6983  -4.6496  -4.6123  -4.5540  -4.5169
    -4.4968  -4.4380  -4.3873  -4.3237  -4.3046  -4.2444  -4.2338  -4.2019
    -4.1941  -4.1699  -4.1221  -4.0982  -3.9602  -3.9496  -3.7897  -3.6691
    -3.6205  -3.5821  -3.4357  -3.3782  -3.3693  -3.3336  -3.3024  -3.2891
    -3.2868  -3.2622  -3.2464  -3.2364  -3.2232  -3.2051  -3.1817  -3.1453
    -3.0894  -3.0807  -3.0554  -3.0233  -3.0078  -2.9679  -2.8500  -2.8139
    -2.7520  -2.7330  -2.7276  -2.6600  -2.6416  -2.5493  -2.5185  -2.4695
    -2.3970  -2.3382  -2.3183  -2.2984  -2.2487  -2.2169  -2.1766  -2.1518
    -2.1309  -2.1067  -2.0793  -2.0510  -2.0216  -1.9867  -1.9707  -1.9615
    -1.9403  -1.9150  -1.9051  -1.8843  -1.8748  -1.8647  -1.8557  -1.8463
    -1.8144  -1.8003  -1.7544  -1.7388  -1.7090  -1.6953  -1.6680  -1.6460
    -1.6290  -1.6076  -1.5408  -1.5229  -1.4790  -1.4365  -1.4088  -1.3323
    -1.2949  -1.2329  -1.1622  -1.1420  -1.0972  -1.0597  -1.0234  -0.9951
    -0.8129  -0.7971  -0.7004  -0.6986  -0.6614  -0.6550  -0.6031  -0.5979
    -0.5554  -0.4202  -0.2853  -0.2701  -0.1794  -0.1267  -0.0791   0.0864
     0.1849   1.3175   1.5763

     occupation numbers 
     1.0000   1.0000   1.0000   1.0000   1.0000   1.0000   1.0000   1.0000
     1.0000   1.0000   1.0000   1.0000   1.0000   1.0000   1.0000   1.0000
     1.0000   1.0000   1.0000   1.0000   1.0000   1.0000   1.0000   1.0000
     1.0000   1.0000   1.0000   1.0000   1.0000   1.0000   1.0000   1.0000
     1.0000   1.0000   1.0000   1.0000   1.0000   1.0000   1.0000   1.0000
     1.0000   1.0000   1.0000   1.0000   1.0000   1.0000   1.0000   1.0000
     1.0000   1.0000   1.0000   1.0000   1.0000   1.0000   1.0000   1.0000
     1.0000   1.0000   1.0000   1.0000   1.0000   1.0000   1.0000   1.0000
     1.0000   1.0000   1.0000   1.0000   1.0000   1.0000   1.0000   1.0000
     1.0000   1.0000   1.0000   1.0000   1.0000   1.0000   1.0000   1.0000
     1.0000   1.0000   1.0000   1.0000   1.0000   1.0000   1.0000   1.0000
     1.0000   1.0000   1.0000   1.0000   1.0000   1.0000   1.0000   1.0000
     1.0000   1.0000   1.0000   1.0000   1.0000   1.0000   1.0000   1.0000
     1.0000   1.0000   1.0000   1.0000   1.0000   1.0000   1.0000   1.0000
     1.0000   1.0000   1.0000   1.0000   1.0000   1.0000   1.0000   1.0000
     1.0000   1.0000   1.0000   1.0000   1.0000   1.0000   1.0000   1.0000
     1.0000   1.0000   1.0000   1.0000   1.0000   1.0000   1.0000   1.0000
     1.0000   1.0000   1.0000   1.0000   1.0000   1.0000   1.0000   1.0000
     1.0000   1.0000   1.0000   1.0000   1.0000   1.0000   1.0000   1.0000
     1.0000   1.0000   1.0000   1.0000   1.0000   1.0000   1.0000   1.0000
     1.0000   1.0000   1.0000   1.0000   1.0000   1.0000   1.0000   1.0000
     1.0000   1.0000   1.0000   1.0000   1.0000   1.0000   1.0000   1.0000
     1.0000   1.0000   1.0000   1.0000   1.0000   1.0000   1.0000   1.0000
     1.0000   1.0000   1.0000   1.0000   1.0000   1.0000   1.0000   1.0000
     1.0000   1.0000   1.0000   1.0000   1.0000   1.0000   1.0000   1.0000
     1.0000   1.0000   1.0000   1.0000   1.0000   1.0000   1.0000   1.0000
     1.0000   1.0000   1.0000   1.0000   1.0000   1.0000   1.0000   1.0000
     1.0000   1.0000   1.0000   1.0000   1.0000   1.0000   1.0000   1.0000
     1.0000   1.0000   1.0000   1.0000   1.0000   1.0000   1.0000   1.0000
     1.0000   1.0000   1.0000   1.0000   1.0000   1.0000   1.0000   1.0000
     1.0000   1.0000   1.0000

 ------ SPIN DOWN ----------


          k = 0.0000 0.0000 0.0000 (112117 PWs)   bands (ev):

   -73.8156 -73.8112 -73.8081 -73.8063 -73.8041 -73.8034 -73.8002 -73.7977
   -73.7955 -73.7905 -73.7896 -73.7881 -73.7839 -73.7429 -73.7333 -73.7304
   -38.2178 -38.2166 -38.2145 -38.1585 -38.1578 -38.1537 -38.1491 -38.1479
   -38.1366 -38.0575 -38.0524 -38.0498 -38.0492 -38.0432 -38.0402 -38.0390
   -38.0261 -38.0242 -38.0223 -38.0211 -38.0185 -38.0182 -38.0168 -38.0138
   -38.0107 -38.0074 -38.0060 -38.0011 -37.9942 -37.9908 -37.9883 -37.9867
   -37.9852 -37.9781 -37.9540 -37.9531 -37.9502 -37.9465 -37.9371 -37.9266
   -37.9206 -37.9097 -37.9074 -37.9059 -37.9035 -37.8927 -37.8602 -37.8582
   -21.4566 -15.4814 -14.5965 -13.7077 -13.6931 -13.6730 -13.6442 -13.6303
   -13.6210 -12.9810 -12.7070 -12.6764 -12.6522 -12.6376 -12.6024 -12.5817
   -12.5344 -12.5056 -12.4696 -12.4567 -12.4451 -12.4434 -12.4223 -12.4207
   -12.4170 -12.2222 -12.1999 -12.1900 -12.1734 -12.1578 -12.1539 -12.1496
   -12.1476 -12.1451  -8.0394  -7.5854  -6.3377  -6.3245  -6.3069  -6.2758
    -6.0796  -5.6019  -5.5703  -5.5462  -5.5304  -5.5263  -5.4938  -5.4396
    -5.4068  -5.3880  -5.3127  -5.2815  -5.2615  -5.1007  -5.0917  -5.0636
    -5.0589  -5.0549  -5.0541  -4.9982  -4.9975  -4.9890  -4.5133  -4.4340
    -4.3941  -4.3448  -4.2910  -4.2820  -4.2660  -4.2448  -4.2315  -4.1776
    -4.0787  -4.0080  -3.9770  -3.9619  -3.9356  -3.7898  -3.7573  -3.7533
    -3.6989  -3.6777  -3.6747  -3.5847  -3.5075  -3.4692  -3.4043  -3.4000
    -3.3723  -3.3664  -3.2669  -3.2193  -3.1940  -3.1804  -3.1589  -3.1413
    -3.1279  -3.1226  -3.1092  -3.1066  -3.0391  -2.9254  -2.7922  -2.7391
    -2.6877  -2.6661  -2.6218  -2.5873  -2.5741  -2.4960  -2.4884  -2.4642
    -2.4588  -2.4314  -2.4293  -2.4234  -2.3883  -2.3299  -2.2715  -2.1862
    -2.1158  -2.0548  -1.9655  -1.9598  -1.9314  -1.9180  -1.8668  -1.8255
    -1.7994  -1.7751  -1.7653  -1.7624  -1.7515  -1.7483  -1.7427  -1.7408
    -1.7335  -1.7009  -1.6945  -1.6572  -1.6478  -1.6353  -1.6323  -1.6000
    -1.5732  -1.5270  -1.5174  -1.4895  -1.4494  -1.4103  -1.3709  -1.3535
    -1.2914  -1.2599  -1.1836  -1.0876  -1.0340  -1.0269  -1.0108  -0.9909
    -0.7238  -0.6887  -0.6846  -0.6842  -0.6713  -0.6665  -0.6444  -0.6380
    -0.6217  -0.3942  -0.3829  -0.3729  -0.3577  -0.3410  -0.3316  -0.2982
     0.2150   1.3005   1.6743

     occupation numbers 
     1.0000   1.0000   1.0000   1.0000   1.0000   1.0000   1.0000   1.0000
     1.0000   1.0000   1.0000   1.0000   1.0000   1.0000   1.0000   1.0000
     1.0000   1.0000   1.0000   1.0000   1.0000   1.0000   1.0000   1.0000
     1.0000   1.0000   1.0000   1.0000   1.0000   1.0000   1.0000   1.0000
     1.0000   1.0000   1.0000   1.0000   1.0000   1.0000   1.0000   1.0000
     1.0000   1.0000   1.0000   1.0000   1.0000   1.0000   1.0000   1.0000
     1.0000   1.0000   1.0000   1.0000   1.0000   1.0000   1.0000   1.0000
     1.0000   1.0000   1.0000   1.0000   1.0000   1.0000   1.0000   1.0000
     1.0000   1.0000   1.0000   1.0000   1.0000   1.0000   1.0000   1.0000
     1.0000   1.0000   1.0000   1.0000   1.0000   1.0000   1.0000   1.0000
     1.0000   1.0000   1.0000   1.0000   1.0000   1.0000   1.0000   1.0000
     1.0000   1.0000   1.0000   1.0000   1.0000   1.0000   1.0000   1.0000
     1.0000   1.0000   1.0000   1.0000   1.0000   1.0000   1.0000   1.0000
     1.0000   1.0000   1.0000   1.0000   1.0000   1.0000   1.0000   1.0000
     1.0000   1.0000   1.0000   1.0000   1.0000   1.0000   1.0000   1.0000
     1.0000   1.0000   1.0000   1.0000   1.0000   1.0000   1.0000   1.0000
     1.0000   1.0000   1.0000   1.0000   1.0000   1.0000   1.0000   1.0000
     1.0000   1.0000   1.0000   1.0000   1.0000   1.0000   1.0000   1.0000
     1.0000   1.0000   1.0000   1.0000   1.0000   1.0000   1.0000   1.0000
     1.0000   1.0000   1.0000   1.0000   1.0000   1.0000   1.0000   1.0000
     1.0000   1.0000   1.0000   1.0000   1.0000   1.0000   1.0000   1.0000
     1.0000   1.0000   1.0000   1.0000   1.0000   1.0000   1.0000   1.0000
     1.0000   1.0000   1.0000   1.0000   1.0000   1.0000   1.0000   1.0000
     1.0000   1.0000   1.0000   1.0000   1.0000   1.0000   1.0000   1.0000
     1.0000   1.0000   1.0000   1.0000   1.0000   1.0000   1.0000   1.0000
     1.0000   1.0000   1.0000   1.0000   1.0000   1.0000   1.0000   1.0000
     1.0000   1.0000   1.0000   1.0000   1.0000   1.0000   1.0000   1.0000
     1.0000   1.0000   1.0000   1.0000   1.0000   1.0000   1.0000   1.0000
     1.0000   1.0000   1.0000   1.0000   1.0000   1.0000   1.0000   1.0000
     1.0000   1.0000   1.0000   1.0000   1.0000   1.0000   1.0000   1.0000
     1.0000   1.0000   0.0000

          k = 0.0000 0.2309 0.0000 (112171 PWs)   bands (ev):

   -73.8155 -73.8112 -73.8083 -73.8063 -73.8043 -73.8031 -73.8001 -73.7977
   -73.7956 -73.7905 -73.7896 -73.7881 -73.7839 -73.7429 -73.7333 -73.7304
   -38.2130 -38.2111 -38.2081 -38.1621 -38.1606 -38.1592 -38.1520 -38.1414
   -38.1334 -38.0981 -38.0728 -38.0714 -38.0481 -38.0441 -38.0394 -38.0286
   -38.0271 -38.0219 -38.0190 -38.0177 -38.0149 -38.0120 -38.0104 -38.0070
   -38.0010 -37.9962 -37.9958 -37.9924 -37.9898 -37.9884 -37.9856 -37.9848
   -37.9810 -37.9780 -37.9572 -37.9547 -37.9506 -37.9473 -37.9373 -37.9276
   -37.9270 -37.9162 -37.9123 -37.9044 -37.9005 -37.8912 -37.8659 -37.8609
   -21.4566 -15.4814 -14.5548 -13.9746 -13.8004 -13.7844 -13.4904 -13.4604
   -13.3236 -12.9650 -12.8019 -12.7338 -12.6946 -12.6863 -12.6543 -12.5847
   -12.5538 -12.5408 -12.4934 -12.4766 -12.4555 -12.4347 -12.4236 -12.3154
   -12.2843 -12.2620 -12.2435 -12.2142 -12.1846 -12.1742 -12.1673 -12.1525
   -12.0955 -12.0798  -8.0394  -7.5854  -6.2764  -6.2659  -6.2342  -6.2285
    -6.0791  -5.6608  -5.6413  -5.6247  -5.5547  -5.5160  -5.4875  -5.4686
    -5.4244  -5.4141  -5.3918  -5.3191  -5.3149  -5.2843  -5.2675  -5.0703
    -5.0655  -5.0147  -5.0008  -4.9527  -4.7374  -4.7328  -4.5820  -4.4749
    -4.4462  -4.3823  -4.3196  -4.2822  -4.2042  -4.1588  -4.1438  -4.1177
    -4.0975  -4.0593  -4.0413  -3.9993  -3.9830  -3.9089  -3.9065  -3.8989
    -3.6468  -3.5638  -3.5348  -3.5011  -3.4640  -3.4374  -3.4338  -3.3811
    -3.3620  -3.3096  -3.2896  -3.2759  -3.2556  -3.2033  -3.1890  -3.1475
    -3.0726  -2.9821  -2.9386  -2.9220  -2.8421  -2.7712  -2.7560  -2.7424
    -2.7167  -2.7074  -2.6935  -2.6699  -2.6427  -2.6236  -2.5841  -2.5393
    -2.4986  -2.4895  -2.4634  -2.4244  -2.3480  -2.3010  -2.1852  -2.1578
    -2.1045  -2.0616  -2.0100  -1.9937  -1.9690  -1.9500  -1.9240  -1.9019
    -1.8824  -1.8529  -1.8415  -1.8120  -1.7802  -1.7528  -1.7377  -1.7282
    -1.7170  -1.6955  -1.6791  -1.6524  -1.6370  -1.6005  -1.5799  -1.5397
    -1.5243  -1.4896  -1.4776  -1.4488  -1.4300  -1.3653  -1.3326  -1.3201
    -1.2947  -1.2737  -1.2338  -1.2132  -1.1487  -1.0622  -1.0391  -1.0039
    -0.8888  -0.7751  -0.7568  -0.7403  -0.5648  -0.5607  -0.5437  -0.5296
    -0.5165  -0.5037  -0.4044  -0.3735  -0.3576  -0.2457  -0.1669  -0.1365
     0.1970   1.3063   1.7054

     occupation numbers 
     1.0000   1.0000   1.0000   1.0000   1.0000   1.0000   1.0000   1.0000
     1.0000   1.0000   1.0000   1.0000   1.0000   1.0000   1.0000   1.0000
     1.0000   1.0000   1.0000   1.0000   1.0000   1.0000   1.0000   1.0000
     1.0000   1.0000   1.0000   1.0000   1.0000   1.0000   1.0000   1.0000
     1.0000   1.0000   1.0000   1.0000   1.0000   1.0000   1.0000   1.0000
     1.0000   1.0000   1.0000   1.0000   1.0000   1.0000   1.0000   1.0000
     1.0000   1.0000   1.0000   1.0000   1.0000   1.0000   1.0000   1.0000
     1.0000   1.0000   1.0000   1.0000   1.0000   1.0000   1.0000   1.0000
     1.0000   1.0000   1.0000   1.0000   1.0000   1.0000   1.0000   1.0000
     1.0000   1.0000   1.0000   1.0000   1.0000   1.0000   1.0000   1.0000
     1.0000   1.0000   1.0000   1.0000   1.0000   1.0000   1.0000   1.0000
     1.0000   1.0000   1.0000   1.0000   1.0000   1.0000   1.0000   1.0000
     1.0000   1.0000   1.0000   1.0000   1.0000   1.0000   1.0000   1.0000
     1.0000   1.0000   1.0000   1.0000   1.0000   1.0000   1.0000   1.0000
     1.0000   1.0000   1.0000   1.0000   1.0000   1.0000   1.0000   1.0000
     1.0000   1.0000   1.0000   1.0000   1.0000   1.0000   1.0000   1.0000
     1.0000   1.0000   1.0000   1.0000   1.0000   1.0000   1.0000   1.0000
     1.0000   1.0000   1.0000   1.0000   1.0000   1.0000   1.0000   1.0000
     1.0000   1.0000   1.0000   1.0000   1.0000   1.0000   1.0000   1.0000
     1.0000   1.0000   1.0000   1.0000   1.0000   1.0000   1.0000   1.0000
     1.0000   1.0000   1.0000   1.0000   1.0000   1.0000   1.0000   1.0000
     1.0000   1.0000   1.0000   1.0000   1.0000   1.0000   1.0000   1.0000
     1.0000   1.0000   1.0000   1.0000   1.0000   1.0000   1.0000   1.0000
     1.0000   1.0000   1.0000   1.0000   1.0000   1.0000   1.0000   1.0000
     1.0000   1.0000   1.0000   1.0000   1.0000   1.0000   1.0000   1.0000
     1.0000   1.0000   1.0000   1.0000   1.0000   1.0000   1.0000   1.0000
     1.0000   1.0000   1.0000   1.0000   1.0000   1.0000   1.0000   1.0000
     1.0000   1.0000   1.0000   1.0000   1.0000   1.0000   1.0000   1.0000
     1.0000   1.0000   1.0000   1.0000   1.0000   1.0000   1.0000   1.0000
     1.0000   1.0000   1.0000   1.0000   1.0000   1.0000   1.0000   1.0000
     1.0000   1.0000   0.0000

          k = 0.0000 0.4619 0.0000 (112236 PWs)   bands (ev):

   -73.8154 -73.8114 -73.8087 -73.8061 -73.8044 -73.8028 -73.8000 -73.7975
   -73.7958 -73.7905 -73.7895 -73.7881 -73.7839 -73.7429 -73.7333 -73.7304
   -38.2024 -38.1981 -38.1865 -38.1794 -38.1744 -38.1599 -38.1563 -38.1403
   -38.1258 -38.1186 -38.0977 -38.0950 -38.0581 -38.0518 -38.0445 -38.0349
   -38.0288 -38.0174 -38.0119 -38.0089 -38.0046 -38.0034 -38.0002 -37.9991
   -37.9964 -37.9932 -37.9929 -37.9893 -37.9856 -37.9840 -37.9780 -37.9749
   -37.9686 -37.9622 -37.9603 -37.9522 -37.9467 -37.9429 -37.9405 -37.9352
   -37.9339 -37.9239 -37.9193 -37.9109 -37.9007 -37.8858 -37.8799 -37.8643
   -21.4566 -15.4814 -14.4331 -14.2317 -13.8699 -13.8525 -13.2611 -13.2292
   -13.0166 -12.9979 -12.9691 -12.9151 -12.8318 -12.7281 -12.7037 -12.6880
   -12.5191 -12.5116 -12.4598 -12.4489 -12.4355 -12.4247 -12.3817 -12.3680
   -12.3497 -12.2837 -12.2146 -12.2010 -12.1765 -12.1584 -12.1566 -12.1523
   -12.0563 -12.0389  -8.0394  -7.5854  -6.1302  -6.1090  -6.0957  -6.0684
    -6.0225  -5.8693  -5.8572  -5.8320  -5.7097  -5.5296  -5.4970  -5.4840
    -5.4569  -5.4440  -5.4350  -5.3892  -5.3717  -5.3223  -5.2989  -5.0655
    -5.0601  -5.0274  -5.0079  -4.8044  -4.6231  -4.5183  -4.4806  -4.4366
    -4.3921  -4.3723  -4.3462  -4.3085  -4.2419  -4.2271  -4.1894  -4.1577
    -4.1270  -4.1159  -4.1013  -4.0748  -4.0647  -4.0499  -4.0398  -3.6700
    -3.5630  -3.5029  -3.4729  -3.4379  -3.4119  -3.3841  -3.3606  -3.3076
    -3.2838  -3.2764  -3.2572  -3.2338  -3.2158  -3.1810  -3.1543  -3.1042
    -3.0599  -3.0453  -3.0023  -2.9506  -2.9323  -2.9062  -2.8435  -2.7521
    -2.7234  -2.6940  -2.6430  -2.6281  -2.5941  -2.5524  -2.5172  -2.4729
    -2.4401  -2.4261  -2.3882  -2.3118  -2.2735  -2.2475  -2.2387  -2.1695
    -2.1036  -2.0810  -2.0345  -2.0100  -2.0031  -1.9916  -1.9711  -1.9361
    -1.9192  -1.8983  -1.8757  -1.8650  -1.8505  -1.8381  -1.8282  -1.8228
    -1.7672  -1.7585  -1.7128  -1.7041  -1.6805  -1.6519  -1.6237  -1.6102
    -1.5822  -1.5487  -1.5172  -1.4878  -1.4194  -1.3819  -1.2977  -1.2793
    -1.2223  -1.1968  -1.1866  -1.1392  -1.1121  -1.0921  -1.0400  -0.9893
    -0.9669  -0.8854  -0.7291  -0.7141  -0.6366  -0.6167  -0.4805  -0.4516
    -0.4399  -0.4283  -0.3946  -0.3712  -0.3013  -0.0837   0.0051   0.0347
     0.1503   1.3150   1.7564

     occupation numbers 
     1.0000   1.0000   1.0000   1.0000   1.0000   1.0000   1.0000   1.0000
     1.0000   1.0000   1.0000   1.0000   1.0000   1.0000   1.0000   1.0000
     1.0000   1.0000   1.0000   1.0000   1.0000   1.0000   1.0000   1.0000
     1.0000   1.0000   1.0000   1.0000   1.0000   1.0000   1.0000   1.0000
     1.0000   1.0000   1.0000   1.0000   1.0000   1.0000   1.0000   1.0000
     1.0000   1.0000   1.0000   1.0000   1.0000   1.0000   1.0000   1.0000
     1.0000   1.0000   1.0000   1.0000   1.0000   1.0000   1.0000   1.0000
     1.0000   1.0000   1.0000   1.0000   1.0000   1.0000   1.0000   1.0000
     1.0000   1.0000   1.0000   1.0000   1.0000   1.0000   1.0000   1.0000
     1.0000   1.0000   1.0000   1.0000   1.0000   1.0000   1.0000   1.0000
     1.0000   1.0000   1.0000   1.0000   1.0000   1.0000   1.0000   1.0000
     1.0000   1.0000   1.0000   1.0000   1.0000   1.0000   1.0000   1.0000
     1.0000   1.0000   1.0000   1.0000   1.0000   1.0000   1.0000   1.0000
     1.0000   1.0000   1.0000   1.0000   1.0000   1.0000   1.0000   1.0000
     1.0000   1.0000   1.0000   1.0000   1.0000   1.0000   1.0000   1.0000
     1.0000   1.0000   1.0000   1.0000   1.0000   1.0000   1.0000   1.0000
     1.0000   1.0000   1.0000   1.0000   1.0000   1.0000   1.0000   1.0000
     1.0000   1.0000   1.0000   1.0000   1.0000   1.0000   1.0000   1.0000
     1.0000   1.0000   1.0000   1.0000   1.0000   1.0000   1.0000   1.0000
     1.0000   1.0000   1.0000   1.0000   1.0000   1.0000   1.0000   1.0000
     1.0000   1.0000   1.0000   1.0000   1.0000   1.0000   1.0000   1.0000
     1.0000   1.0000   1.0000   1.0000   1.0000   1.0000   1.0000   1.0000
     1.0000   1.0000   1.0000   1.0000   1.0000   1.0000   1.0000   1.0000
     1.0000   1.0000   1.0000   1.0000   1.0000   1.0000   1.0000   1.0000
     1.0000   1.0000   1.0000   1.0000   1.0000   1.0000   1.0000   1.0000
     1.0000   1.0000   1.0000   1.0000   1.0000   1.0000   1.0000   1.0000
     1.0000   1.0000   1.0000   1.0000   1.0000   1.0000   1.0000   1.0000
     1.0000   1.0000   1.0000   1.0000   1.0000   1.0000   1.0000   1.0000
     1.0000   1.0000   1.0000   1.0000   1.0000   1.0000   1.0000   1.0000
     1.0000   1.0000   1.0000   1.0000   1.0000   1.0000   1.0000   1.0000
     1.0000   1.0000   0.0000

          k = 0.2000 0.3464 0.0000 (112231 PWs)   bands (ev):

   -73.8154 -73.8115 -73.8084 -73.8063 -73.8042 -73.8028 -73.8003 -73.7977
   -73.7955 -73.7906 -73.7895 -73.7881 -73.7839 -73.7429 -73.7333 -73.7304
   -38.2067 -38.1976 -38.1968 -38.1742 -38.1689 -38.1599 -38.1500 -38.1429
   -38.1281 -38.1176 -38.1068 -38.0718 -38.0548 -38.0493 -38.0450 -38.0335
   -38.0287 -38.0240 -38.0187 -38.0160 -38.0126 -38.0070 -38.0004 -37.9987
   -37.9932 -37.9900 -37.9884 -37.9862 -37.9839 -37.9814 -37.9781 -37.9769
   -37.9714 -37.9674 -37.9590 -37.9536 -37.9509 -37.9481 -37.9393 -37.9349
   -37.9283 -37.9220 -37.9190 -37.9107 -37.8975 -37.8907 -37.8756 -37.8630
   -21.4566 -15.4814 -14.4730 -14.1000 -14.0586 -13.5646 -13.5626 -13.1706
   -13.1182 -13.0069 -12.9331 -12.8068 -12.7879 -12.7080 -12.6714 -12.6024
   -12.5929 -12.5756 -12.5706 -12.4554 -12.4238 -12.3894 -12.3753 -12.3115
   -12.2897 -12.2713 -12.2517 -12.2314 -12.2206 -12.1540 -12.1494 -12.1068
   -12.0956 -12.0354  -8.0394  -7.5855  -6.1739  -6.1552  -6.1241  -6.1030
    -6.0754  -5.7555  -5.7324  -5.7175  -5.6770  -5.6418  -5.5996  -5.5613
    -5.5026  -5.4709  -5.3523  -5.3298  -5.2818  -5.2724  -5.2403  -5.2235
    -5.0931  -4.9011  -4.8867  -4.8115  -4.7503  -4.5945  -4.4850  -4.4594
    -4.3924  -4.3629  -4.3352  -4.2997  -4.2742  -4.2609  -4.2307  -4.2228
    -4.1696  -4.1197  -4.1048  -4.0896  -4.0542  -3.7557  -3.7310  -3.7222
    -3.7146  -3.6891  -3.5836  -3.4914  -3.4220  -3.3909  -3.3448  -3.3157
    -3.2742  -3.2403  -3.2171  -3.1999  -3.1634  -3.1461  -3.0949  -3.0888
    -3.0337  -3.0013  -2.9662  -2.9450  -2.9370  -2.9192  -2.9044  -2.8918
    -2.7923  -2.7117  -2.6902  -2.6399  -2.6055  -2.5324  -2.4999  -2.4708
    -2.4514  -2.4257  -2.3817  -2.3535  -2.3049  -2.2095  -2.1726  -2.1540
    -2.1222  -2.1205  -2.0819  -2.0719  -1.9970  -1.9832  -1.9671  -1.9395
    -1.9181  -1.8941  -1.8704  -1.8456  -1.8303  -1.8166  -1.7890  -1.7474
    -1.7233  -1.7083  -1.7012  -1.6647  -1.6582  -1.6109  -1.5836  -1.5699
    -1.5614  -1.5351  -1.5224  -1.4960  -1.4154  -1.3834  -1.3700  -1.3575
    -1.2805  -1.2174  -1.2002  -1.1762  -1.1489  -1.1043  -1.0211  -0.9920
    -0.8696  -0.8381  -0.6762  -0.6664  -0.6322  -0.6229  -0.6096  -0.5347
    -0.5259  -0.4217  -0.3698  -0.2510  -0.2021  -0.1927  -0.1454   0.0787
     0.1621   1.3288   1.7266

     occupation numbers 
     1.0000   1.0000   1.0000   1.0000   1.0000   1.0000   1.0000   1.0000
     1.0000   1.0000   1.0000   1.0000   1.0000   1.0000   1.0000   1.0000
     1.0000   1.0000   1.0000   1.0000   1.0000   1.0000   1.0000   1.0000
     1.0000   1.0000   1.0000   1.0000   1.0000   1.0000   1.0000   1.0000
     1.0000   1.0000   1.0000   1.0000   1.0000   1.0000   1.0000   1.0000
     1.0000   1.0000   1.0000   1.0000   1.0000   1.0000   1.0000   1.0000
     1.0000   1.0000   1.0000   1.0000   1.0000   1.0000   1.0000   1.0000
     1.0000   1.0000   1.0000   1.0000   1.0000   1.0000   1.0000   1.0000
     1.0000   1.0000   1.0000   1.0000   1.0000   1.0000   1.0000   1.0000
     1.0000   1.0000   1.0000   1.0000   1.0000   1.0000   1.0000   1.0000
     1.0000   1.0000   1.0000   1.0000   1.0000   1.0000   1.0000   1.0000
     1.0000   1.0000   1.0000   1.0000   1.0000   1.0000   1.0000   1.0000
     1.0000   1.0000   1.0000   1.0000   1.0000   1.0000   1.0000   1.0000
     1.0000   1.0000   1.0000   1.0000   1.0000   1.0000   1.0000   1.0000
     1.0000   1.0000   1.0000   1.0000   1.0000   1.0000   1.0000   1.0000
     1.0000   1.0000   1.0000   1.0000   1.0000   1.0000   1.0000   1.0000
     1.0000   1.0000   1.0000   1.0000   1.0000   1.0000   1.0000   1.0000
     1.0000   1.0000   1.0000   1.0000   1.0000   1.0000   1.0000   1.0000
     1.0000   1.0000   1.0000   1.0000   1.0000   1.0000   1.0000   1.0000
     1.0000   1.0000   1.0000   1.0000   1.0000   1.0000   1.0000   1.0000
     1.0000   1.0000   1.0000   1.0000   1.0000   1.0000   1.0000   1.0000
     1.0000   1.0000   1.0000   1.0000   1.0000   1.0000   1.0000   1.0000
     1.0000   1.0000   1.0000   1.0000   1.0000   1.0000   1.0000   1.0000
     1.0000   1.0000   1.0000   1.0000   1.0000   1.0000   1.0000   1.0000
     1.0000   1.0000   1.0000   1.0000   1.0000   1.0000   1.0000   1.0000
     1.0000   1.0000   1.0000   1.0000   1.0000   1.0000   1.0000   1.0000
     1.0000   1.0000   1.0000   1.0000   1.0000   1.0000   1.0000   1.0000
     1.0000   1.0000   1.0000   1.0000   1.0000   1.0000   1.0000   1.0000
     1.0000   1.0000   1.0000   1.0000   1.0000   1.0000   1.0000   1.0000
     1.0000   1.0000   1.0000   1.0000   1.0000   1.0000   1.0000   1.0000
     1.0000   1.0000   0.0000

          k = 0.2000 0.5774 0.0000 (112237 PWs)   bands (ev):

   -73.8153 -73.8115 -73.8087 -73.8062 -73.8042 -73.8028 -73.8001 -73.7976
   -73.7957 -73.7906 -73.7895 -73.7881 -73.7839 -73.7429 -73.7333 -73.7304
   -38.1975 -38.1905 -38.1818 -38.1776 -38.1719 -38.1681 -38.1600 -38.1446
   -38.1406 -38.1246 -38.0873 -38.0859 -38.0780 -38.0466 -38.0428 -38.0362
   -38.0308 -38.0244 -38.0151 -38.0115 -38.0054 -38.0016 -37.9997 -37.9978
   -37.9967 -37.9948 -37.9901 -37.9860 -37.9835 -37.9779 -37.9707 -37.9667
   -37.9616 -37.9573 -37.9550 -37.9521 -37.9510 -37.9434 -37.9397 -37.9362
   -37.9330 -37.9260 -37.9219 -37.9178 -37.9060 -37.8884 -37.8761 -37.8676
   -21.4566 -15.4814 -14.3332 -14.2911 -14.1131 -13.5935 -13.2975 -13.2926
   -12.9493 -12.9460 -12.8869 -12.8516 -12.8393 -12.8013 -12.7918 -12.6566
   -12.6292 -12.6014 -12.4898 -12.4832 -12.3816 -12.3700 -12.3565 -12.3230
   -12.3085 -12.2966 -12.2573 -12.2328 -12.2317 -12.1297 -12.1196 -12.1173
   -12.0784 -12.0159  -8.0394  -7.5854  -6.0934  -6.0384  -5.9994  -5.9829
    -5.9164  -5.8914  -5.8721  -5.8454  -5.8067  -5.7414  -5.6830  -5.6198
    -5.6112  -5.5385  -5.3596  -5.2619  -5.2519  -5.2149  -5.1998  -5.1677
    -5.1515  -4.8523  -4.8285  -4.7452  -4.6285  -4.5726  -4.5429  -4.5158
    -4.4700  -4.4131  -4.3934  -4.3133  -4.3071  -4.2369  -4.2296  -4.2094
    -4.1833  -4.1625  -4.1202  -4.0938  -3.9507  -3.9472  -3.7841  -3.6580
    -3.6260  -3.5539  -3.4280  -3.3834  -3.3505  -3.3186  -3.2939  -3.2808
    -3.2661  -3.2552  -3.2380  -3.2288  -3.2118  -3.1940  -3.1369  -3.1156
    -3.0934  -3.0751  -3.0574  -3.0250  -2.9924  -2.9226  -2.8691  -2.8118
    -2.7285  -2.6923  -2.6798  -2.6566  -2.6006  -2.5315  -2.4914  -2.4401
    -2.3843  -2.3277  -2.3156  -2.3015  -2.2457  -2.1903  -2.1685  -2.1246
    -2.1085  -2.0937  -2.0689  -2.0482  -2.0077  -1.9740  -1.9552  -1.9442
    -1.9262  -1.9064  -1.8869  -1.8705  -1.8617  -1.8496  -1.8390  -1.8296
    -1.8109  -1.7729  -1.7604  -1.7284  -1.6976  -1.6720  -1.6598  -1.6364
    -1.6036  -1.5620  -1.5439  -1.4913  -1.4737  -1.4592  -1.3925  -1.3222
    -1.2668  -1.1858  -1.1519  -1.1351  -1.0869  -1.0742  -0.9985  -0.9741
    -0.8081  -0.7930  -0.6968  -0.6844  -0.6514  -0.6372  -0.5871  -0.5762
    -0.5581  -0.3952  -0.2731  -0.2639  -0.1818  -0.1186  -0.0581   0.1171
     0.1953   1.3369   1.7397

     occupation numbers 
     1.0000   1.0000   1.0000   1.0000   1.0000   1.0000   1.0000   1.0000
     1.0000   1.0000   1.0000   1.0000   1.0000   1.0000   1.0000   1.0000
     1.0000   1.0000   1.0000   1.0000   1.0000   1.0000   1.0000   1.0000
     1.0000   1.0000   1.0000   1.0000   1.0000   1.0000   1.0000   1.0000
     1.0000   1.0000   1.0000   1.0000   1.0000   1.0000   1.0000   1.0000
     1.0000   1.0000   1.0000   1.0000   1.0000   1.0000   1.0000   1.0000
     1.0000   1.0000   1.0000   1.0000   1.0000   1.0000   1.0000   1.0000
     1.0000   1.0000   1.0000   1.0000   1.0000   1.0000   1.0000   1.0000
     1.0000   1.0000   1.0000   1.0000   1.0000   1.0000   1.0000   1.0000
     1.0000   1.0000   1.0000   1.0000   1.0000   1.0000   1.0000   1.0000
     1.0000   1.0000   1.0000   1.0000   1.0000   1.0000   1.0000   1.0000
     1.0000   1.0000   1.0000   1.0000   1.0000   1.0000   1.0000   1.0000
     1.0000   1.0000   1.0000   1.0000   1.0000   1.0000   1.0000   1.0000
     1.0000   1.0000   1.0000   1.0000   1.0000   1.0000   1.0000   1.0000
     1.0000   1.0000   1.0000   1.0000   1.0000   1.0000   1.0000   1.0000
     1.0000   1.0000   1.0000   1.0000   1.0000   1.0000   1.0000   1.0000
     1.0000   1.0000   1.0000   1.0000   1.0000   1.0000   1.0000   1.0000
     1.0000   1.0000   1.0000   1.0000   1.0000   1.0000   1.0000   1.0000
     1.0000   1.0000   1.0000   1.0000   1.0000   1.0000   1.0000   1.0000
     1.0000   1.0000   1.0000   1.0000   1.0000   1.0000   1.0000   1.0000
     1.0000   1.0000   1.0000   1.0000   1.0000   1.0000   1.0000   1.0000
     1.0000   1.0000   1.0000   1.0000   1.0000   1.0000   1.0000   1.0000
     1.0000   1.0000   1.0000   1.0000   1.0000   1.0000   1.0000   1.0000
     1.0000   1.0000   1.0000   1.0000   1.0000   1.0000   1.0000   1.0000
     1.0000   1.0000   1.0000   1.0000   1.0000   1.0000   1.0000   1.0000
     1.0000   1.0000   1.0000   1.0000   1.0000   1.0000   1.0000   1.0000
     1.0000   1.0000   1.0000   1.0000   1.0000   1.0000   1.0000   1.0000
     1.0000   1.0000   1.0000   1.0000   1.0000   1.0000   1.0000   1.0000
     1.0000   1.0000   1.0000   1.0000   1.0000   1.0000   1.0000   1.0000
     1.0000   1.0000   1.0000   1.0000   1.0000   1.0000   1.0000   1.0000
     1.0000   1.0000   0.0000

          k =-0.2000 0.1155 0.0000 (112171 PWs)   bands (ev):

   -73.8155 -73.8113 -73.8082 -73.8064 -73.8039 -73.8033 -73.8002 -73.7977
   -73.7955 -73.7905 -73.7895 -73.7881 -73.7839 -73.7429 -73.7333 -73.7304
   -38.2125 -38.2122 -38.2075 -38.1637 -38.1605 -38.1578 -38.1522 -38.1407
   -38.1336 -38.0975 -38.0736 -38.0714 -38.0481 -38.0444 -38.0392 -38.0301
   -38.0239 -38.0222 -38.0212 -38.0198 -38.0132 -38.0115 -38.0102 -38.0068
   -38.0010 -37.9960 -37.9945 -37.9931 -37.9899 -37.9885 -37.9862 -37.9844
   -37.9809 -37.9780 -37.9571 -37.9540 -37.9513 -37.9473 -37.9373 -37.9294
   -37.9255 -37.9157 -37.9115 -37.9051 -37.9010 -37.8910 -37.8653 -37.8614
   -21.4566 -15.4814 -14.5548 -13.9738 -13.7996 -13.7871 -13.4772 -13.4725
   -13.3239 -12.9654 -12.7891 -12.7547 -12.6904 -12.6805 -12.6566 -12.5854
   -12.5632 -12.5198 -12.4955 -12.4779 -12.4674 -12.4320 -12.4227 -12.3062
   -12.2936 -12.2609 -12.2437 -12.2123 -12.1861 -12.1746 -12.1676 -12.1512
   -12.0948 -12.0806  -8.0394  -7.5854  -6.2804  -6.2599  -6.2393  -6.2252
    -6.0791  -5.6697  -5.6336  -5.6209  -5.5455  -5.5275  -5.4871  -5.4672
    -5.4343  -5.4154  -5.3815  -5.3257  -5.3098  -5.2796  -5.2743  -5.0775
    -5.0609  -5.0131  -4.9986  -4.9493  -4.7376  -4.7341  -4.5644  -4.5056
    -4.4414  -4.3682  -4.3367  -4.2746  -4.2025  -4.1589  -4.1440  -4.1206
    -4.0974  -4.0625  -4.0383  -3.9941  -3.9814  -3.9129  -3.9027  -3.8941
    -3.6405  -3.5794  -3.5276  -3.4970  -3.4723  -3.4549  -3.4414  -3.3716
    -3.3629  -3.3030  -3.2920  -3.2749  -3.2499  -3.2021  -3.1896  -3.1505
    -3.0739  -2.9689  -2.9457  -2.9117  -2.8143  -2.7861  -2.7648  -2.7397
    -2.7158  -2.7037  -2.6906  -2.6806  -2.6626  -2.6347  -2.5800  -2.5391
    -2.4920  -2.4725  -2.4621  -2.4229  -2.3548  -2.3000  -2.1787  -2.1659
    -2.1132  -2.0660  -2.0142  -1.9922  -1.9652  -1.9550  -1.9245  -1.9004
    -1.8750  -1.8554  -1.8320  -1.8116  -1.7924  -1.7638  -1.7370  -1.7228
    -1.7045  -1.6919  -1.6744  -1.6543  -1.6442  -1.5996  -1.5665  -1.5451
    -1.5141  -1.4959  -1.4896  -1.4317  -1.4234  -1.3595  -1.3442  -1.3234
    -1.3066  -1.2730  -1.2451  -1.2129  -1.1452  -1.0721  -1.0361  -0.9913
    -0.8948  -0.7701  -0.7523  -0.7323  -0.5797  -0.5639  -0.5433  -0.5283
    -0.5118  -0.5031  -0.4070  -0.3766  -0.3519  -0.2447  -0.1663  -0.1386
     0.1956   1.3286   1.6799

     occupation numbers 
     1.0000   1.0000   1.0000   1.0000   1.0000   1.0000   1.0000   1.0000
     1.0000   1.0000   1.0000   1.0000   1.0000   1.0000   1.0000   1.0000
     1.0000   1.0000   1.0000   1.0000   1.0000   1.0000   1.0000   1.0000
     1.0000   1.0000   1.0000   1.0000   1.0000   1.0000   1.0000   1.0000
     1.0000   1.0000   1.0000   1.0000   1.0000   1.0000   1.0000   1.0000
     1.0000   1.0000   1.0000   1.0000   1.0000   1.0000   1.0000   1.0000
     1.0000   1.0000   1.0000   1.0000   1.0000   1.0000   1.0000   1.0000
     1.0000   1.0000   1.0000   1.0000   1.0000   1.0000   1.0000   1.0000
     1.0000   1.0000   1.0000   1.0000   1.0000   1.0000   1.0000   1.0000
     1.0000   1.0000   1.0000   1.0000   1.0000   1.0000   1.0000   1.0000
     1.0000   1.0000   1.0000   1.0000   1.0000   1.0000   1.0000   1.0000
     1.0000   1.0000   1.0000   1.0000   1.0000   1.0000   1.0000   1.0000
     1.0000   1.0000   1.0000   1.0000   1.0000   1.0000   1.0000   1.0000
     1.0000   1.0000   1.0000   1.0000   1.0000   1.0000   1.0000   1.0000
     1.0000   1.0000   1.0000   1.0000   1.0000   1.0000   1.0000   1.0000
     1.0000   1.0000   1.0000   1.0000   1.0000   1.0000   1.0000   1.0000
     1.0000   1.0000   1.0000   1.0000   1.0000   1.0000   1.0000   1.0000
     1.0000   1.0000   1.0000   1.0000   1.0000   1.0000   1.0000   1.0000
     1.0000   1.0000   1.0000   1.0000   1.0000   1.0000   1.0000   1.0000
     1.0000   1.0000   1.0000   1.0000   1.0000   1.0000   1.0000   1.0000
     1.0000   1.0000   1.0000   1.0000   1.0000   1.0000   1.0000   1.0000
     1.0000   1.0000   1.0000   1.0000   1.0000   1.0000   1.0000   1.0000
     1.0000   1.0000   1.0000   1.0000   1.0000   1.0000   1.0000   1.0000
     1.0000   1.0000   1.0000   1.0000   1.0000   1.0000   1.0000   1.0000
     1.0000   1.0000   1.0000   1.0000   1.0000   1.0000   1.0000   1.0000
     1.0000   1.0000   1.0000   1.0000   1.0000   1.0000   1.0000   1.0000
     1.0000   1.0000   1.0000   1.0000   1.0000   1.0000   1.0000   1.0000
     1.0000   1.0000   1.0000   1.0000   1.0000   1.0000   1.0000   1.0000
     1.0000   1.0000   1.0000   1.0000   1.0000   1.0000   1.0000   1.0000
     1.0000   1.0000   1.0000   1.0000   1.0000   1.0000   1.0000   1.0000
     1.0000   1.0000   0.0000

          k = 0.2000 0.1155 0.0000 (112171 PWs)   bands (ev):

   -73.8155 -73.8114 -73.8081 -73.8064 -73.8040 -73.8032 -73.8003 -73.7977
   -73.7954 -73.7906 -73.7895 -73.7881 -73.7839 -73.7429 -73.7333 -73.7304
   -38.2132 -38.2109 -38.2081 -38.1650 -38.1599 -38.1570 -38.1514 -38.1409
   -38.1342 -38.0977 -38.0739 -38.0712 -38.0482 -38.0433 -38.0406 -38.0299
   -38.0245 -38.0222 -38.0205 -38.0189 -38.0142 -38.0113 -38.0094 -38.0069
   -38.0013 -37.9960 -37.9950 -37.9916 -37.9896 -37.9888 -37.9874 -37.9843
   -37.9810 -37.9779 -37.9561 -37.9552 -37.9514 -37.9470 -37.9372 -37.9295
   -37.9252 -37.9152 -37.9121 -37.9051 -37.9009 -37.8913 -37.8672 -37.8596
   -21.4566 -15.4814 -14.5548 -13.9740 -13.7989 -13.7876 -13.4760 -13.4743
   -13.3231 -12.9654 -12.7889 -12.7541 -12.6897 -12.6822 -12.6569 -12.5852
   -12.5643 -12.5185 -12.4932 -12.4797 -12.4672 -12.4339 -12.4218 -12.3018
   -12.2934 -12.2637 -12.2467 -12.2078 -12.1918 -12.1722 -12.1701 -12.1483
   -12.0921 -12.0831  -8.0394  -7.5854  -6.2746  -6.2622  -6.2427  -6.2258
    -6.0791  -5.6625  -5.6392  -5.6175  -5.5453  -5.5326  -5.4860  -5.4688
    -5.4387  -5.4204  -5.3685  -5.3251  -5.3126  -5.2800  -5.2729  -5.0749
    -5.0679  -5.0115  -5.0019  -4.9434  -4.7389  -4.7343  -4.5582  -4.5055
    -4.4362  -4.3890  -4.3361  -4.2691  -4.2014  -4.1596  -4.1462  -4.1211
    -4.0969  -4.0534  -4.0378  -4.0007  -3.9804  -3.9102  -3.9064  -3.8964
    -3.6319  -3.5635  -3.5402  -3.5025  -3.4636  -3.4538  -3.4355  -3.3788
    -3.3685  -3.3046  -3.2945  -3.2786  -3.2384  -3.2080  -3.1936  -3.1439
    -3.0823  -2.9825  -2.9354  -2.9016  -2.8109  -2.7891  -2.7679  -2.7417
    -2.7281  -2.7042  -2.6920  -2.6818  -2.6470  -2.6224  -2.5743  -2.5434
    -2.5139  -2.4830  -2.4596  -2.4127  -2.3511  -2.2930  -2.1897  -2.1634
    -2.1077  -2.0668  -2.0121  -1.9838  -1.9597  -1.9474  -1.9160  -1.9022
    -1.8945  -1.8678  -1.8301  -1.8125  -1.7967  -1.7677  -1.7385  -1.7309
    -1.7031  -1.6854  -1.6716  -1.6478  -1.6293  -1.6102  -1.5849  -1.5325
    -1.5262  -1.4977  -1.4494  -1.4384  -1.4198  -1.3947  -1.3464  -1.3067
    -1.3025  -1.2914  -1.2403  -1.1964  -1.1532  -1.0507  -1.0372  -1.0083
    -0.8921  -0.7605  -0.7509  -0.7464  -0.5905  -0.5549  -0.5429  -0.5278
    -0.5146  -0.5072  -0.4029  -0.3780  -0.3470  -0.2455  -0.1624  -0.1424
     0.1963   1.3234   1.6864

     occupation numbers 
     1.0000   1.0000   1.0000   1.0000   1.0000   1.0000   1.0000   1.0000
     1.0000   1.0000   1.0000   1.0000   1.0000   1.0000   1.0000   1.0000
     1.0000   1.0000   1.0000   1.0000   1.0000   1.0000   1.0000   1.0000
     1.0000   1.0000   1.0000   1.0000   1.0000   1.0000   1.0000   1.0000
     1.0000   1.0000   1.0000   1.0000   1.0000   1.0000   1.0000   1.0000
     1.0000   1.0000   1.0000   1.0000   1.0000   1.0000   1.0000   1.0000
     1.0000   1.0000   1.0000   1.0000   1.0000   1.0000   1.0000   1.0000
     1.0000   1.0000   1.0000   1.0000   1.0000   1.0000   1.0000   1.0000
     1.0000   1.0000   1.0000   1.0000   1.0000   1.0000   1.0000   1.0000
     1.0000   1.0000   1.0000   1.0000   1.0000   1.0000   1.0000   1.0000
     1.0000   1.0000   1.0000   1.0000   1.0000   1.0000   1.0000   1.0000
     1.0000   1.0000   1.0000   1.0000   1.0000   1.0000   1.0000   1.0000
     1.0000   1.0000   1.0000   1.0000   1.0000   1.0000   1.0000   1.0000
     1.0000   1.0000   1.0000   1.0000   1.0000   1.0000   1.0000   1.0000
     1.0000   1.0000   1.0000   1.0000   1.0000   1.0000   1.0000   1.0000
     1.0000   1.0000   1.0000   1.0000   1.0000   1.0000   1.0000   1.0000
     1.0000   1.0000   1.0000   1.0000   1.0000   1.0000   1.0000   1.0000
     1.0000   1.0000   1.0000   1.0000   1.0000   1.0000   1.0000   1.0000
     1.0000   1.0000   1.0000   1.0000   1.0000   1.0000   1.0000   1.0000
     1.0000   1.0000   1.0000   1.0000   1.0000   1.0000   1.0000   1.0000
     1.0000   1.0000   1.0000   1.0000   1.0000   1.0000   1.0000   1.0000
     1.0000   1.0000   1.0000   1.0000   1.0000   1.0000   1.0000   1.0000
     1.0000   1.0000   1.0000   1.0000   1.0000   1.0000   1.0000   1.0000
     1.0000   1.0000   1.0000   1.0000   1.0000   1.0000   1.0000   1.0000
     1.0000   1.0000   1.0000   1.0000   1.0000   1.0000   1.0000   1.0000
     1.0000   1.0000   1.0000   1.0000   1.0000   1.0000   1.0000   1.0000
     1.0000   1.0000   1.0000   1.0000   1.0000   1.0000   1.0000   1.0000
     1.0000   1.0000   1.0000   1.0000   1.0000   1.0000   1.0000   1.0000
     1.0000   1.0000   1.0000   1.0000   1.0000   1.0000   1.0000   1.0000
     1.0000   1.0000   1.0000   1.0000   1.0000   1.0000   1.0000   1.0000
     1.0000   1.0000   0.0000

          k =-0.4000 0.2309 0.0000 (112236 PWs)   bands (ev):

   -73.8154 -73.8115 -73.8084 -73.8065 -73.8037 -73.8034 -73.8001 -73.7977
   -73.7955 -73.7906 -73.7895 -73.7881 -73.7839 -73.7429 -73.7333 -73.7304
   -38.2019 -38.1993 -38.1859 -38.1807 -38.1741 -38.1584 -38.1563 -38.1402
   -38.1247 -38.1187 -38.0990 -38.0952 -38.0584 -38.0522 -38.0443 -38.0359
   -38.0255 -38.0215 -38.0089 -38.0086 -38.0067 -38.0048 -38.0008 -37.9978
   -37.9954 -37.9927 -37.9918 -37.9901 -37.9866 -37.9831 -37.9779 -37.9757
   -37.9689 -37.9616 -37.9589 -37.9527 -37.9464 -37.9436 -37.9411 -37.9378
   -37.9302 -37.9245 -37.9186 -37.9107 -37.9014 -37.8865 -37.8790 -37.8647
   -21.4566 -15.4814 -14.4333 -14.2310 -13.8669 -13.8566 -13.2469 -13.2416
   -13.0213 -12.9952 -12.9734 -12.9092 -12.8315 -12.7303 -12.7025 -12.6842
   -12.5319 -12.5058 -12.4598 -12.4517 -12.4295 -12.4242 -12.3853 -12.3624
   -12.3518 -12.2817 -12.2203 -12.1984 -12.1756 -12.1606 -12.1546 -12.1517
   -12.0559 -12.0398  -8.0394  -7.5854  -6.1323  -6.1128  -6.0900  -6.0696
    -6.0195  -5.8726  -5.8535  -5.8341  -5.7081  -5.5267  -5.5079  -5.4824
    -5.4513  -5.4436  -5.4356  -5.3868  -5.3775  -5.3144  -5.3068  -5.0770
    -5.0550  -5.0216  -5.0048  -4.7996  -4.6010  -4.5462  -4.4736  -4.4377
    -4.4098  -4.3698  -4.3499  -4.3060  -4.2423  -4.2187  -4.1935  -4.1582
    -4.1199  -4.1112  -4.0993  -4.0734  -4.0663  -4.0501  -4.0392  -3.6637
    -3.5600  -3.5138  -3.4700  -3.4511  -3.4208  -3.3917  -3.3536  -3.3140
    -3.2811  -3.2715  -3.2565  -3.2391  -3.2106  -3.1926  -3.1423  -3.1130
    -3.0641  -3.0321  -3.0068  -2.9456  -2.9270  -2.8954  -2.8199  -2.7596
    -2.7138  -2.6970  -2.6429  -2.6218  -2.5886  -2.5753  -2.5385  -2.4751
    -2.4240  -2.4175  -2.3876  -2.3268  -2.2760  -2.2474  -2.2393  -2.1614
    -2.1140  -2.0942  -2.0492  -2.0261  -2.0070  -1.9883  -1.9519  -1.9177
    -1.9047  -1.8914  -1.8812  -1.8634  -1.8546  -1.8468  -1.8356  -1.8165
    -1.7789  -1.7501  -1.7098  -1.6852  -1.6802  -1.6551  -1.6420  -1.6080
    -1.5819  -1.5498  -1.4931  -1.4627  -1.4429  -1.3490  -1.3201  -1.2919
    -1.2594  -1.2083  -1.1697  -1.1238  -1.1132  -1.0925  -1.0670  -0.9809
    -0.9539  -0.8710  -0.7293  -0.7131  -0.6351  -0.6179  -0.4990  -0.4498
    -0.4423  -0.4203  -0.3996  -0.3693  -0.2883  -0.0936   0.0062   0.0374
     0.1456   1.3750   1.6874

     occupation numbers 
     1.0000   1.0000   1.0000   1.0000   1.0000   1.0000   1.0000   1.0000
     1.0000   1.0000   1.0000   1.0000   1.0000   1.0000   1.0000   1.0000
     1.0000   1.0000   1.0000   1.0000   1.0000   1.0000   1.0000   1.0000
     1.0000   1.0000   1.0000   1.0000   1.0000   1.0000   1.0000   1.0000
     1.0000   1.0000   1.0000   1.0000   1.0000   1.0000   1.0000   1.0000
     1.0000   1.0000   1.0000   1.0000   1.0000   1.0000   1.0000   1.0000
     1.0000   1.0000   1.0000   1.0000   1.0000   1.0000   1.0000   1.0000
     1.0000   1.0000   1.0000   1.0000   1.0000   1.0000   1.0000   1.0000
     1.0000   1.0000   1.0000   1.0000   1.0000   1.0000   1.0000   1.0000
     1.0000   1.0000   1.0000   1.0000   1.0000   1.0000   1.0000   1.0000
     1.0000   1.0000   1.0000   1.0000   1.0000   1.0000   1.0000   1.0000
     1.0000   1.0000   1.0000   1.0000   1.0000   1.0000   1.0000   1.0000
     1.0000   1.0000   1.0000   1.0000   1.0000   1.0000   1.0000   1.0000
     1.0000   1.0000   1.0000   1.0000   1.0000   1.0000   1.0000   1.0000
     1.0000   1.0000   1.0000   1.0000   1.0000   1.0000   1.0000   1.0000
     1.0000   1.0000   1.0000   1.0000   1.0000   1.0000   1.0000   1.0000
     1.0000   1.0000   1.0000   1.0000   1.0000   1.0000   1.0000   1.0000
     1.0000   1.0000   1.0000   1.0000   1.0000   1.0000   1.0000   1.0000
     1.0000   1.0000   1.0000   1.0000   1.0000   1.0000   1.0000   1.0000
     1.0000   1.0000   1.0000   1.0000   1.0000   1.0000   1.0000   1.0000
     1.0000   1.0000   1.0000   1.0000   1.0000   1.0000   1.0000   1.0000
     1.0000   1.0000   1.0000   1.0000   1.0000   1.0000   1.0000   1.0000
     1.0000   1.0000   1.0000   1.0000   1.0000   1.0000   1.0000   1.0000
     1.0000   1.0000   1.0000   1.0000   1.0000   1.0000   1.0000   1.0000
     1.0000   1.0000   1.0000   1.0000   1.0000   1.0000   1.0000   1.0000
     1.0000   1.0000   1.0000   1.0000   1.0000   1.0000   1.0000   1.0000
     1.0000   1.0000   1.0000   1.0000   1.0000   1.0000   1.0000   1.0000
     1.0000   1.0000   1.0000   1.0000   1.0000   1.0000   1.0000   1.0000
     1.0000   1.0000   1.0000   1.0000   1.0000   1.0000   1.0000   1.0000
     1.0000   1.0000   1.0000   1.0000   1.0000   1.0000   1.0000   1.0000
     1.0000   1.0000   0.0000

          k = 0.4000 0.2309 0.0000 (112236 PWs)   bands (ev):

   -73.8153 -73.8117 -73.8083 -73.8065 -73.8038 -73.8029 -73.8005 -73.7978
   -73.7953 -73.7907 -73.7894 -73.7881 -73.7839 -73.7429 -73.7333 -73.7304
   -38.2007 -38.2001 -38.1865 -38.1822 -38.1724 -38.1577 -38.1566 -38.1409
   -38.1241 -38.1185 -38.1000 -38.0953 -38.0570 -38.0535 -38.0443 -38.0360
   -38.0260 -38.0199 -38.0093 -38.0084 -38.0073 -38.0050 -38.0010 -37.9984
   -37.9936 -37.9932 -37.9914 -37.9892 -37.9876 -37.9833 -37.9780 -37.9755
   -37.9705 -37.9610 -37.9592 -37.9523 -37.9453 -37.9437 -37.9414 -37.9368
   -37.9290 -37.9254 -37.9194 -37.9117 -37.8994 -37.8875 -37.8824 -37.8621
   -21.4566 -15.4814 -14.4332 -14.2311 -13.8664 -13.8571 -13.2465 -13.2429
   -13.0183 -12.9948 -12.9756 -12.9084 -12.8322 -12.7280 -12.7044 -12.6851
   -12.5395 -12.4980 -12.4640 -12.4490 -12.4286 -12.4241 -12.3859 -12.3609
   -12.3495 -12.2816 -12.2274 -12.1964 -12.1773 -12.1596 -12.1548 -12.1491
   -12.0530 -12.0423  -8.0394  -7.5854  -6.1259  -6.1127  -6.0897  -6.0693
    -6.0321  -5.8653  -5.8535  -5.8309  -5.7127  -5.5284  -5.5070  -5.4851
    -5.4466  -5.4454  -5.4374  -5.3865  -5.3793  -5.3120  -5.3056  -5.0698
    -5.0663  -5.0200  -5.0091  -4.7726  -4.6104  -4.5548  -4.4800  -4.4477
    -4.4160  -4.3691  -4.3461  -4.3023  -4.2366  -4.2232  -4.1891  -4.1555
    -4.1233  -4.1136  -4.1003  -4.0748  -4.0617  -4.0478  -4.0404  -3.6486
    -3.5555  -3.5161  -3.4593  -3.4449  -3.4243  -3.3945  -3.3557  -3.3216
    -3.2882  -3.2661  -3.2506  -3.2313  -3.2152  -3.1985  -3.1323  -3.1141
    -3.0724  -3.0537  -3.0139  -2.9469  -2.9247  -2.8997  -2.8278  -2.7594
    -2.7092  -2.6800  -2.6347  -2.6108  -2.6092  -2.5918  -2.5015  -2.4804
    -2.4495  -2.4258  -2.3672  -2.3251  -2.2697  -2.2546  -2.2394  -2.1421
    -2.1113  -2.0996  -2.0339  -2.0065  -1.9980  -1.9791  -1.9691  -1.9534
    -1.9269  -1.8966  -1.8821  -1.8615  -1.8482  -1.8432  -1.8344  -1.8129
    -1.7954  -1.7448  -1.7167  -1.6977  -1.6838  -1.6343  -1.6223  -1.6151
    -1.5924  -1.5456  -1.5025  -1.4898  -1.4086  -1.3562  -1.3042  -1.2849
    -1.2476  -1.2288  -1.1872  -1.1314  -1.1143  -1.0563  -1.0393  -0.9910
    -0.9672  -0.8787  -0.7255  -0.7195  -0.6345  -0.6242  -0.5067  -0.4533
    -0.4444  -0.4177  -0.4020  -0.3580  -0.2830  -0.0944   0.0082   0.0335
     0.1482   1.3589   1.7078

     occupation numbers 
     1.0000   1.0000   1.0000   1.0000   1.0000   1.0000   1.0000   1.0000
     1.0000   1.0000   1.0000   1.0000   1.0000   1.0000   1.0000   1.0000
     1.0000   1.0000   1.0000   1.0000   1.0000   1.0000   1.0000   1.0000
     1.0000   1.0000   1.0000   1.0000   1.0000   1.0000   1.0000   1.0000
     1.0000   1.0000   1.0000   1.0000   1.0000   1.0000   1.0000   1.0000
     1.0000   1.0000   1.0000   1.0000   1.0000   1.0000   1.0000   1.0000
     1.0000   1.0000   1.0000   1.0000   1.0000   1.0000   1.0000   1.0000
     1.0000   1.0000   1.0000   1.0000   1.0000   1.0000   1.0000   1.0000
     1.0000   1.0000   1.0000   1.0000   1.0000   1.0000   1.0000   1.0000
     1.0000   1.0000   1.0000   1.0000   1.0000   1.0000   1.0000   1.0000
     1.0000   1.0000   1.0000   1.0000   1.0000   1.0000   1.0000   1.0000
     1.0000   1.0000   1.0000   1.0000   1.0000   1.0000   1.0000   1.0000
     1.0000   1.0000   1.0000   1.0000   1.0000   1.0000   1.0000   1.0000
     1.0000   1.0000   1.0000   1.0000   1.0000   1.0000   1.0000   1.0000
     1.0000   1.0000   1.0000   1.0000   1.0000   1.0000   1.0000   1.0000
     1.0000   1.0000   1.0000   1.0000   1.0000   1.0000   1.0000   1.0000
     1.0000   1.0000   1.0000   1.0000   1.0000   1.0000   1.0000   1.0000
     1.0000   1.0000   1.0000   1.0000   1.0000   1.0000   1.0000   1.0000
     1.0000   1.0000   1.0000   1.0000   1.0000   1.0000   1.0000   1.0000
     1.0000   1.0000   1.0000   1.0000   1.0000   1.0000   1.0000   1.0000
     1.0000   1.0000   1.0000   1.0000   1.0000   1.0000   1.0000   1.0000
     1.0000   1.0000   1.0000   1.0000   1.0000   1.0000   1.0000   1.0000
     1.0000   1.0000   1.0000   1.0000   1.0000   1.0000   1.0000   1.0000
     1.0000   1.0000   1.0000   1.0000   1.0000   1.0000   1.0000   1.0000
     1.0000   1.0000   1.0000   1.0000   1.0000   1.0000   1.0000   1.0000
     1.0000   1.0000   1.0000   1.0000   1.0000   1.0000   1.0000   1.0000
     1.0000   1.0000   1.0000   1.0000   1.0000   1.0000   1.0000   1.0000
     1.0000   1.0000   1.0000   1.0000   1.0000   1.0000   1.0000   1.0000
     1.0000   1.0000   1.0000   1.0000   1.0000   1.0000   1.0000   1.0000
     1.0000   1.0000   1.0000   1.0000   1.0000   1.0000   1.0000   1.0000
     1.0000   1.0000   0.0000

          k =-0.2000 0.3464 0.0000 (112231 PWs)   bands (ev):

   -73.8154 -73.8114 -73.8085 -73.8063 -73.8041 -73.8030 -73.8000 -73.7976
   -73.7957 -73.7905 -73.7895 -73.7881 -73.7839 -73.7429 -73.7333 -73.7304
   -38.2069 -38.1984 -38.1958 -38.1738 -38.1686 -38.1605 -38.1501 -38.1434
   -38.1276 -38.1195 -38.1040 -38.0712 -38.0562 -38.0497 -38.0452 -38.0332
   -38.0288 -38.0237 -38.0184 -38.0173 -38.0122 -38.0061 -38.0004 -37.9980
   -37.9947 -37.9902 -37.9884 -37.9859 -37.9842 -37.9801 -37.9780 -37.9769
   -37.9710 -37.9690 -37.9589 -37.9535 -37.9506 -37.9483 -37.9388 -37.9356
   -37.9283 -37.9217 -37.9186 -37.9130 -37.8961 -37.8897 -37.8741 -37.8649
   -21.4566 -15.4814 -14.4730 -14.0994 -14.0591 -13.5717 -13.5549 -13.1715
   -13.1185 -13.0070 -12.9329 -12.8058 -12.7889 -12.7038 -12.6720 -12.6169
   -12.5830 -12.5759 -12.5678 -12.4530 -12.4250 -12.3916 -12.3779 -12.3088
   -12.2911 -12.2727 -12.2503 -12.2261 -12.2227 -12.1557 -12.1490 -12.1076
   -12.0955 -12.0351  -8.0394  -7.5854  -6.1846  -6.1489  -6.1204  -6.1002
    -6.0755  -5.7591  -5.7316  -5.7140  -5.6953  -5.6244  -5.6000  -5.5584
    -5.5047  -5.4738  -5.3530  -5.3272  -5.2967  -5.2632  -5.2388  -5.2166
    -5.0950  -4.9101  -4.8912  -4.7926  -4.7548  -4.5992  -4.5059  -4.4399
    -4.3921  -4.3413  -4.3314  -4.3057  -4.2789  -4.2571  -4.2419  -4.2230
    -4.1613  -4.1269  -4.1085  -4.0916  -4.0522  -3.7645  -3.7355  -3.7246
    -3.7050  -3.6876  -3.5842  -3.5009  -3.4149  -3.3768  -3.3647  -3.3005
    -3.2742  -3.2345  -3.2241  -3.1982  -3.1607  -3.1451  -3.1116  -3.0803
    -3.0527  -3.0022  -2.9571  -2.9396  -2.9244  -2.9193  -2.9087  -2.8949
    -2.7761  -2.7113  -2.6865  -2.6642  -2.5974  -2.5374  -2.5104  -2.4686
    -2.4512  -2.3993  -2.3813  -2.3551  -2.3120  -2.2076  -2.1908  -2.1465
    -2.1252  -2.1177  -2.0986  -2.0664  -2.0234  -1.9782  -1.9663  -1.9293
    -1.9035  -1.8912  -1.8600  -1.8431  -1.8172  -1.8101  -1.7875  -1.7695
    -1.7336  -1.7069  -1.6869  -1.6673  -1.6421  -1.6256  -1.5802  -1.5780
    -1.5559  -1.5445  -1.5197  -1.4939  -1.4259  -1.3900  -1.3791  -1.3393
    -1.2757  -1.2391  -1.1881  -1.1688  -1.1508  -1.1068  -1.0367  -0.9786
    -0.8722  -0.8283  -0.6832  -0.6662  -0.6300  -0.6200  -0.6045  -0.5351
    -0.5309  -0.4115  -0.3794  -0.2532  -0.2003  -0.1918  -0.1471   0.0793
     0.1605   1.3366   1.7164

     occupation numbers 
     1.0000   1.0000   1.0000   1.0000   1.0000   1.0000   1.0000   1.0000
     1.0000   1.0000   1.0000   1.0000   1.0000   1.0000   1.0000   1.0000
     1.0000   1.0000   1.0000   1.0000   1.0000   1.0000   1.0000   1.0000
     1.0000   1.0000   1.0000   1.0000   1.0000   1.0000   1.0000   1.0000
     1.0000   1.0000   1.0000   1.0000   1.0000   1.0000   1.0000   1.0000
     1.0000   1.0000   1.0000   1.0000   1.0000   1.0000   1.0000   1.0000
     1.0000   1.0000   1.0000   1.0000   1.0000   1.0000   1.0000   1.0000
     1.0000   1.0000   1.0000   1.0000   1.0000   1.0000   1.0000   1.0000
     1.0000   1.0000   1.0000   1.0000   1.0000   1.0000   1.0000   1.0000
     1.0000   1.0000   1.0000   1.0000   1.0000   1.0000   1.0000   1.0000
     1.0000   1.0000   1.0000   1.0000   1.0000   1.0000   1.0000   1.0000
     1.0000   1.0000   1.0000   1.0000   1.0000   1.0000   1.0000   1.0000
     1.0000   1.0000   1.0000   1.0000   1.0000   1.0000   1.0000   1.0000
     1.0000   1.0000   1.0000   1.0000   1.0000   1.0000   1.0000   1.0000
     1.0000   1.0000   1.0000   1.0000   1.0000   1.0000   1.0000   1.0000
     1.0000   1.0000   1.0000   1.0000   1.0000   1.0000   1.0000   1.0000
     1.0000   1.0000   1.0000   1.0000   1.0000   1.0000   1.0000   1.0000
     1.0000   1.0000   1.0000   1.0000   1.0000   1.0000   1.0000   1.0000
     1.0000   1.0000   1.0000   1.0000   1.0000   1.0000   1.0000   1.0000
     1.0000   1.0000   1.0000   1.0000   1.0000   1.0000   1.0000   1.0000
     1.0000   1.0000   1.0000   1.0000   1.0000   1.0000   1.0000   1.0000
     1.0000   1.0000   1.0000   1.0000   1.0000   1.0000   1.0000   1.0000
     1.0000   1.0000   1.0000   1.0000   1.0000   1.0000   1.0000   1.0000
     1.0000   1.0000   1.0000   1.0000   1.0000   1.0000   1.0000   1.0000
     1.0000   1.0000   1.0000   1.0000   1.0000   1.0000   1.0000   1.0000
     1.0000   1.0000   1.0000   1.0000   1.0000   1.0000   1.0000   1.0000
     1.0000   1.0000   1.0000   1.0000   1.0000   1.0000   1.0000   1.0000
     1.0000   1.0000   1.0000   1.0000   1.0000   1.0000   1.0000   1.0000
     1.0000   1.0000   1.0000   1.0000   1.0000   1.0000   1.0000   1.0000
     1.0000   1.0000   1.0000   1.0000   1.0000   1.0000   1.0000   1.0000
     1.0000   1.0000   0.0000

          k = 0.4000-0.0000 0.0000 (112231 PWs)   bands (ev):

   -73.8154 -73.8116 -73.8083 -73.8065 -73.8037 -73.8032 -73.8003 -73.7977
   -73.7954 -73.7907 -73.7895 -73.7881 -73.7839 -73.7429 -73.7333 -73.7304
   -38.2070 -38.1980 -38.1962 -38.1735 -38.1697 -38.1603 -38.1499 -38.1425
   -38.1263 -38.1180 -38.1074 -38.0722 -38.0551 -38.0494 -38.0450 -38.0341
   -38.0275 -38.0243 -38.0193 -38.0173 -38.0121 -38.0071 -38.0008 -37.9964
   -37.9941 -37.9906 -37.9881 -37.9866 -37.9837 -37.9811 -37.9779 -37.9771
   -37.9704 -37.9673 -37.9595 -37.9540 -37.9515 -37.9474 -37.9388 -37.9369
   -37.9265 -37.9217 -37.9186 -37.9115 -37.8975 -37.8911 -37.8751 -37.8633
   -21.4566 -15.4814 -14.4731 -14.0972 -14.0614 -13.5652 -13.5621 -13.1676
   -13.1207 -13.0107 -12.9273 -12.8029 -12.7918 -12.7079 -12.6797 -12.6013
   -12.5974 -12.5733 -12.5588 -12.4553 -12.4214 -12.4101 -12.3633 -12.3070
   -12.2915 -12.2695 -12.2525 -12.2347 -12.2197 -12.1564 -12.1463 -12.1061
   -12.0965 -12.0355  -8.0394  -7.5854  -6.1761  -6.1566  -6.1153  -6.1076
    -6.0755  -5.7517  -5.7368  -5.7180  -5.6829  -5.6318  -5.6055  -5.5572
    -5.5025  -5.4711  -5.3493  -5.3326  -5.2878  -5.2692  -5.2410  -5.2256
    -5.0943  -4.8975  -4.8845  -4.8062  -4.7541  -4.5625  -4.5297  -4.4548
    -4.4047  -4.3433  -4.3354  -4.3086  -4.2737  -4.2617  -4.2395  -4.2064
    -4.1725  -4.1155  -4.1073  -4.0879  -4.0518  -3.7549  -3.7301  -3.7236
    -3.7034  -3.6942  -3.5972  -3.4762  -3.4243  -3.3925  -3.3664  -3.3107
    -3.2699  -3.2397  -3.2284  -3.1982  -3.1695  -3.1395  -3.1197  -3.0757
    -3.0333  -2.9854  -2.9630  -2.9447  -2.9364  -2.9125  -2.8986  -2.8893
    -2.7638  -2.7273  -2.6901  -2.6386  -2.6111  -2.5582  -2.5226  -2.4623
    -2.4510  -2.4103  -2.3793  -2.3358  -2.3113  -2.2149  -2.1749  -2.1460
    -2.1230  -2.1186  -2.0957  -2.0844  -1.9955  -1.9785  -1.9657  -1.9326
    -1.9171  -1.8916  -1.8697  -1.8559  -1.8392  -1.8144  -1.7766  -1.7580
    -1.7319  -1.7014  -1.6819  -1.6661  -1.6453  -1.6182  -1.5878  -1.5682
    -1.5485  -1.5397  -1.5197  -1.4914  -1.4414  -1.4036  -1.3594  -1.3306
    -1.2780  -1.2537  -1.1942  -1.1725  -1.1446  -1.0966  -1.0371  -0.9781
    -0.8618  -0.8425  -0.6776  -0.6687  -0.6301  -0.6164  -0.6084  -0.5345
    -0.5298  -0.4295  -0.3729  -0.2459  -0.2012  -0.1870  -0.1500   0.0768
     0.1602   1.3670   1.6837

     occupation numbers 
     1.0000   1.0000   1.0000   1.0000   1.0000   1.0000   1.0000   1.0000
     1.0000   1.0000   1.0000   1.0000   1.0000   1.0000   1.0000   1.0000
     1.0000   1.0000   1.0000   1.0000   1.0000   1.0000   1.0000   1.0000
     1.0000   1.0000   1.0000   1.0000   1.0000   1.0000   1.0000   1.0000
     1.0000   1.0000   1.0000   1.0000   1.0000   1.0000   1.0000   1.0000
     1.0000   1.0000   1.0000   1.0000   1.0000   1.0000   1.0000   1.0000
     1.0000   1.0000   1.0000   1.0000   1.0000   1.0000   1.0000   1.0000
     1.0000   1.0000   1.0000   1.0000   1.0000   1.0000   1.0000   1.0000
     1.0000   1.0000   1.0000   1.0000   1.0000   1.0000   1.0000   1.0000
     1.0000   1.0000   1.0000   1.0000   1.0000   1.0000   1.0000   1.0000
     1.0000   1.0000   1.0000   1.0000   1.0000   1.0000   1.0000   1.0000
     1.0000   1.0000   1.0000   1.0000   1.0000   1.0000   1.0000   1.0000
     1.0000   1.0000   1.0000   1.0000   1.0000   1.0000   1.0000   1.0000
     1.0000   1.0000   1.0000   1.0000   1.0000   1.0000   1.0000   1.0000
     1.0000   1.0000   1.0000   1.0000   1.0000   1.0000   1.0000   1.0000
     1.0000   1.0000   1.0000   1.0000   1.0000   1.0000   1.0000   1.0000
     1.0000   1.0000   1.0000   1.0000   1.0000   1.0000   1.0000   1.0000
     1.0000   1.0000   1.0000   1.0000   1.0000   1.0000   1.0000   1.0000
     1.0000   1.0000   1.0000   1.0000   1.0000   1.0000   1.0000   1.0000
     1.0000   1.0000   1.0000   1.0000   1.0000   1.0000   1.0000   1.0000
     1.0000   1.0000   1.0000   1.0000   1.0000   1.0000   1.0000   1.0000
     1.0000   1.0000   1.0000   1.0000   1.0000   1.0000   1.0000   1.0000
     1.0000   1.0000   1.0000   1.0000   1.0000   1.0000   1.0000   1.0000
     1.0000   1.0000   1.0000   1.0000   1.0000   1.0000   1.0000   1.0000
     1.0000   1.0000   1.0000   1.0000   1.0000   1.0000   1.0000   1.0000
     1.0000   1.0000   1.0000   1.0000   1.0000   1.0000   1.0000   1.0000
     1.0000   1.0000   1.0000   1.0000   1.0000   1.0000   1.0000   1.0000
     1.0000   1.0000   1.0000   1.0000   1.0000   1.0000   1.0000   1.0000
     1.0000   1.0000   1.0000   1.0000   1.0000   1.0000   1.0000   1.0000
     1.0000   1.0000   1.0000   1.0000   1.0000   1.0000   1.0000   1.0000
     1.0000   1.0000   0.0000

          k =-0.4000 0.4619 0.0000 (112237 PWs)   bands (ev):

   -73.8153 -73.8116 -73.8085 -73.8064 -73.8038 -73.8031 -73.8001 -73.7977
   -73.7955 -73.7907 -73.7895 -73.7881 -73.7839 -73.7429 -73.7333 -73.7304
   -38.1973 -38.1913 -38.1815 -38.1789 -38.1712 -38.1674 -38.1594 -38.1444
   -38.1406 -38.1245 -38.0881 -38.0849 -38.0790 -38.0461 -38.0425 -38.0369
   -38.0296 -38.0259 -38.0172 -38.0091 -38.0064 -38.0017 -37.9995 -37.9974
   -37.9955 -37.9944 -37.9910 -37.9865 -37.9832 -37.9779 -37.9706 -37.9673
   -37.9618 -37.9570 -37.9541 -37.9524 -37.9509 -37.9441 -37.9395 -37.9377
   -37.9321 -37.9254 -37.9210 -37.9176 -37.9069 -37.8885 -37.8758 -37.8680
   -21.4566 -15.4814 -14.3350 -14.2887 -14.1138 -13.5942 -13.2955 -13.2927
   -12.9568 -12.9464 -12.8838 -12.8552 -12.8259 -12.8004 -12.7951 -12.6623
   -12.6331 -12.5946 -12.4919 -12.4822 -12.3856 -12.3732 -12.3456 -12.3240
   -12.3093 -12.2974 -12.2595 -12.2340 -12.2288 -12.1325 -12.1195 -12.1139
   -12.0793 -12.0161  -8.0394  -7.5854  -6.0929  -6.0399  -6.0127  -5.9665
    -5.9113  -5.8873  -5.8740  -5.8555  -5.8065  -5.7421  -5.6831  -5.6224
    -5.6069  -5.5390  -5.3552  -5.2796  -5.2440  -5.2135  -5.1978  -5.1654
    -5.1541  -4.8499  -4.8292  -4.7389  -4.6174  -4.5817  -4.5398  -4.5189
    -4.4859  -4.4206  -4.3787  -4.3206  -4.3034  -4.2391  -4.2243  -4.2047
    -4.1900  -4.1605  -4.1187  -4.0920  -3.9530  -3.9449  -3.7842  -3.6612
    -3.5990  -3.5823  -3.4221  -3.3844  -3.3504  -3.3186  -3.2972  -3.2758
    -3.2671  -3.2606  -3.2372  -3.2269  -3.2160  -3.2080  -3.1402  -3.1171
    -3.0918  -3.0744  -3.0546  -3.0352  -2.9810  -2.9188  -2.8380  -2.7946
    -2.7298  -2.7018  -2.6853  -2.6601  -2.6050  -2.5666  -2.4838  -2.4022
    -2.3882  -2.3208  -2.3169  -2.3097  -2.2598  -2.1808  -2.1665  -2.1484
    -2.1285  -2.0840  -2.0687  -2.0410  -2.0183  -1.9651  -1.9517  -1.9356
    -1.9232  -1.9093  -1.8857  -1.8722  -1.8588  -1.8480  -1.8409  -1.8335
    -1.8062  -1.7834  -1.7526  -1.7188  -1.6931  -1.6789  -1.6551  -1.6392
    -1.6138  -1.5725  -1.5184  -1.4945  -1.4751  -1.4529  -1.4029  -1.3022
    -1.2666  -1.2264  -1.1591  -1.1101  -1.0869  -1.0653  -1.0327  -0.9512
    -0.8097  -0.7816  -0.6957  -0.6849  -0.6511  -0.6381  -0.5949  -0.5757
    -0.5589  -0.3953  -0.2731  -0.2683  -0.1701  -0.1138  -0.0711   0.1177
     0.1938   1.3747   1.6981

     occupation numbers 
     1.0000   1.0000   1.0000   1.0000   1.0000   1.0000   1.0000   1.0000
     1.0000   1.0000   1.0000   1.0000   1.0000   1.0000   1.0000   1.0000
     1.0000   1.0000   1.0000   1.0000   1.0000   1.0000   1.0000   1.0000
     1.0000   1.0000   1.0000   1.0000   1.0000   1.0000   1.0000   1.0000
     1.0000   1.0000   1.0000   1.0000   1.0000   1.0000   1.0000   1.0000
     1.0000   1.0000   1.0000   1.0000   1.0000   1.0000   1.0000   1.0000
     1.0000   1.0000   1.0000   1.0000   1.0000   1.0000   1.0000   1.0000
     1.0000   1.0000   1.0000   1.0000   1.0000   1.0000   1.0000   1.0000
     1.0000   1.0000   1.0000   1.0000   1.0000   1.0000   1.0000   1.0000
     1.0000   1.0000   1.0000   1.0000   1.0000   1.0000   1.0000   1.0000
     1.0000   1.0000   1.0000   1.0000   1.0000   1.0000   1.0000   1.0000
     1.0000   1.0000   1.0000   1.0000   1.0000   1.0000   1.0000   1.0000
     1.0000   1.0000   1.0000   1.0000   1.0000   1.0000   1.0000   1.0000
     1.0000   1.0000   1.0000   1.0000   1.0000   1.0000   1.0000   1.0000
     1.0000   1.0000   1.0000   1.0000   1.0000   1.0000   1.0000   1.0000
     1.0000   1.0000   1.0000   1.0000   1.0000   1.0000   1.0000   1.0000
     1.0000   1.0000   1.0000   1.0000   1.0000   1.0000   1.0000   1.0000
     1.0000   1.0000   1.0000   1.0000   1.0000   1.0000   1.0000   1.0000
     1.0000   1.0000   1.0000   1.0000   1.0000   1.0000   1.0000   1.0000
     1.0000   1.0000   1.0000   1.0000   1.0000   1.0000   1.0000   1.0000
     1.0000   1.0000   1.0000   1.0000   1.0000   1.0000   1.0000   1.0000
     1.0000   1.0000   1.0000   1.0000   1.0000   1.0000   1.0000   1.0000
     1.0000   1.0000   1.0000   1.0000   1.0000   1.0000   1.0000   1.0000
     1.0000   1.0000   1.0000   1.0000   1.0000   1.0000   1.0000   1.0000
     1.0000   1.0000   1.0000   1.0000   1.0000   1.0000   1.0000   1.0000
     1.0000   1.0000   1.0000   1.0000   1.0000   1.0000   1.0000   1.0000
     1.0000   1.0000   1.0000   1.0000   1.0000   1.0000   1.0000   1.0000
     1.0000   1.0000   1.0000   1.0000   1.0000   1.0000   1.0000   1.0000
     1.0000   1.0000   1.0000   1.0000   1.0000   1.0000   1.0000   1.0000
     1.0000   1.0000   1.0000   1.0000   1.0000   1.0000   1.0000   1.0000
     1.0000   1.0000   0.0000

          k = 0.6000 0.1155 0.0000 (112237 PWs)   bands (ev):

   -73.8153 -73.8117 -73.8084 -73.8064 -73.8039 -73.8029 -73.8004 -73.7977
   -73.7954 -73.7907 -73.7894 -73.7881 -73.7839 -73.7429 -73.7333 -73.7304
   -38.1964 -38.1921 -38.1822 -38.1791 -38.1707 -38.1669 -38.1591 -38.1444
   -38.1411 -38.1241 -38.0881 -38.0854 -38.0796 -38.0447 -38.0427 -38.0371
   -38.0295 -38.0263 -38.0162 -38.0096 -38.0070 -38.0013 -37.9999 -37.9981
   -37.9957 -37.9931 -37.9909 -37.9869 -37.9832 -37.9779 -37.9707 -37.9667
   -37.9630 -37.9567 -37.9540 -37.9527 -37.9502 -37.9446 -37.9391 -37.9365
   -37.9310 -37.9258 -37.9209 -37.9190 -37.9065 -37.8893 -37.8781 -37.8656
   -21.4566 -15.4814 -14.3345 -14.2893 -14.1136 -13.5942 -13.3030 -13.2852
   -12.9633 -12.9396 -12.8789 -12.8590 -12.8260 -12.8005 -12.7959 -12.6653
   -12.6317 -12.5928 -12.5020 -12.4717 -12.3925 -12.3694 -12.3418 -12.3203
   -12.3096 -12.2994 -12.2629 -12.2344 -12.2297 -12.1304 -12.1202 -12.1142
   -12.0788 -12.0163  -8.0394  -7.5854  -6.0927  -6.0363  -6.0097  -5.9646
    -5.9219  -5.9040  -5.8748  -5.8325  -5.8053  -5.7471  -5.6853  -5.6200
    -5.6092  -5.5353  -5.3535  -5.2768  -5.2525  -5.2207  -5.1946  -5.1684
    -5.1453  -4.8521  -4.8359  -4.6887  -4.6418  -4.6038  -4.5466  -4.5100
    -4.4863  -4.4308  -4.3784  -4.3180  -4.2960  -4.2393  -4.2295  -4.1960
    -4.1871  -4.1645  -4.1181  -4.0939  -3.9547  -3.9440  -3.7810  -3.6595
    -3.6001  -3.5740  -3.4219  -3.3643  -3.3547  -3.3235  -3.2900  -3.2821
    -3.2795  -3.2532  -3.2387  -3.2284  -3.2173  -3.1968  -3.1708  -3.1365
    -3.0824  -3.0731  -3.0506  -3.0148  -2.9842  -2.9307  -2.8333  -2.7957
    -2.7350  -2.7081  -2.6923  -2.6345  -2.6180  -2.5312  -2.4905  -2.4508
    -2.3847  -2.3275  -2.3121  -2.2888  -2.2402  -2.1922  -2.1687  -2.1352
    -2.1131  -2.0936  -2.0718  -2.0319  -2.0066  -1.9742  -1.9588  -1.9463
    -1.9268  -1.8969  -1.8928  -1.8754  -1.8650  -1.8565  -1.8489  -1.8328
    -1.8008  -1.7858  -1.7456  -1.7242  -1.6904  -1.6803  -1.6497  -1.6299
    -1.6127  -1.5927  -1.5241  -1.5107  -1.4664  -1.4255  -1.3890  -1.3140
    -1.2747  -1.2193  -1.1519  -1.1320  -1.0905  -1.0459  -1.0090  -0.9708
    -0.8062  -0.7858  -0.6922  -0.6898  -0.6516  -0.6457  -0.5943  -0.5880
    -0.5448  -0.3967  -0.2758  -0.2620  -0.1678  -0.1171  -0.0704   0.1182
     0.1942   1.3651   1.7099

     occupation numbers 
     1.0000   1.0000   1.0000   1.0000   1.0000   1.0000   1.0000   1.0000
     1.0000   1.0000   1.0000   1.0000   1.0000   1.0000   1.0000   1.0000
     1.0000   1.0000   1.0000   1.0000   1.0000   1.0000   1.0000   1.0000
     1.0000   1.0000   1.0000   1.0000   1.0000   1.0000   1.0000   1.0000
     1.0000   1.0000   1.0000   1.0000   1.0000   1.0000   1.0000   1.0000
     1.0000   1.0000   1.0000   1.0000   1.0000   1.0000   1.0000   1.0000
     1.0000   1.0000   1.0000   1.0000   1.0000   1.0000   1.0000   1.0000
     1.0000   1.0000   1.0000   1.0000   1.0000   1.0000   1.0000   1.0000
     1.0000   1.0000   1.0000   1.0000   1.0000   1.0000   1.0000   1.0000
     1.0000   1.0000   1.0000   1.0000   1.0000   1.0000   1.0000   1.0000
     1.0000   1.0000   1.0000   1.0000   1.0000   1.0000   1.0000   1.0000
     1.0000   1.0000   1.0000   1.0000   1.0000   1.0000   1.0000   1.0000
     1.0000   1.0000   1.0000   1.0000   1.0000   1.0000   1.0000   1.0000
     1.0000   1.0000   1.0000   1.0000   1.0000   1.0000   1.0000   1.0000
     1.0000   1.0000   1.0000   1.0000   1.0000   1.0000   1.0000   1.0000
     1.0000   1.0000   1.0000   1.0000   1.0000   1.0000   1.0000   1.0000
     1.0000   1.0000   1.0000   1.0000   1.0000   1.0000   1.0000   1.0000
     1.0000   1.0000   1.0000   1.0000   1.0000   1.0000   1.0000   1.0000
     1.0000   1.0000   1.0000   1.0000   1.0000   1.0000   1.0000   1.0000
     1.0000   1.0000   1.0000   1.0000   1.0000   1.0000   1.0000   1.0000
     1.0000   1.0000   1.0000   1.0000   1.0000   1.0000   1.0000   1.0000
     1.0000   1.0000   1.0000   1.0000   1.0000   1.0000   1.0000   1.0000
     1.0000   1.0000   1.0000   1.0000   1.0000   1.0000   1.0000   1.0000
     1.0000   1.0000   1.0000   1.0000   1.0000   1.0000   1.0000   1.0000
     1.0000   1.0000   1.0000   1.0000   1.0000   1.0000   1.0000   1.0000
     1.0000   1.0000   1.0000   1.0000   1.0000   1.0000   1.0000   1.0000
     1.0000   1.0000   1.0000   1.0000   1.0000   1.0000   1.0000   1.0000
     1.0000   1.0000   1.0000   1.0000   1.0000   1.0000   1.0000   1.0000
     1.0000   1.0000   1.0000   1.0000   1.0000   1.0000   1.0000   1.0000
     1.0000   1.0000   1.0000   1.0000   1.0000   1.0000   1.0000   1.0000
     1.0000   1.0000   0.0000

     highest occupied, lowest unoccupied level (ev):     1.6155    1.6743

!    total energy              =  -16138.55498952 Ry
     total all-electron energy =   -595550.628195 Ry
     estimated scf accuracy    <          3.4E-11 Ry

     The total energy is the sum of the following terms:
     one-electron contribution =  -18310.24464437 Ry
     hartree contribution      =    9258.88621943 Ry
     xc contribution           =    -931.74660054 Ry
     ewald contribution        =    6414.53931878 Ry
     DFT-D3 Dispersion         =      -0.65555960 Ry
     one-center paw contrib.   =  -12569.33372323 Ry
      -> PAW hartree energy AE =      92.00277094 Ry
      -> PAW hartree energy PS =     -91.51071706 Ry
      -> PAW xc energy AE      =    -644.66490804 Ry
      -> PAW xc energy PS      =      38.62150908 Ry
      -> total E_H with PAW    =    9259.37827331 Ry
      -> total E_XC with PAW   =   -1537.78999951 Ry

     total magnetization       =     1.00 Bohr mag/cell
     absolute magnetization    =     1.12 Bohr mag/cell

     convergence has been achieved in  34 iterations

     negative rho (up, down):  4.796E-03 5.165E-03

     Forces acting on atoms (cartesian axes, Ry/au):

     atom    1 type  2   force =    -0.00000636   -0.00007542   -0.00014049
     atom    2 type  2   force =    -0.00018781    0.00001972    0.00013199
     atom    3 type  2   force =    -0.00025947   -0.00015956   -0.00002696
     atom    4 type  2   force =     0.00028844    0.00027364    0.00004225
     atom    5 type  2   force =    -0.00000818   -0.00023313    0.00003791
     atom    6 type  2   force =    -0.00003412    0.00005823   -0.00001220
     atom    7 type  2   force =     0.00005194   -0.00002507    0.00011075
     atom    8 type  2   force =     0.00014042    0.00007911    0.00007171
     atom    9 type  2   force =    -0.00020922   -0.00007622    0.00004810
     atom   10 type  2   force =     0.00010645    0.00010400    0.00007810
     atom   11 type  2   force =    -0.00005608    0.00021669   -0.00003764
     atom   12 type  2   force =    -0.00001189    0.00007280   -0.00013519
     atom   13 type  2   force =    -0.00013686    0.00015497    0.00008046
     atom   14 type  2   force =     0.00011330    0.00002361    0.00001062
     atom   15 type  2   force =     0.00001254   -0.00017353   -0.00003431
     atom   16 type  2   force =    -0.00023797   -0.00016427   -0.00003656
     atom   17 type  1   force =    -0.00009281    0.00017438   -0.00002799
     atom   18 type  1   force =    -0.00005715   -0.00018474   -0.00007447
     atom   19 type  1   force =    -0.00010877    0.00010726   -0.00003411
     atom   20 type  1   force =     0.00012615   -0.00002190   -0.00006031
     atom   21 type  1   force =    -0.00008387    0.00000496    0.00004848
     atom   22 type  1   force =    -0.00002697    0.00001626   -0.00033125
     atom   23 type  1   force =    -0.00004774    0.00002972    0.00007902
     atom   24 type  1   force =     0.00012623    0.00000120    0.00000763
     atom   25 type  1   force =    -0.00002109   -0.00003869    0.00001955
     atom   26 type  1   force =     0.00004873   -0.00007325   -0.00008597
     atom   27 type  1   force =     0.00009744    0.00008652    0.00004241
     atom   28 type  1   force =    -0.00027417    0.00001165   -0.00036747
     atom   29 type  1   force =    -0.00002097   -0.00012363   -0.00012779
     atom   30 type  1   force =    -0.00007342   -0.00000712    0.00008607
     atom   31 type  1   force =    -0.00021698   -0.00006263   -0.00004211
     atom   32 type  1   force =     0.00024137    0.00006924   -0.00016047
     atom   33 type  1   force =     0.00002420    0.00005209   -0.00015859
     atom   34 type  1   force =     0.00000958    0.00006372    0.00004414
     atom   35 type  1   force =     0.00002374   -0.00000101   -0.00003557
     atom   36 type  1   force =    -0.00003419   -0.00004578    0.00004622
     atom   37 type  1   force =    -0.00011046    0.00001525   -0.00012348
     atom   38 type  1   force =     0.00009085   -0.00016226    0.00001571
     atom   39 type  1   force =     0.00014378    0.00003428    0.00003772
     atom   40 type  1   force =     0.00011290   -0.00002797    0.00007127
     atom   41 type  1   force =    -0.00011856    0.00004900    0.00006691
     atom   42 type  1   force =     0.00004529    0.00005631   -0.00000026
     atom   43 type  1   force =    -0.00024696    0.00000884    0.00015059
     atom   44 type  1   force =    -0.00007845    0.00010296   -0.00036759
     atom   45 type  1   force =    -0.00009889   -0.00004282    0.00005320
     atom   46 type  1   force =     0.00000923    0.00003937   -0.00015558
     atom   47 type  1   force =    -0.00004713   -0.00017483   -0.00016963
     atom   48 type  1   force =    -0.00003096    0.00004883    0.00014586
     atom   49 type  3   force =     0.00101798   -0.00002795   -0.00023128
     atom   50 type  3   force =    -0.00032616   -0.00077814    0.00067870
     atom   51 type  3   force =    -0.00029443   -0.00014093   -0.00020548
     atom   52 type  3   force =     0.00044928    0.00036986    0.00053347
     atom   53 type  3   force =    -0.00095669    0.00008519    0.00204655
     atom   54 type  4   force =    -0.00760485   -0.00444615   -0.03078674
     atom   55 type  5   force =     0.00227445    0.00035824    0.00492656
     atom   56 type  6   force =     0.00034976    0.01317277    0.01555353
     atom   57 type  6   force =     0.00351091    0.00054687    0.00049407
     atom   58 type  6   force =     0.00270467   -0.00924053    0.00820996
     The non-local contrib.  to forces
     atom    1 type  2   force =    -0.00047295    0.00024036   -0.00008815
     atom    2 type  2   force =     0.00036198   -0.00015103   -0.00019231
     atom    3 type  2   force =    -0.00389259   -0.00385521    0.00602738
     atom    4 type  2   force =    -0.00236812   -0.00004387    0.00309534
     atom    5 type  2   force =    -0.00055104    0.00927387    0.00837764
     atom    6 type  2   force =     0.00405596   -0.00044689    0.01272510
     atom    7 type  2   force =     0.00360828   -0.00282536    0.00573231
     atom    8 type  2   force =     0.00048287    0.00022408    0.00052151
     atom    9 type  2   force =     0.00018208    0.00103079    0.00332085
     atom   10 type  2   force =    -0.00363120    0.00166707    0.01383290
     atom   11 type  2   force =    -0.00040451   -0.00031255    0.01552886
     atom   12 type  2   force =     0.00589424   -0.00340970    0.00758510
     atom   13 type  2   force =    -0.00013158    0.00028570   -0.00031601
     atom   14 type  2   force =     0.00074215    0.00161895    0.00307938
     atom   15 type  2   force =    -0.00073146   -0.00210433    0.00705556
     atom   16 type  2   force =    -0.00286486   -0.00023611    0.00574591
     atom   17 type  1   force =     0.00084269    0.00127451   -0.27571500
     atom   18 type  1   force =     0.00429323    0.00240457   -0.27657900
     atom   19 type  1   force =     0.00095431    0.00009308   -0.27534340
     atom   20 type  1   force =    -0.00088176   -0.00063878   -0.27641634
     atom   21 type  1   force =    -0.00027523    0.00141623   -0.27545804
     atom   22 type  1   force =     0.01182489    0.02349020   -0.15668987
     atom   23 type  1   force =    -0.00181501   -0.00216132   -0.18658082
     atom   24 type  1   force =     0.00273365   -0.00128456   -0.27538740
     atom   25 type  1   force =     0.00010464   -0.00086847   -0.27675300
     atom   26 type  1   force =     0.00288759    0.00955439   -0.25648772
     atom   27 type  1   force =     0.01837097    0.00622672   -0.22526647
     atom   28 type  1   force =     0.01938353   -0.01739571   -0.19299755
     atom   29 type  1   force =     0.00089445   -0.00184721   -0.27492034
     atom   30 type  1   force =    -0.00195757    0.00125520   -0.27605085
     atom   31 type  1   force =    -0.02400486   -0.01162525   -0.21284887
     atom   32 type  1   force =    -0.00975253   -0.00790214   -0.24418563
     atom   33 type  1   force =    -0.00022774    0.00030893    0.27623697
     atom   34 type  1   force =     0.00171876    0.00243223    0.27674392
     atom   35 type  1   force =     0.00154015   -0.00049328    0.27629162
     atom   36 type  1   force =    -0.00083785   -0.00082677    0.27582480
     atom   37 type  1   force =     0.00032881    0.00196807    0.27562825
     atom   38 type  1   force =     0.00295509    0.00257050    0.27718848
     atom   39 type  1   force =     0.00247235    0.00067197    0.27706605
     atom   40 type  1   force =     0.00204960   -0.00163886    0.27531637
     atom   41 type  1   force =     0.00021867    0.00048297    0.27666080
     atom   42 type  1   force =    -0.00264130    0.00247579    0.27560898
     atom   43 type  1   force =    -0.00191023   -0.00055269    0.27977436
     atom   44 type  1   force =     0.00089316   -0.00429516    0.27703305
     atom   45 type  1   force =    -0.00063458   -0.00172389    0.27611064
     atom   46 type  1   force =    -0.00124690   -0.00047731    0.27629050
     atom   47 type  1   force =    -0.00342796   -0.00008773    0.27526773
     atom   48 type  1   force =    -0.00234449   -0.00163969    0.27541718
     atom   49 type  3   force =    -0.18424083    0.03156823   -0.06034861
     atom   50 type  3   force =    -0.00827159   -0.13014327   -0.07532322
     atom   51 type  3   force =     0.19339162   -0.01605441   -0.09534718
     atom   52 type  3   force =     0.02005123    0.14006773   -0.09296054
     atom   53 type  3   force =     0.01904585    0.02765790    0.15204225
     atom   54 type  4   force =    -0.86207192   -0.27156118    0.88252795
     atom   55 type  5   force =     1.88733365    0.54542377   -1.49318916
     atom   56 type  6   force =    -0.00723949   -0.07641563   -0.06682615
     atom   57 type  6   force =     0.01192718   -0.01477260    0.09887311
     atom   58 type  6   force =    -0.03081479    0.08657000   -0.04028619
     The ionic contribution  to forces
     atom    1 type  2   force =    -0.93905759   -0.19536320   -8.50907873
     atom    2 type  2   force =    -0.97071175   -1.15687984   -8.87681189
     atom    3 type  2   force =     1.92220043    0.65010928   -9.43673290
     atom    4 type  2   force =     1.76640336    1.72472224   -9.23857595
     atom    5 type  2   force =    -0.76025282   -3.39329281  -10.32195825
     atom    6 type  2   force =    -3.93338093   -3.11144273  -14.37691969
     atom    7 type  2   force =    -3.78848654    1.11513729  -12.05934636
     atom    8 type  2   force =    -0.45945336    0.22261017   -8.34114592
     atom    9 type  2   force =     1.12806262   -2.55019391  -10.29596929
     atom   10 type  2   force =     1.18850739   -3.57160549  -19.42710498
     atom   11 type  2   force =    -2.00126626    2.17399057  -20.49735692
     atom   12 type  2   force =    -1.90141320    2.98521214  -10.56325353
     atom   13 type  2   force =     0.52973280    0.57638813   -8.41694941
     atom   14 type  2   force =     3.83179867   -2.05729620  -11.85822181
     atom   15 type  2   force =     3.84653923    1.90184903  -17.31438368
     atom   16 type  2   force =     0.57150679    4.70708487  -12.98396811
     atom   17 type  1   force =    -0.14005634   -0.66112035   32.26187277
     atom   18 type  1   force =    -2.24062836   -1.69614255   31.29473177
     atom   19 type  1   force =    -1.12738831    0.05264598   31.69974039
     atom   20 type  1   force =     1.01148517    0.86391440   32.41980469
     atom   21 type  1   force =     0.17385723   -1.94556847   32.03569758
     atom   22 type  1   force =    -2.23771152   -5.30404375   25.62400638
     atom   23 type  1   force =    -4.76043300    0.06276567   24.69328998
     atom   24 type  1   force =    -2.11279950    1.73083288   31.40633298
     atom   25 type  1   force =    -0.02607596    0.43226436   32.25687456
     atom   26 type  1   force =     2.91702029   -4.06778447   28.41285960
     atom   27 type  1   force =     1.27372412   -0.00870086   20.49649849
     atom   28 type  1   force =    -2.26273167    5.24319711   26.48714075
     atom   29 type  1   force =     0.01966513    1.75637749   32.08145676
     atom   30 type  1   force =     1.12866378   -0.96845145   32.14934980
     atom   31 type  1   force =     4.85826803    0.33651629   28.22927719
     atom   32 type  1   force =     3.17807388    3.98351499   28.84060760
     atom   33 type  1   force =    -0.05126573   -0.12667117  -39.07864963
     atom   34 type  1   force =    -0.56943528   -0.42784811  -39.19221218
     atom   35 type  1   force =    -0.28915543   -0.04256861  -39.24609436
     atom   36 type  1   force =     0.27300623    0.22243996  -39.08860776
     atom   37 type  1   force =    -0.01844201   -0.48722745  -39.20130881
     atom   38 type  1   force =    -0.41730891   -0.93183405  -40.31398290
     atom   39 type  1   force =    -0.90993897   -0.05708868  -40.68475682
     atom   40 type  1   force =    -0.52221904    0.40397845  -39.34252572
     atom   41 type  1   force =     0.05822868    0.12834077  -39.16615910
     atom   42 type  1   force =     0.64037564   -0.72200469  -40.20787637
     atom   43 type  1   force =     0.29414100    0.05131343  -41.17616498
     atom   44 type  1   force =    -0.25864338    0.97334554  -40.32822519
     atom   45 type  1   force =     0.01554698    0.50322996  -39.10053564
     atom   46 type  1   force =     0.32788198   -0.23270116  -39.01004843
     atom   47 type  1   force =     0.87991643   -0.02485205  -39.93670587
     atom   48 type  1   force =     0.55130906    0.76659065  -40.07589682
     atom   49 type  3   force =   -21.26123666    3.67900987   58.90792218
     atom   50 type  3   force =    -1.58259098  -20.67836190   58.09712152
     atom   51 type  3   force =    21.71090105   -2.58761729   61.20184148
     atom   52 type  3   force =     2.76021787   20.97417035   58.85096579
     atom   53 type  3   force =     7.86223755    2.04761626   63.43464422
     atom   54 type  4   force =     4.39139575    0.01850947   20.47395686
     atom   55 type  5   force =   -13.28452312   -2.90750102   24.75317670
     atom   56 type  6   force =     0.54911335    2.73360798    5.40882806
     atom   57 type  6   force =    -2.23438229    0.17415770    1.35345537
     atom   58 type  6   force =     1.40120841   -3.28128102    4.79607452
     The local contribution  to forces
     atom    1 type  2   force =     0.93912294    0.19550633    8.50900403
     atom    2 type  2   force =     0.97020483    1.15652790    8.87688558
     atom    3 type  2   force =    -1.91891001   -0.64705551    9.43144035
     atom    4 type  2   force =    -1.76414625   -1.72428794    9.23583590
     atom    5 type  2   force =     0.76039820    3.38384584   10.31324152
     atom    6 type  2   force =     3.92855992    3.11047282   14.36179069
     atom    7 type  2   force =     3.78358200   -1.11200916   12.05201733
     atom    8 type  2   force =     0.45905928   -0.22285560    8.34108945
     atom    9 type  2   force =    -1.12820346    2.54859895   10.29218605
     atom   10 type  2   force =    -1.18464306    3.57046989   19.41035330
     atom   11 type  2   force =     2.00236241   -2.17327614   20.47689295
     atom   12 type  2   force =     1.89572192   -2.98158849   10.55527865
     atom   13 type  2   force =    -0.52951076   -0.57623340    8.41707658
     atom   14 type  2   force =    -3.83090759    2.05546779   11.85303297
     atom   15 type  2   force =    -3.84522709   -1.89971336   17.30274535
     atom   16 type  2   force =    -0.56898751   -4.70538657   12.97589840
     atom   17 type  1   force =     0.13908960    0.65978237  -31.98757040
     atom   18 type  1   force =     2.23563656    1.69305535  -31.02006343
     atom   19 type  1   force =     1.12603204   -0.05256796  -31.42606060
     atom   20 type  1   force =    -1.01011492   -0.86299399  -32.14485154
     atom   21 type  1   force =    -0.17356198    1.94354406  -31.76165491
     atom   22 type  1   force =     2.22578384    5.27983425  -25.46715121
     atom   23 type  1   force =     4.76080585   -0.06063250  -24.50631011
     atom   24 type  1   force =     2.10949411   -1.72898717  -31.13272961
     atom   25 type  1   force =     0.02584344   -0.43129568  -31.98149160
     atom   26 type  1   force =    -2.92002944    4.05864534  -28.15640437
     atom   27 type  1   force =    -1.29062741    0.00219396  -20.26955508
     atom   28 type  1   force =     2.24359711   -5.22516617  -26.29437355
     atom   29 type  1   force =    -0.02050962   -1.75414208  -31.80809671
     atom   30 type  1   force =    -1.12642448    0.96690361  -31.87467605
     atom   31 type  1   force =    -4.83454377   -0.32538603  -28.01598439
     atom   32 type  1   force =    -3.16884635   -3.97516766  -28.59677463
     atom   33 type  1   force =     0.05148462    0.12640313   38.80322915
     atom   34 type  1   force =     0.56773073    0.42553218   38.91651529
     atom   35 type  1   force =     0.28764518    0.04302489   38.97073393
     atom   36 type  1   force =    -0.27223291   -0.22169508   38.81380864
     atom   37 type  1   force =     0.01801454    0.48535471   38.92651743
     atom   38 type  1   force =     0.41442996    0.92908126   40.03758633
     atom   39 type  1   force =     0.90755925    0.05643898   40.40850205
     atom   40 type  1   force =     0.52037607   -0.40239123   39.06822700
     atom   41 type  1   force =    -0.05852554   -0.12874528   38.89055457
     atom   42 type  1   force =    -0.63765598    0.71959523   39.93307692
     atom   43 type  1   force =    -0.29248902   -0.05074788   40.89731839
     atom   44 type  1   force =     0.25768181   -0.96894196   40.05162541
     atom   45 type  1   force =    -0.01502941   -0.50155904   38.82546798
     atom   46 type  1   force =    -0.32666570    0.23319556   38.73460816
     atom   47 type  1   force =    -0.87657284    0.02473125   39.66206445
     atom   48 type  1   force =    -0.54899124   -0.76488487   39.80140422
     atom   49 type  3   force =    21.44310799   -3.70939295  -58.83683016
     atom   50 type  3   force =     1.59439558   20.80743107  -58.01191660
     atom   51 type  3   force =   -21.90134263    2.60209492  -61.09958696
     atom   52 type  3   force =    -2.77709138  -21.11170357  -58.74911088
     atom   53 type  3   force =    -7.88095206   -2.07430489  -63.57867957
     atom   54 type  4   force =    -3.55492569    0.24397718  -21.37535862
     atom   55 type  5   force =    11.41837085    2.36725105  -23.26579608
     atom   56 type  6   force =    -0.54157884   -2.64414897   -5.32665919
     atom   57 type  6   force =     2.22617981   -0.15869802   -1.45191378
     atom   58 type  6   force =    -1.36780401    3.18569325   -4.74771665
     The core correction contribution to forces
     atom    1 type  2   force =     0.00026006   -0.00048953   -0.00037504
     atom    2 type  2   force =    -0.00015526    0.00035600   -0.00024254
     atom    3 type  2   force =     0.00079844    0.00078278   -0.00149963
     atom    4 type  2   force =     0.00075046    0.00026137   -0.00095088
     atom    5 type  2   force =     0.00021010   -0.00077784   -0.00060655
     atom    6 type  2   force =    -0.00028642    0.00076997   -0.00009429
     atom    7 type  2   force =     0.00051127   -0.00013786    0.00031942
     atom    8 type  2   force =    -0.00002355    0.00012251   -0.00061729
     atom    9 type  2   force =     0.00000845   -0.00005638   -0.00027174
     atom   10 type  2   force =    -0.00007336   -0.00142545    0.00039558
     atom   11 type  2   force =    -0.00121409    0.00050968    0.00110346
     atom   12 type  2   force =    -0.00068063    0.00050137   -0.00079301
     atom   13 type  2   force =    -0.00018189   -0.00017977   -0.00006071
     atom   14 type  2   force =    -0.00063551   -0.00026434    0.00047221
     atom   15 type  2   force =     0.00047173    0.00032303    0.00113431
     atom   16 type  2   force =     0.00025901   -0.00056123    0.00045818
     atom   17 type  1   force =    -0.00005250   -0.00000728    0.00196466
     atom   18 type  1   force =    -0.00015896   -0.00008381    0.00203950
     atom   19 type  1   force =    -0.00004837   -0.00005475    0.00197243
     atom   20 type  1   force =    -0.00000397    0.00000144    0.00199041
     atom   21 type  1   force =    -0.00003839   -0.00003565    0.00197248
     atom   22 type  1   force =    -0.00009298   -0.00041669   -0.00040296
     atom   23 type  1   force =     0.00005116    0.00006982   -0.00004472
     atom   24 type  1   force =    -0.00006697    0.00004258    0.00198151
     atom   25 type  1   force =     0.00005184    0.00002265    0.00198638
     atom   26 type  1   force =    -0.00002223   -0.00024299    0.00142934
     atom   27 type  1   force =    -0.00046594   -0.00005999    0.00111002
     atom   28 type  1   force =    -0.00030309    0.00037658    0.00019802
     atom   29 type  1   force =    -0.00002130    0.00010001    0.00197940
     atom   30 type  1   force =     0.00007970   -0.00003693    0.00200959
     atom   31 type  1   force =     0.00052273    0.00026246    0.00063879
     atom   32 type  1   force =     0.00016351    0.00019723    0.00122948
     atom   33 type  1   force =     0.00001673   -0.00000365   -0.00193216
     atom   34 type  1   force =    -0.00003148   -0.00005382   -0.00198923
     atom   35 type  1   force =     0.00000267    0.00003603   -0.00193401
     atom   36 type  1   force =     0.00001946    0.00002519   -0.00191750
     atom   37 type  1   force =     0.00000516   -0.00004327   -0.00192657
     atom   38 type  1   force =     0.00001033    0.00001143   -0.00197520
     atom   39 type  1   force =     0.00002990    0.00002688   -0.00198135
     atom   40 type  1   force =    -0.00005802    0.00000889   -0.00192241
     atom   41 type  1   force =    -0.00003617   -0.00001293   -0.00194803
     atom   42 type  1   force =    -0.00002448   -0.00003896   -0.00193358
     atom   43 type  1   force =     0.00000217   -0.00001138   -0.00220941
     atom   44 type  1   force =    -0.00002598    0.00001941   -0.00198842
     atom   45 type  1   force =     0.00001192    0.00001598   -0.00195974
     atom   46 type  1   force =     0.00003334    0.00000918   -0.00196715
     atom   47 type  1   force =     0.00004989    0.00003141   -0.00190577
     atom   48 type  1   force =     0.00002340    0.00000571   -0.00189426
     atom   49 type  3   force =     0.00425052   -0.00133198   -0.00311613
     atom   50 type  3   force =    -0.00144914    0.00370124   -0.00371880
     atom   51 type  3   force =    -0.00463876    0.00092699   -0.00153774
     atom   52 type  3   force =    -0.00175391   -0.00488855   -0.00188709
     atom   53 type  3   force =    -0.00247371   -0.00106885   -0.00398893
     atom   54 type  4   force =     0.01789847    0.00455329   -0.01119119
     atom   55 type  5   force =    -0.01860293   -0.00487215    0.01172056
     atom   56 type  6   force =     0.00000000    0.00000000    0.00000000
     atom   57 type  6   force =     0.00000000    0.00000000    0.00000000
     atom   58 type  6   force =     0.00000000    0.00000000    0.00000000
     The Hubbard contrib.    to forces
     atom    1 type  2   force =     0.00000000    0.00000000    0.00000000
     atom    2 type  2   force =     0.00000000    0.00000000    0.00000000
     atom    3 type  2   force =     0.00000000    0.00000000    0.00000000
     atom    4 type  2   force =     0.00000000    0.00000000    0.00000000
     atom    5 type  2   force =     0.00000000    0.00000000    0.00000000
     atom    6 type  2   force =     0.00000000    0.00000000    0.00000000
     atom    7 type  2   force =     0.00000000    0.00000000    0.00000000
     atom    8 type  2   force =     0.00000000    0.00000000    0.00000000
     atom    9 type  2   force =     0.00000000    0.00000000    0.00000000
     atom   10 type  2   force =     0.00000000    0.00000000    0.00000000
     atom   11 type  2   force =     0.00000000    0.00000000    0.00000000
     atom   12 type  2   force =     0.00000000    0.00000000    0.00000000
     atom   13 type  2   force =     0.00000000    0.00000000    0.00000000
     atom   14 type  2   force =     0.00000000    0.00000000    0.00000000
     atom   15 type  2   force =     0.00000000    0.00000000    0.00000000
     atom   16 type  2   force =     0.00000000    0.00000000    0.00000000
     atom   17 type  1   force =     0.00000000    0.00000000    0.00000000
     atom   18 type  1   force =     0.00000000    0.00000000    0.00000000
     atom   19 type  1   force =     0.00000000    0.00000000    0.00000000
     atom   20 type  1   force =     0.00000000    0.00000000    0.00000000
     atom   21 type  1   force =     0.00000000    0.00000000    0.00000000
     atom   22 type  1   force =     0.00000000    0.00000000    0.00000000
     atom   23 type  1   force =     0.00000000    0.00000000    0.00000000
     atom   24 type  1   force =     0.00000000    0.00000000    0.00000000
     atom   25 type  1   force =     0.00000000    0.00000000    0.00000000
     atom   26 type  1   force =     0.00000000    0.00000000    0.00000000
     atom   27 type  1   force =     0.00000000    0.00000000    0.00000000
     atom   28 type  1   force =     0.00000000    0.00000000    0.00000000
     atom   29 type  1   force =     0.00000000    0.00000000    0.00000000
     atom   30 type  1   force =     0.00000000    0.00000000    0.00000000
     atom   31 type  1   force =     0.00000000    0.00000000    0.00000000
     atom   32 type  1   force =     0.00000000    0.00000000    0.00000000
     atom   33 type  1   force =     0.00000000    0.00000000    0.00000000
     atom   34 type  1   force =     0.00000000    0.00000000    0.00000000
     atom   35 type  1   force =     0.00000000    0.00000000    0.00000000
     atom   36 type  1   force =     0.00000000    0.00000000    0.00000000
     atom   37 type  1   force =     0.00000000    0.00000000    0.00000000
     atom   38 type  1   force =     0.00000000    0.00000000    0.00000000
     atom   39 type  1   force =     0.00000000    0.00000000    0.00000000
     atom   40 type  1   force =     0.00000000    0.00000000    0.00000000
     atom   41 type  1   force =     0.00000000    0.00000000    0.00000000
     atom   42 type  1   force =     0.00000000    0.00000000    0.00000000
     atom   43 type  1   force =     0.00000000    0.00000000    0.00000000
     atom   44 type  1   force =     0.00000000    0.00000000    0.00000000
     atom   45 type  1   force =     0.00000000    0.00000000    0.00000000
     atom   46 type  1   force =     0.00000000    0.00000000    0.00000000
     atom   47 type  1   force =     0.00000000    0.00000000    0.00000000
     atom   48 type  1   force =     0.00000000    0.00000000    0.00000000
     atom   49 type  3   force =     0.00000000    0.00000000    0.00000000
     atom   50 type  3   force =     0.00000000    0.00000000    0.00000000
     atom   51 type  3   force =     0.00000000    0.00000000    0.00000000
     atom   52 type  3   force =     0.00000000    0.00000000    0.00000000
     atom   53 type  3   force =     0.00000000    0.00000000    0.00000000
     atom   54 type  4   force =     0.00000000    0.00000000    0.00000000
     atom   55 type  5   force =     0.00000000    0.00000000    0.00000000
     atom   56 type  6   force =     0.00000000    0.00000000    0.00000000
     atom   57 type  6   force =     0.00000000    0.00000000    0.00000000
     atom   58 type  6   force =     0.00000000    0.00000000    0.00000000
     The SCF correction term to forces
     atom    1 type  2   force =     0.00000071    0.00000014    0.00000025
     atom    2 type  2   force =    -0.00000036   -0.00000186    0.00000015
     atom    3 type  2   force =     0.00000182    0.00000043    0.00000133
     atom    4 type  2   force =     0.00000180    0.00000385    0.00000063
     atom    5 type  2   force =     0.00000267   -0.00000040    0.00000084
     atom    6 type  2   force =     0.00000086   -0.00000207    0.00000115
     atom    7 type  2   force =    -0.00000025    0.00000088    0.00000005
     atom    8 type  2   force =     0.00000051    0.00000361   -0.00000003
     atom    9 type  2   force =    -0.00000253    0.00000105    0.00000070
     atom   10 type  2   force =     0.00000169   -0.00000479    0.00000304
     atom   11 type  2   force =    -0.00000064   -0.00000120    0.00000273
     atom   12 type  2   force =    -0.00000331    0.00000285   -0.00000030
     atom   13 type  2   force =    -0.00000219    0.00000255    0.00000086
     atom   14 type  2   force =    -0.00000221   -0.00000494    0.00000159
     atom   15 type  2   force =     0.00000025   -0.00000158    0.00000303
     atom   16 type  2   force =     0.00000107    0.00000287    0.00000049
     atom   17 type  1   force =     0.00000079    0.00000018    0.00000055
     atom   18 type  1   force =    -0.00000047   -0.00000064    0.00000147
     atom   19 type  1   force =     0.00000070   -0.00000068    0.00000193
     atom   20 type  1   force =     0.00000005    0.00000176    0.00000170
     atom   21 type  1   force =     0.00000027    0.00000121   -0.00000002
     atom   22 type  1   force =     0.00000203   -0.00000084    0.00000093
     atom   23 type  1   force =     0.00000006    0.00000010    0.00000207
     atom   24 type  1   force =    -0.00000048    0.00000064    0.00000117
     atom   25 type  1   force =    -0.00000130    0.00000123    0.00000069
     atom   26 type  1   force =    -0.00000112   -0.00000077    0.00000017
     atom   27 type  1   force =     0.00000012   -0.00000195    0.00000176
     atom   28 type  1   force =    -0.00000044   -0.00000019    0.00000228
     atom   29 type  1   force =     0.00000022    0.00000112    0.00000157
     atom   30 type  1   force =    -0.00000041   -0.00000031    0.00000115
     atom   31 type  1   force =    -0.00000091   -0.00000126    0.00000274
     atom   32 type  1   force =     0.00000087    0.00000034    0.00000227
     atom   33 type  1   force =     0.00000073    0.00000011   -0.00000025
     atom   34 type  1   force =    -0.00000071   -0.00000080   -0.00000109
     atom   35 type  1   force =     0.00000083   -0.00000054   -0.00000149
     atom   36 type  1   force =     0.00000040    0.00000193   -0.00000135
     atom   37 type  1   force =     0.00000039    0.00000079    0.00000031
     atom   38 type  1   force =     0.00000170   -0.00000125   -0.00000034
     atom   39 type  1   force =    -0.00000049    0.00000027   -0.00000145
     atom   40 type  1   force =    -0.00000056    0.00000083   -0.00000098
     atom   41 type  1   force =    -0.00000128    0.00000102   -0.00000048
     atom   42 type  1   force =    -0.00000085   -0.00000126    0.00000045
     atom   43 type  1   force =    -0.00000002   -0.00000182   -0.00000093
     atom   44 type  1   force =    -0.00000087    0.00000036   -0.00000190
     atom   45 type  1   force =     0.00000015    0.00000124   -0.00000131
     atom   46 type  1   force =    -0.00000013   -0.00000059   -0.00000077
     atom   47 type  1   force =    -0.00000031   -0.00000119   -0.00000206
     atom   48 type  1   force =     0.00000103    0.00000095   -0.00000177
     atom   49 type  3   force =    -0.00000049   -0.00000042   -0.00000039
     atom   50 type  3   force =     0.00000078   -0.00000106   -0.00000174
     atom   51 type  3   force =     0.00000024   -0.00000098   -0.00000134
     atom   52 type  3   force =     0.00000032   -0.00000037   -0.00000016
     atom   53 type  3   force =    -0.00000001   -0.00000047   -0.00000012
     atom   54 type  4   force =    -0.00000016   -0.00000007   -0.00000010
     atom   55 type  5   force =     0.00000014   -0.00000000   -0.00000011
     atom   56 type  6   force =    -0.00000001   -0.00000001   -0.00000001
     atom   57 type  6   force =    -0.00000000   -0.00000001    0.00000002
     atom   58 type  6   force =    -0.00000001   -0.00000001   -0.00000002

     DFT-D3 dispersion contribution to forces:
     atom    1 type  2   force =     0.00014032    0.00003169    0.00039726
     atom    2 type  2   force =     0.00011260    0.00016975    0.00049312
     atom    3 type  2   force =    -0.00045772   -0.00014012    0.00073662
     atom    4 type  2   force =    -0.00035295   -0.00038080    0.00063733
     atom    5 type  2   force =     0.00018455    0.00071941    0.00098282
     atom    6 type  2   force =     0.00101634    0.00070832    0.00248494
     atom    7 type  2   force =     0.00083702   -0.00018965    0.00138811
     atom    8 type  2   force =     0.00007452   -0.00002446    0.00022410
     atom    9 type  2   force =    -0.00025653    0.00054449    0.00078165
     atom   10 type  2   force =    -0.00005516    0.00100397    0.00259837
     atom   11 type  2   force =     0.00046686   -0.00069245    0.00379139
     atom   12 type  2   force =     0.00046894   -0.00064417    0.00104803
     atom   13 type  2   force =    -0.00004338   -0.00010703    0.00032927
     atom   14 type  2   force =    -0.00088235    0.00050354    0.00164639
     atom   15 type  2   force =    -0.00104028   -0.00052512    0.00341125
     atom   16 type  2   force =    -0.00015262   -0.00106689    0.00182868
     atom   17 type  1   force =     0.00008280    0.00024615   -0.00058044
     atom   18 type  1   force =     0.00080069    0.00058354   -0.00020466
     atom   19 type  1   force =     0.00034071   -0.00000721   -0.00034475
     atom   20 type  1   force =    -0.00035857   -0.00030553   -0.00058910
     atom   21 type  1   force =    -0.00006592    0.00064879   -0.00050850
     atom   22 type  1   force =     0.00016663    0.00115430   -0.00009441
     atom   23 type  1   force =     0.00134305   -0.00001086   -0.00027727
     atom   24 type  1   force =     0.00076527   -0.00060195   -0.00019091
     atom   25 type  1   force =     0.00005611   -0.00016156   -0.00059736
     atom   26 type  1   force =     0.00019350   -0.00024356   -0.00148288
     atom   27 type  1   force =    -0.00090457    0.00042986   -0.00274619
     atom   28 type  1   force =    -0.00021975   -0.00099878   -0.00033730
     atom   29 type  1   force =    -0.00005000   -0.00061175   -0.00054836
     atom   30 type  1   force =    -0.00043459    0.00032396   -0.00054746
     atom   31 type  1   force =    -0.00045835    0.00017237   -0.00112745
     atom   32 type  1   force =     0.00060184   -0.00057232   -0.00103945
     atom   33 type  1   force =     0.00001542    0.00001595    0.00095744
     atom   34 type  1   force =     0.00002741    0.00000324    0.00098754
     atom   35 type  1   force =    -0.00000980    0.00000171    0.00096885
     atom   36 type  1   force =     0.00001033    0.00001019    0.00093951
     atom   37 type  1   force =    -0.00001750   -0.00003641    0.00096603
     atom   38 type  1   force =     0.00000252    0.00001106    0.00119945
     atom   39 type  1   force =     0.00002159   -0.00001393    0.00120934
     atom   40 type  1   force =    -0.00003531    0.00001516    0.00097712
     atom   41 type  1   force =    -0.00000308   -0.00001634    0.00095926
     atom   42 type  1   force =    -0.00000789    0.00003141    0.00112346
     atom   43 type  1   force =     0.00000900    0.00001039    0.00143327
     atom   44 type  1   force =     0.00001666   -0.00002403    0.00118958
     atom   45 type  1   force =     0.00000591   -0.00000586    0.00097139
     atom   46 type  1   force =     0.00000648    0.00001491    0.00096223
     atom   47 type  1   force =    -0.00001250    0.00000469    0.00111200
     atom   48 type  1   force =    -0.00002887   -0.00002271    0.00111742
     atom   49 type  3   force =    -0.00086269    0.00012050   -0.00785806
     atom   50 type  3   force =    -0.00241095   -0.00340301   -0.00548235
     atom   51 type  3   force =     0.00139391    0.00051103   -0.00557363
     atom   52 type  3   force =    -0.00097500    0.00272547   -0.00647352
     atom   53 type  3   force =     0.00118553    0.00018645   -0.00197119
     atom   54 type  4   force =     0.00009854    0.00007636   -0.00072152
     atom   55 type  5   force =    -0.00030429    0.00005779   -0.00098523
     atom   56 type  6   force =     0.00005459    0.00013061    0.00021093
     atom   57 type  6   force =    -0.00021393   -0.00013900    0.00007946
     atom   58 type  6   force =     0.00011491   -0.00022155    0.00013841

     Total force =     0.040666     Total SCF correction =     0.000018

     DFT-D3 dispersion Force =     0.017436


     Computing stress (Cartesian axis) and pressure


     negative rho (up, down):  4.796E-03 5.165E-03
          total   stress  (Ry/bohr**3)                   (kbar)     P=       -1.41
  -0.00001122  -0.00000122   0.00000032           -1.65       -0.18        0.05
  -0.00000122  -0.00000768   0.00000055           -0.18       -1.13        0.08
   0.00000032   0.00000055  -0.00000982            0.05        0.08       -1.44

     kinetic stress (kbar)   7256.62     -1.09     -9.74
                               -1.09   7272.83     -0.47
                               -9.74     -0.47   7301.99

     local   stress (kbar)-135449.12    -63.03    514.45
                              -63.03-133999.99    218.47
                              514.45    218.47 134091.98

     nonloc. stress (kbar)  -1419.32     -0.12      0.33
                               -0.12  -1420.56      0.32
                                0.33      0.32  -1427.44

     hartree stress (kbar)  68211.33     29.24   -247.44
                               29.24  67556.50   -102.39
                             -247.44   -102.39 -63296.62

     exc-cor stress (kbar)   2000.73      0.00      0.01
                                0.00   2000.32     -0.04
                                0.01     -0.04   2000.26

     corecor stress (kbar)  -3626.56      0.04      0.06
                                0.04  -3626.83      0.01
                                0.06      0.01  -3627.24

     ewald   stress (kbar)  63028.92     34.75   -257.58
                               34.75  62220.82   -115.82
                             -257.58   -115.82 -75041.82

     hubbard stress (kbar)      0.00      0.00      0.00
                                0.00      0.00      0.00
                                0.00      0.00      0.00

     DFT-D   stress (kbar)     -4.26      0.02     -0.04
                                0.02     -4.22      0.01
                               -0.04      0.01     -2.55

     XDM     stress (kbar)      0.00      0.00      0.00
                                0.00      0.00      0.00
                                0.00      0.00      0.00

     dft-nl  stress (kbar)      0.00      0.00      0.00
                                0.00      0.00      0.00
                                0.00      0.00      0.00

     TS-vdW  stress (kbar)      0.00      0.00      0.00
                                0.00      0.00      0.00
                                0.00      0.00      0.00

     MDB     stress (kbar)      0.00      0.00      0.00
                                0.00      0.00      0.00
                                0.00      0.00      0.00

     3D-RISM stress (kbar)      0.00      0.00      0.00
                                0.00      0.00      0.00
                                0.00      0.00      0.00


     Writing all to output data dir ./Ag-WS2-H2NOH.save/ :
     XML data file, charge density, pseudopotentials, collected wavefunctions

     init_run     :    184.86s CPU    188.89s WALL (       1 calls)
     electrons    :  13020.08s CPU  13286.33s WALL (       1 calls)
     forces       :     46.18s CPU     47.94s WALL (       1 calls)
     force_dftd3  :      0.15s CPU      0.17s WALL (       1 calls)
     stress       :    163.06s CPU    168.33s WALL (       1 calls)
     stres_dftd3  :      0.13s CPU      0.15s WALL (       1 calls)

     Called by init_run:
     wfcinit      :    176.38s CPU    179.75s WALL (       1 calls)
     wfcinit:atom :      0.70s CPU      0.72s WALL (      26 calls)
     wfcinit:wfcr :    172.12s CPU    175.34s WALL (      26 calls)
     potinit      :      2.96s CPU      3.09s WALL (       1 calls)
     hinit0       :      1.67s CPU      1.75s WALL (       1 calls)

     Called by electrons:
     c_bands      :  11267.32s CPU  11480.86s WALL (      35 calls)
     sum_band     :   1629.32s CPU   1668.21s WALL (      35 calls)
     v_of_rho     :     20.29s CPU     21.47s WALL (      35 calls)
     v_h          :      0.97s CPU      1.09s WALL (      35 calls)
     v_xc         :     20.56s CPU     21.68s WALL (      37 calls)
     newd         :     59.40s CPU     70.83s WALL (      35 calls)
     PAW_pot      :     38.58s CPU     39.09s WALL (      35 calls)
     mix_rho      :      5.40s CPU      5.69s WALL (      35 calls)
     energy_dftd3 :      0.05s CPU      0.05s WALL (       1 calls)

     Called by c_bands:
     init_us_2    :    128.03s CPU    131.94s WALL (    1898 calls)
     cegterg      :  11099.27s CPU  11308.88s WALL (     910 calls)

     Called by sum_band:
     sum_band:wei :      0.01s CPU      0.01s WALL (      35 calls)
     sum_band:loo :   1519.13s CPU   1544.55s WALL (      35 calls)
     sum_band:buf :     11.13s CPU     11.45s WALL (     910 calls)
     sum_band:ini :     61.54s CPU     63.36s WALL (     910 calls)
     sum_band:cal :    313.04s CPU    322.07s WALL (     910 calls)
     sum_band:bec :      3.73s CPU      3.81s WALL (     910 calls)
     addusdens    :    106.51s CPU    119.79s WALL (      35 calls)
                                        0.00s GPU  (      35 calls)
     addusd:skk   :      1.49s CPU      1.63s WALL (     210 calls)
                                        0.00s GPU  (     210 calls)

     Called by *egterg:
     cdiaghg      :    576.78s CPU    600.49s WALL (    6439 calls)
     cegterg:over :    602.66s CPU    618.00s WALL (    5555 calls)
     cegterg:upda :    284.06s CPU    289.60s WALL (    5555 calls)
     cegterg:last :    543.59s CPU    554.37s WALL (    1927 calls)
     cdiaghg:chol :     48.09s CPU     48.65s WALL (    6439 calls)
     cdiaghg:inve :      8.12s CPU      8.23s WALL (    6439 calls)
     cdiaghg:para :    163.01s CPU    176.30s WALL (   12878 calls)
     h_psi        :   8330.71s CPU   8465.93s WALL (    6491 calls)
     s_psi        :    723.87s CPU    733.56s WALL (    6491 calls)
     g_psi        :     10.38s CPU     10.76s WALL (    5555 calls)

     Called by h_psi:
     h_psi:calbec :    991.83s CPU   1020.33s WALL (    6491 calls)
     vloc_psi     :   6569.37s CPU   6662.34s WALL (    6491 calls)
     add_vuspsi   :    740.78s CPU    751.93s WALL (    6491 calls)

     General routines
     calbec       :   1454.34s CPU   1496.59s WALL (    7843 calls)
     fft          :     21.88s CPU     23.46s WALL (     915 calls)
     ffts         :      1.94s CPU      2.06s WALL (     140 calls)
     fftw         :   7125.45s CPU   7215.61s WALL ( 1360654 calls)
     interpolate  :      3.10s CPU      3.29s WALL (      70 calls)

     Parallel routines

     PAW routines
     PAW_pot      :     38.58s CPU     39.09s WALL (      35 calls)

     PWSCF        :  13426.45s CPU  13744.28s WALL


   This run was terminated on:   2: 6:47   1Aug2026            

=------------------------------------------------------------------------------=
   JOB DONE.
=------------------------------------------------------------------------------=
