
     Program PWSCF v.7.4.1 starts on  1Aug2026 at  9:18:50 

     This program is part of the open-source Quantum ESPRESSO suite
     for quantum simulation of materials; please cite
         "P. Giannozzi et al., J. Phys.:Condens. Matter 21 395502 (2009);
         "P. Giannozzi et al., J. Phys.:Condens. Matter 29 465901 (2017);
         "P. Giannozzi et al., J. Chem. Phys. 152 154105 (2020);
          URL http://www.quantum-espresso.org", 
     in publications or presentations arising from this work. More details at
     http://www.quantum-espresso.org/quote

     Parallel version (MPI & OpenMP), running on      64 processor cores
     Number of MPI processes:                64
     Threads/MPI process:                     1

     MPI processes distributed on     1 nodes
     97091 MiB available memory on the printing compute node when the environment starts

     Reading input from disp_014_atom56_-1x.in

     Current dimensions of program PWSCF are:
     Max number of different atomic species (ntypx) = 10
     Max number of k-points (npk) =  40000
     Max angular momentum in pseudopotentials (lmaxx) =  4
     file S.pbe-n-kjpaw_psl.1.0.0.UPF: wavefunction(s)  3S 3P renormalized
     file W.pbe-spn-kjpaw_psl.1.0.0.UPF: wavefunction(s)  6S 5P 5D renormalized
     file Ag.pbe-n-kjpaw_psl.1.0.0.UPF: wavefunction(s)  5S 5P renormalized
     file N.pbe-n-kjpaw_psl.1.0.0.UPF: wavefunction(s)  2S renormalized
     file O.pbe-n-kjpaw_psl.1.0.0.UPF: wavefunction(s)  2S 2P renormalized
     file H.pbe-kjpaw_psl.1.0.0.UPF: wavefunction(s)  1S renormalized
     Message from routine setup:
     the system is metallic, specify occupations

     R & G space division:  proc/nbgrp/npool/nimage =      64
     Subspace diagonalization in iterative solution of the eigenvalue problem:
     one sub-group per band group will be used
     ELPA distributed-memory algorithm (size of sub-group:  2*  2 procs)


     Parallelization info
     --------------------
     sticks:   dense  smooth     PW     G-vecs:    dense   smooth      PW
     Min         247     123     32                39673    14017    1874
     Max         248     124     33                39680    14030    1885
     Sum       15841    7909   2065              2539249   897387  120111

     Using Slab Decomposition



     bravais-lattice index     =            0
     lattice parameter (alat)  =      23.9624  a.u.
     unit-cell volume          =   18794.0729 (a.u.)^3
     number of atoms/cell      =           58
     number of atomic types    =            6
     number of electrons       =       485.00 (up: 243.00, down: 242.00)
     number of Kohn-Sham states=          243
     kinetic-energy cutoff     =      50.0000  Ry
     charge density cutoff     =     400.0000  Ry
     scf convergence threshold =      1.0E-10
     mixing beta               =       0.4000
     number of iterations used =            8  plain     mixing
     Exchange-correlation= SLA  PW   PBX  PBC
                           (   1   4   3   4   0   0   0)

     celldm(1)=  23.962422  celldm(2)=   0.000000  celldm(3)=   0.000000
     celldm(4)=   0.000000  celldm(5)=   0.000000  celldm(6)=   0.000000

     crystal axes: (cart. coord. in units of alat)
               a(1) = (   1.000000   0.000000   0.000000 )  
               a(2) = (  -0.500000   0.866025   0.000000 )  
               a(3) = (   0.000000   0.000000   1.577241 )  

     reciprocal axes: (cart. coord. in units 2 pi/alat)
               b(1) = (  1.000000  0.577350 -0.000000 )  
               b(2) = (  0.000000  1.154701  0.000000 )  
               b(3) = (  0.000000 -0.000000  0.634018 )  


     PseudoPot. # 1 for S  read from file:
     /share/work_r640/fmigm008/pseudo/S.pbe-n-kjpaw_psl.1.0.0.UPF
     MD5 check sum: fb45dfebcf3e72a4e1bd4a866ec2e262
     Pseudo is Projector augmented-wave + core cor, Zval =  6.0
     Generated using &quot;atomic&quot; code by A. Dal Corso  v.6.3
     Shape of augmentation charge: PSQ
     Using radial grid of 1151 points,  6 beta functions with: 
                l(1) =   0
                l(2) =   0
                l(3) =   1
                l(4) =   1
                l(5) =   2
                l(6) =   2
     Q(r) pseudized with 0 coefficients 


     PseudoPot. # 2 for W  read from file:
     /share/work_r640/fmigm008/pseudo/W.pbe-spn-kjpaw_psl.1.0.0.UPF
     MD5 check sum: 03c3df5b60893f488392c7401945500a
     Pseudo is Projector augmented-wave + core cor, Zval = 14.0
     Generated using &quot;atomic&quot; code by A. Dal Corso  v.6.2.2
     Shape of augmentation charge: PSQ
     Using radial grid of 1273 points,  6 beta functions with: 
                l(1) =   0
                l(2) =   0
                l(3) =   1
                l(4) =   1
                l(5) =   2
                l(6) =   2
     Q(r) pseudized with 0 coefficients 


     PseudoPot. # 3 for Ag read from file:
     /share/work_r640/fmigm008/pseudo/Ag.pbe-n-kjpaw_psl.1.0.0.UPF
     MD5 check sum: 51099775af2a3182a6a1caffb86952a3
     Pseudo is Projector augmented-wave + core cor, Zval = 11.0
     Generated using &quot;atomic&quot; code by A. Dal Corso  v.6.2.2
     Shape of augmentation charge: PSQ
     Using radial grid of 1237 points,  6 beta functions with: 
                l(1) =   0
                l(2) =   0
                l(3) =   1
                l(4) =   1
                l(5) =   2
                l(6) =   2
     Q(r) pseudized with 0 coefficients 


     PseudoPot. # 4 for N  read from file:
     /share/work_r640/fmigm008/pseudo/N.pbe-n-kjpaw_psl.1.0.0.UPF
     MD5 check sum: 14c48229446f9f2d411169a3abcbc3fa
     Pseudo is Projector augmented-wave + core cor, Zval =  5.0
     Generated using &quot;atomic&quot; code by A. Dal Corso  v.6.3
     Shape of augmentation charge: PSQ
     Using radial grid of 1085 points,  4 beta functions with: 
                l(1) =   0
                l(2) =   0
                l(3) =   1
                l(4) =   1
     Q(r) pseudized with 0 coefficients 


     PseudoPot. # 5 for O  read from file:
     /share/work_r640/fmigm008/pseudo/O.pbe-n-kjpaw_psl.1.0.0.UPF
     MD5 check sum: e99d9cef9b487d1ca56f5b95ecd0fd7a
     Pseudo is Projector augmented-wave + core cor, Zval =  6.0
     Generated using &quot;atomic&quot; code by A. Dal Corso  v.6.3
     Shape of augmentation charge: PSQ
     Using radial grid of 1095 points,  4 beta functions with: 
                l(1) =   0
                l(2) =   0
                l(3) =   1
                l(4) =   1
     Q(r) pseudized with 0 coefficients 


     PseudoPot. # 6 for H  read from file:
     /share/work_r640/fmigm008/pseudo/H.pbe-kjpaw_psl.1.0.0.UPF
     MD5 check sum: d81a744832360e4a8af0b0b5b123bc2a
     Pseudo is Projector augmented-wave, Zval =  1.0
     Generated using &quot;atomic&quot; code by A. Dal Corso  v.6.3MaX
     Shape of augmentation charge: PSQ
     Using radial grid of  929 points,  2 beta functions with: 
                l(1) =   0
                l(2) =   0
     Q(r) pseudized with 0 coefficients 


     atomic species   valence    mass     pseudopotential
     S                 6.00    32.06500     S ( 1.00)
     W                14.00   183.84000     W ( 1.00)
     Ag               11.00   107.87000     Ag( 1.00)
     N                 5.00    14.00700     N ( 1.00)
     O                 6.00    15.99900     O ( 1.00)
     H                 1.00     1.00800     H ( 1.00)

     Starting magnetic structure 
     atomic species   magnetization
     S               0.000
     W               0.000
     Ag              0.000
     N               0.000
     O               0.000
     H               0.000

     No symmetry found


                                    s                        frac. trans.

      isym =  1     identity                                     

 cryst.   s( 1) = (     1          0          0      )
                  (     0          1          0      )
                  (     0          0          1      )

 cart.    s( 1) = (  1.0000000  0.0000000  0.0000000 )
                  (  0.0000000  1.0000000  0.0000000 )
                  (  0.0000000  0.0000000  1.0000000 )


   Cartesian axes

     site n.     atom                  positions (alat units)
         1        W      tau(   1) = (  -0.0028587   0.1395947   0.2444812  )
         2        W      tau(   2) = (  -0.1282026   0.3564836   0.2443568  )
         3        W      tau(   3) = (  -0.2537731   0.5727289   0.2442261  )
         4        W      tau(   4) = (  -0.3783723   0.7888166   0.2441498  )
         5        W      tau(   5) = (   0.2469096   0.1395426   0.2440120  )
         6        W      tau(   6) = (   0.1225026   0.3570726   0.2432304  )
         7        W      tau(   7) = (  -0.0034888   0.5727502   0.2429844  )
         8        W      tau(   8) = (  -0.1283671   0.7891505   0.2439766  )
         9        W      tau(   9) = (   0.4969194   0.1397378   0.2430413  )
        10        W      tau(  10) = (   0.3721499   0.3552416   0.2405337  )
        11        W      tau(  11) = (   0.2452295   0.5727639   0.2402480  )
        12        W      tau(  12) = (   0.1220165   0.7890246   0.2436243  )
        13        W      tau(  13) = (   0.7467445   0.1394449   0.2440642  )
        14        W      tau(  14) = (   0.6211264   0.3563823   0.2436826  )
        15        W      tau(  15) = (   0.4971469   0.5732720   0.2421413  )
        16        W      tau(  16) = (   0.3721785   0.7886524   0.2428338  )
        17        S      tau(  17) = (   0.1219502   0.0672380   0.3684592  )
        18        S      tau(  18) = (  -0.0024014   0.2846735   0.3681910  )
        19        S      tau(  19) = (  -0.1281525   0.5008469   0.3682441  )
        20        S      tau(  20) = (  -0.2533258   0.7170167   0.3685687  )
        21        S      tau(  21) = (   0.3722606   0.0676427   0.3679766  )
        22        S      tau(  22) = (   0.2484890   0.2849851   0.3676532  )
        23        S      tau(  23) = (   0.1218721   0.5017515   0.3660861  )
        24        S      tau(  24) = (  -0.0030403   0.7167922   0.3679041  )
        25        S      tau(  25) = (   0.6215745   0.0674060   0.3678624  )
        26        S      tau(  26) = (   0.4959803   0.2843589   0.3667029  )
        27        S      tau(  27) = (   0.3710177   0.5007270   0.3638206  )
        28        S      tau(  28) = (   0.2481984   0.7153351   0.3669892  )
        29        S      tau(  29) = (   0.8717811   0.0668114   0.3679626  )
        30        S      tau(  30) = (   0.7463862   0.2840842   0.3681041  )
        31        S      tau(  31) = (   0.6195449   0.5004430   0.3687043  )
        32        S      tau(  32) = (   0.4956231   0.7159829   0.3681683  )
        33        S      tau(  33) = (   0.1218639   0.0672424   0.1203644  )
        34        S      tau(  34) = (  -0.0031686   0.2839920   0.1203246  )
        35        S      tau(  35) = (  -0.1290559   0.5005458   0.1199474  )
        36        S      tau(  36) = (  -0.2533637   0.7168463   0.1201865  )
        37        S      tau(  37) = (   0.3715067   0.0672515   0.1197328  )
        38        S      tau(  38) = (   0.2459712   0.2831895   0.1185177  )
        39        S      tau(  39) = (   0.1200987   0.4999851   0.1172124  )
        40        S      tau(  40) = (  -0.0034124   0.7174366   0.1195727  )
        41        S      tau(  41) = (   0.6220409   0.0671938   0.1195919  )
        42        S      tau(  42) = (   0.4978914   0.2834015   0.1177695  )
        43        S      tau(  43) = (   0.3720771   0.5008174   0.1169455  )
        44        S      tau(  44) = (   0.2466393   0.7180153   0.1180007  )
        45        S      tau(  45) = (   0.8722199   0.0680125   0.1199081  )
        46        S      tau(  46) = (   0.7469729   0.2840633   0.1202901  )
        47        S      tau(  47) = (   0.6222799   0.5003741   0.1191499  )
        48        S      tau(  48) = (   0.4972527   0.7176301   0.1185580  )
        49        Ag     tau(  49) = (   0.1547683   0.5150674   0.5753024  )
        50        Ag     tau(  50) = (   0.3069329   0.3595674   0.5464056  )
        51        Ag     tau(  51) = (   0.5024756   0.4743393   0.5615070  )
        52        Ag     tau(  52) = (   0.3399570   0.6321033   0.5430870  )
        53        Ag     tau(  53) = (   0.3428646   0.4953663   0.7084671  )
        54        N      tau(  54) = (   0.2596825   0.4648737   0.8674395  )
        55        O      tau(  55) = (   0.1477385   0.4509631   0.8500100  )
        56        H      tau(  56) = (   0.2634616   0.5234661   0.9229976  )
        57        H      tau(  57) = (   0.1408570   0.4629232   0.7729758  )
        58        H      tau(  58) = (   0.2837088   0.3964009   0.9032094  )

     --------------------------------------------
     DFT-D3 Dispersion Correction (3-body terms):
     --------------------------------------------
       Reference C6 values for interpolation: 

         atom   Coordination number   C6
         H          0.912             6.05
         H          0.000            15.18
         N          0.000            50.54
         N          0.994            44.25
         N          2.014            39.35
         N          2.990            31.16
         O          0.000            31.01
         O          0.993            25.63
         O          1.989            20.74
         S          0.000           268.01
         S          0.995           261.99
         S          1.990           251.62
         Ag         0.000           853.49
         Ag         0.968           537.23
         W          0.000          1628.72
         W          1.929          1086.81
         W         10.915           796.19

       Values used:

         atom   Coordination number  R0_AB[au]  C6      C8
         W          9.805            3.766    796.19 128250.55
         W          9.806            3.766    796.19 128250.55
         W          9.854            3.766    796.19 128250.55
         W          9.866            3.766    796.19 128250.55
         W          9.842            3.766    796.19 128250.55
         W          9.851            3.766    796.19 128250.55
         W          9.870            3.766    796.19 128250.55
         W          9.833            3.766    796.19 128250.55
         W          9.854            3.766    796.19 128250.55
         W          9.880            3.766    796.19 128250.55
         W          9.879            3.766    796.19 128250.55
         W          9.846            3.766    796.19 128250.55
         W          9.811            3.766    796.19 128250.55
         W          9.849            3.766    796.19 128250.55
         W          9.870            3.766    796.19 128250.55
         W          9.855            3.766    796.19 128250.55
         S          3.670            3.128    251.62  12327.25
         S          3.672            3.128    251.62  12327.25
         S          3.679            3.128    251.62  12327.25
         S          3.675            3.128    251.62  12327.25
         S          3.690            3.128    251.62  12327.25
         S          4.579            3.128    251.62  12327.25
         S          4.512            3.128    251.62  12327.25
         S          3.693            3.128    251.62  12327.25
         S          3.676            3.128    251.62  12327.25
         S          3.843            3.128    251.62  12327.25
         S          4.976            3.128    251.62  12327.25
         S          4.443            3.128    251.62  12327.25
         S          3.677            3.128    251.62  12327.25
         S          3.672            3.128    251.62  12327.25
         S          4.198            3.128    251.62  12327.25
         S          3.918            3.128    251.62  12327.25
         S          3.700            3.128    251.62  12327.25
         S          3.699            3.128    251.62  12327.25
         S          3.697            3.128    251.62  12327.25
         S          3.697            3.128    251.62  12327.25
         S          3.689            3.128    251.62  12327.25
         S          3.673            3.128    251.62  12327.25
         S          3.669            3.128    251.62  12327.25
         S          3.689            3.128    251.62  12327.25
         S          3.693            3.128    251.62  12327.25
         S          3.672            3.128    251.62  12327.25
         S          3.662            3.128    251.62  12327.25
         S          3.672            3.128    251.62  12327.25
         S          3.693            3.128    251.62  12327.25
         S          3.697            3.128    251.62  12327.25
         S          3.686            3.128    251.62  12327.25
         S          3.680            3.128    251.62  12327.25
         Ag         3.221            3.147    537.23  47741.54
         Ag         3.973            3.147    537.23  47741.54
         Ag         3.317            3.147    537.23  47741.54
         Ag         4.158            3.147    537.23  47741.54
         Ag         4.122            3.147    537.23  47741.54
         N          3.752            2.478     31.16    687.50
         O          2.001            2.345     20.82    420.12
         H          1.006            2.062      6.18     74.66
         H          1.030            2.062      6.16     74.42
         H          1.007            2.062      6.18     74.65

         Molecular C6 ( Ry / a.u.^6 ) =   1190031.52


   Crystallographic axes

     site n.     atom                  positions (cryst. coord.)
         1        W      tau(   1) = (  0.0777364  0.1611901  0.1550056  )
         2        W      tau(   2) = (  0.0776133  0.4116318  0.1549267  )
         3        W      tau(   3) = (  0.0768921  0.6613303  0.1548438  )
         4        W      tau(   4) = (  0.0770512  0.9108469  0.1547955  )
         5        W      tau(   5) = (  0.3274746  0.1611299  0.1547081  )
         6        W      tau(   6) = (  0.3286586  0.4123119  0.1542125  )
         7        W      tau(   7) = (  0.3271886  0.6613549  0.1540566  )
         8        W      tau(   8) = (  0.3272492  0.9112326  0.1546856  )
         9        W      tau(   9) = (  0.5775970  0.1613553  0.1540926  )
        10        W      tau(  10) = (  0.5772488  0.4101977  0.1525028  )
        11        W      tau(  11) = (  0.5759149  0.6613708  0.1523217  )
        12        W      tau(  12) = (  0.5775601  0.9110871  0.1544623  )
        13        W      tau(  13) = (  0.8272530  0.1610171  0.1547412  )
        14        W      tau(  14) = (  0.8268839  0.4115149  0.1544993  )
        15        W      tau(  15) = (  0.8281256  0.6619575  0.1535220  )
        16        W      tau(  16) = (  0.8275072  0.9106573  0.1539611  )
        17        S      tau(  17) = (  0.1607701  0.0776397  0.2336099  )
        18        S      tau(  18) = (  0.1619549  0.3287126  0.2334399  )
        19        S      tau(  19) = (  0.1610116  0.5783281  0.2334735  )
        20        S      tau(  20) = (  0.1606439  0.8279395  0.2336794  )
        21        S      tau(  21) = (  0.4113141  0.0781070  0.2333040  )
        22        S      tau(  22) = (  0.4130252  0.3290725  0.2330989  )
        23        S      tau(  23) = (  0.4115585  0.5793727  0.2321053  )
        24        S      tau(  24) = (  0.4107998  0.8276803  0.2332579  )
        25        S      tau(  25) = (  0.6604913  0.0778337  0.2332315  )
        26        S      tau(  26) = (  0.6601550  0.3283494  0.2324963  )
        27        S      tau(  27) = (  0.6601125  0.5781897  0.2306689  )
        28        S      tau(  28) = (  0.6611973  0.8259978  0.2326779  )
        29        S      tau(  29) = (  0.9103547  0.0771472  0.2332950  )
        30        S      tau(  30) = (  0.9104023  0.3280322  0.2333848  )
        31        S      tau(  31) = (  0.9084758  0.5778618  0.2337653  )
        32        S      tau(  32) = (  0.9089960  0.8267459  0.2334255  )
        33        S      tau(  33) = (  0.1606863  0.0776448  0.0763132  )
        34        S      tau(  34) = (  0.1607942  0.3279257  0.0762880  )
        35        S      tau(  35) = (  0.1599344  0.5779805  0.0760488  )
        36        S      tau(  36) = (  0.1605077  0.8277428  0.0762004  )
        37        S      tau(  37) = (  0.4103343  0.0776554  0.0759128  )
        38        S      tau(  38) = (  0.4094707  0.3269991  0.0751424  )
        39        S      tau(  39) = (  0.4087652  0.5773330  0.0743148  )
        40        S      tau(  40) = (  0.4107999  0.8284245  0.0758113  )
        41        S      tau(  41) = (  0.6608352  0.0775887  0.0758235  )
        42        S      tau(  42) = (  0.6615133  0.3272438  0.0746680  )
        43        S      tau(  43) = (  0.6612241  0.5782941  0.0741456  )
        44        S      tau(  44) = (  0.6611856  0.8290927  0.0748146  )
        45        S      tau(  45) = (  0.9114869  0.0785340  0.0760239  )
        46        S      tau(  46) = (  0.9109769  0.3280081  0.0762661  )
        47        S      tau(  47) = (  0.9111710  0.5777822  0.0755432  )
        48        S      tau(  48) = (  0.9115766  0.8286478  0.0751680  )
        49        Ag     tau(  49) = (  0.4521427  0.5947486  0.3647523  )
        50        Ag     tau(  50) = (  0.5145293  0.4151927  0.3464312  )
        51        Ag     tau(  51) = (  0.7763355  0.5477198  0.3560058  )
        52        Ag     tau(  52) = (  0.7049020  0.7298900  0.3443271  )
        53        Ag     tau(  53) = (  0.6288645  0.5719998  0.4491812  )
        54        N      tau(  54) = (  0.5280775  0.5367899  0.5499726  )
        55        O      tau(  55) = (  0.4081021  0.5207274  0.5389220  )
        56        H      tau(  56) = (  0.5656850  0.6044466  0.5851974  )
        57        H      tau(  57) = (  0.4081259  0.5345377  0.4900809  )
        58        H      tau(  58) = (  0.5125710  0.4577243  0.5726514  )

     number of k points=    13
                       cart. coord. in units 2pi/alat
        k(    1) = (   0.0000000   0.0000000   0.0000000), wk =   0.0400000
        k(    2) = (   0.0000000   0.2309401   0.0000000), wk =   0.0800000
        k(    3) = (   0.0000000   0.4618802   0.0000000), wk =   0.0800000
        k(    4) = (   0.2000000   0.3464102   0.0000000), wk =   0.0800000
        k(    5) = (   0.2000000   0.5773503   0.0000000), wk =   0.0800000
        k(    6) = (  -0.2000000   0.1154701   0.0000000), wk =   0.0800000
        k(    7) = (   0.2000000   0.1154701   0.0000000), wk =   0.0800000
        k(    8) = (  -0.4000000   0.2309401   0.0000000), wk =   0.0800000
        k(    9) = (   0.4000000   0.2309401   0.0000000), wk =   0.0800000
        k(   10) = (  -0.2000000   0.3464102   0.0000000), wk =   0.0800000
        k(   11) = (   0.4000000  -0.0000000   0.0000000), wk =   0.0800000
        k(   12) = (  -0.4000000   0.4618802   0.0000000), wk =   0.0800000
        k(   13) = (   0.6000000   0.1154701   0.0000000), wk =   0.0800000

                       cryst. coord.
        k(    1) = (   0.0000000   0.0000000   0.0000000), wk =   0.0400000
        k(    2) = (   0.0000000   0.2000000   0.0000000), wk =   0.0800000
        k(    3) = (   0.0000000   0.4000000   0.0000000), wk =   0.0800000
        k(    4) = (   0.2000000   0.2000000   0.0000000), wk =   0.0800000
        k(    5) = (   0.2000000   0.4000000   0.0000000), wk =   0.0800000
        k(    6) = (  -0.2000000   0.2000000   0.0000000), wk =   0.0800000
        k(    7) = (   0.2000000   0.0000000   0.0000000), wk =   0.0800000
        k(    8) = (  -0.4000000   0.4000000   0.0000000), wk =   0.0800000
        k(    9) = (   0.4000000   0.0000000   0.0000000), wk =   0.0800000
        k(   10) = (  -0.2000000   0.4000000   0.0000000), wk =   0.0800000
        k(   11) = (   0.4000000  -0.2000000   0.0000000), wk =   0.0800000
        k(   12) = (  -0.4000000   0.6000000   0.0000000), wk =   0.0800000
        k(   13) = (   0.6000000  -0.2000000   0.0000000), wk =   0.0800000

     Dense  grid:  2539249 G-vectors     FFT dimensions: ( 160, 160, 243)

     Smooth grid:   897387 G-vectors     FFT dimensions: ( 108, 108, 180)

     Dynamical RAM for                 wfc:       6.50 MB

     Dynamical RAM for     wfc (w. buffer):     175.50 MB

     Dynamical RAM for           str. fact:       3.63 MB

     Dynamical RAM for           local pot:       0.00 MB

     Dynamical RAM for          nlocal pot:      26.11 MB

     Dynamical RAM for                qrad:       9.63 MB

     Dynamical RAM for          rho,v,vnew:       8.32 MB

     Dynamical RAM for               rhoin:       2.77 MB

     Dynamical RAM for            rho*nmix:      19.38 MB

     Dynamical RAM for           G-vectors:       2.38 MB

     Dynamical RAM for          h,s,v(r/c):       2.70 MB

     Dynamical RAM for          <psi|beta>:       3.62 MB

     Dynamical RAM for                 psi:      13.00 MB

     Dynamical RAM for                hpsi:      13.00 MB

     Dynamical RAM for                spsi:      13.00 MB

     Dynamical RAM for      wfcinit/wfcrot:      14.35 MB

     Dynamical RAM for           addusdens:     132.60 MB

     Dynamical RAM for          addusforce:     170.39 MB

     Dynamical RAM for         addusstress:     122.61 MB

     Estimated static dynamical RAM per process >     237.27 MB

     Estimated max dynamical RAM per process >     427.03 MB

     Estimated total dynamical RAM >      26.69 GB
     Generating pointlists ...
     new r_m :   0.0782 (alat units)  1.8731 (a.u.) for type    1
     new r_m :   0.0782 (alat units)  1.8731 (a.u.) for type    2
     new r_m :   0.0751 (alat units)  1.7989 (a.u.) for type    3
     new r_m :   0.0333 (alat units)  0.7990 (a.u.) for type    4
     new r_m :   0.0323 (alat units)  0.7736 (a.u.) for type    5
     new r_m :   0.0323 (alat units)  0.7736 (a.u.) for type    6

     Initial potential from superposition of free atoms

     starting charge     484.9880, renormalised to     485.0000

     negative rho (up, down):  1.010E-03 1.010E-03
     Starting wfcs are  392 randomized atomic wfcs
     Checking if some PAW data can be deallocated... 
       PAW data deallocated on   32 nodes for type:  1
       PAW data deallocated on   42 nodes for type:  2
       PAW data deallocated on   59 nodes for type:  3
       PAW data deallocated on   63 nodes for type:  4
       PAW data deallocated on   63 nodes for type:  5
       PAW data deallocated on   61 nodes for type:  6

     total cpu time spent up to now is      191.0 secs

     per-process dynamical memory:   308.7 Mb

     Self-consistent Calculation

     iteration #  1     ecut=    50.00 Ry     beta= 0.40
     Davidson diagonalization with overlap

---- Real-time Memory Report at c_bands before calling an iterative solver
           367 MiB given to the printing process from OS
           301 MiB allocation reported by mallinfo(arena+hblkhd)
         77708 MiB available memory on the node where the printing process lives
------------------
     ethr =  1.00E-02,  avg # of iterations =  2.0

     Threshold (ethr) on eigenvalues was too large:
     Diagonalizing with lowered threshold

     Davidson diagonalization with overlap

---- Real-time Memory Report at c_bands before calling an iterative solver
           470 MiB given to the printing process from OS
           304 MiB allocation reported by mallinfo(arena+hblkhd)
         77235 MiB available memory on the node where the printing process lives
------------------
     ethr =  4.33E-04,  avg # of iterations =  4.8

     negative rho (up, down):  1.027E-02 6.721E-03

     total cpu time spent up to now is      950.4 secs

     total energy              =  -16138.22529695 Ry
     estimated scf accuracy    <       2.44128291 Ry

     total magnetization       =     1.00 Bohr mag/cell
     absolute magnetization    =     4.14 Bohr mag/cell

     iteration #  2     ecut=    50.00 Ry     beta= 0.40
     Davidson diagonalization with overlap

---- Real-time Memory Report at c_bands before calling an iterative solver
           478 MiB given to the printing process from OS
           311 MiB allocation reported by mallinfo(arena+hblkhd)
         74994 MiB available memory on the node where the printing process lives
------------------
     ethr =  5.03E-04,  avg # of iterations =  7.3

     negative rho (up, down):  3.225E-02 2.309E-02

     total cpu time spent up to now is     1347.7 secs

     total energy              =  -16138.44734465 Ry
     estimated scf accuracy    <       0.41066290 Ry

     total magnetization       =     1.00 Bohr mag/cell
     absolute magnetization    =     3.05 Bohr mag/cell

     iteration #  3     ecut=    50.00 Ry     beta= 0.40
     Davidson diagonalization with overlap

---- Real-time Memory Report at c_bands before calling an iterative solver
           480 MiB given to the printing process from OS
           313 MiB allocation reported by mallinfo(arena+hblkhd)
         75083 MiB available memory on the node where the printing process lives
------------------
     ethr =  8.47E-05,  avg # of iterations =  8.4

     negative rho (up, down):  3.679E-02 2.748E-02

     total cpu time spent up to now is     1762.3 secs

     total energy              =  -16138.51463328 Ry
     estimated scf accuracy    <       0.21891852 Ry

     total magnetization       =     1.00 Bohr mag/cell
     absolute magnetization    =     2.36 Bohr mag/cell

     iteration #  4     ecut=    50.00 Ry     beta= 0.40
     Davidson diagonalization with overlap

---- Real-time Memory Report at c_bands before calling an iterative solver
           481 MiB given to the printing process from OS
           314 MiB allocation reported by mallinfo(arena+hblkhd)
         74944 MiB available memory on the node where the printing process lives
------------------
     ethr =  4.51E-05,  avg # of iterations =  9.8

     negative rho (up, down):  3.078E-02 2.393E-02

     total cpu time spent up to now is     2162.3 secs

     total energy              =  -16138.54490026 Ry
     estimated scf accuracy    <       0.05200695 Ry

     total magnetization       =     1.00 Bohr mag/cell
     absolute magnetization    =     1.98 Bohr mag/cell

     iteration #  5     ecut=    50.00 Ry     beta= 0.40
     Davidson diagonalization with overlap

---- Real-time Memory Report at c_bands before calling an iterative solver
           509 MiB given to the printing process from OS
           346 MiB allocation reported by mallinfo(arena+hblkhd)
         69156 MiB available memory on the node where the printing process lives
------------------
     ethr =  1.07E-05,  avg # of iterations =  7.3

     negative rho (up, down):  2.096E-02 1.662E-02

     total cpu time spent up to now is     2544.4 secs

     total energy              =  -16138.55010217 Ry
     estimated scf accuracy    <       0.03140392 Ry

     total magnetization       =     1.00 Bohr mag/cell
     absolute magnetization    =     1.71 Bohr mag/cell

     iteration #  6     ecut=    50.00 Ry     beta= 0.40
     Davidson diagonalization with overlap

---- Real-time Memory Report at c_bands before calling an iterative solver
           515 MiB given to the printing process from OS
           348 MiB allocation reported by mallinfo(arena+hblkhd)
         77172 MiB available memory on the node where the printing process lives
------------------
     ethr =  6.48E-06,  avg # of iterations =  7.3

     negative rho (up, down):  1.381E-02 1.145E-02

     total cpu time spent up to now is     2906.1 secs

     total energy              =  -16138.55323423 Ry
     estimated scf accuracy    <       0.01625783 Ry

     total magnetization       =     1.00 Bohr mag/cell
     absolute magnetization    =     1.48 Bohr mag/cell

     iteration #  7     ecut=    50.00 Ry     beta= 0.40
     Davidson diagonalization with overlap

---- Real-time Memory Report at c_bands before calling an iterative solver
           515 MiB given to the printing process from OS
           349 MiB allocation reported by mallinfo(arena+hblkhd)
         75563 MiB available memory on the node where the printing process lives
------------------
     ethr =  3.35E-06,  avg # of iterations =  5.7

     negative rho (up, down):  2.025E-02 2.081E-02

     total cpu time spent up to now is     3251.7 secs

     total energy              =  -16138.55173419 Ry
     estimated scf accuracy    <       0.00821579 Ry

     total magnetization       =     1.00 Bohr mag/cell
     absolute magnetization    =     1.33 Bohr mag/cell

     iteration #  8     ecut=    50.00 Ry     beta= 0.40
     Davidson diagonalization with overlap

---- Real-time Memory Report at c_bands before calling an iterative solver
           516 MiB given to the printing process from OS
           350 MiB allocation reported by mallinfo(arena+hblkhd)
         75288 MiB available memory on the node where the printing process lives
------------------
     ethr =  1.69E-06,  avg # of iterations =  7.7

     negative rho (up, down):  2.100E-02 2.214E-02

     total cpu time spent up to now is     3596.2 secs

     total energy              =  -16138.55148671 Ry
     estimated scf accuracy    <       0.00200247 Ry

     total magnetization       =     1.00 Bohr mag/cell
     absolute magnetization    =     1.22 Bohr mag/cell

     iteration #  9     ecut=    50.00 Ry     beta= 0.40
     Davidson diagonalization with overlap

---- Real-time Memory Report at c_bands before calling an iterative solver
           517 MiB given to the printing process from OS
           351 MiB allocation reported by mallinfo(arena+hblkhd)
         75370 MiB available memory on the node where the printing process lives
------------------
     ethr =  4.13E-07,  avg # of iterations =  7.4

     negative rho (up, down):  1.516E-02 1.607E-02

     total cpu time spent up to now is     3993.9 secs

     total energy              =  -16138.55340934 Ry
     estimated scf accuracy    <       0.00048172 Ry

     total magnetization       =     1.00 Bohr mag/cell
     absolute magnetization    =     1.17 Bohr mag/cell

     iteration # 10     ecut=    50.00 Ry     beta= 0.40
     Davidson diagonalization with overlap

---- Real-time Memory Report at c_bands before calling an iterative solver
           519 MiB given to the printing process from OS
           353 MiB allocation reported by mallinfo(arena+hblkhd)
         74692 MiB available memory on the node where the printing process lives
------------------
     ethr =  9.93E-08,  avg # of iterations =  7.6

     negative rho (up, down):  1.095E-02 1.171E-02

     total cpu time spent up to now is     4397.3 secs

     total energy              =  -16138.55446861 Ry
     estimated scf accuracy    <       0.00015067 Ry

     total magnetization       =     1.00 Bohr mag/cell
     absolute magnetization    =     1.15 Bohr mag/cell

     iteration # 11     ecut=    50.00 Ry     beta= 0.40
     Davidson diagonalization with overlap

---- Real-time Memory Report at c_bands before calling an iterative solver
           527 MiB given to the printing process from OS
           354 MiB allocation reported by mallinfo(arena+hblkhd)
         74067 MiB available memory on the node where the printing process lives
------------------
     ethr =  3.11E-08,  avg # of iterations =  7.8

     negative rho (up, down):  7.833E-03 8.411E-03

     total cpu time spent up to now is     4850.6 secs

     total energy              =  -16138.55507774 Ry
     estimated scf accuracy    <       0.00008319 Ry

     total magnetization       =     1.00 Bohr mag/cell
     absolute magnetization    =     1.14 Bohr mag/cell

     iteration # 12     ecut=    50.00 Ry     beta= 0.40
     Davidson diagonalization with overlap

---- Real-time Memory Report at c_bands before calling an iterative solver
           530 MiB given to the printing process from OS
           355 MiB allocation reported by mallinfo(arena+hblkhd)
         73954 MiB available memory on the node where the printing process lives
------------------
     ethr =  1.72E-08,  avg # of iterations =  6.5

     negative rho (up, down):  5.999E-03 6.453E-03

     total cpu time spent up to now is     5260.5 secs

     total energy              =  -16138.55533595 Ry
     estimated scf accuracy    <       0.00002911 Ry

     total magnetization       =     1.00 Bohr mag/cell
     absolute magnetization    =     1.13 Bohr mag/cell

     iteration # 13     ecut=    50.00 Ry     beta= 0.40
     Davidson diagonalization with overlap

---- Real-time Memory Report at c_bands before calling an iterative solver
           530 MiB given to the printing process from OS
           355 MiB allocation reported by mallinfo(arena+hblkhd)
         73854 MiB available memory on the node where the printing process lives
------------------
     ethr =  6.00E-09,  avg # of iterations =  7.0

     negative rho (up, down):  5.228E-03 5.631E-03

     total cpu time spent up to now is     5662.7 secs

     total energy              =  -16138.55542339 Ry
     estimated scf accuracy    <       0.00001239 Ry

     total magnetization       =     1.00 Bohr mag/cell
     absolute magnetization    =     1.12 Bohr mag/cell

     iteration # 14     ecut=    50.00 Ry     beta= 0.40
     Davidson diagonalization with overlap

---- Real-time Memory Report at c_bands before calling an iterative solver
           530 MiB given to the printing process from OS
           355 MiB allocation reported by mallinfo(arena+hblkhd)
         73954 MiB available memory on the node where the printing process lives
------------------
     ethr =  2.55E-09,  avg # of iterations =  3.9

     negative rho (up, down):  4.900E-03 5.279E-03

     total cpu time spent up to now is     6016.1 secs

     total energy              =  -16138.55545991 Ry
     estimated scf accuracy    <       0.00000864 Ry

     total magnetization       =     1.00 Bohr mag/cell
     absolute magnetization    =     1.12 Bohr mag/cell

     iteration # 15     ecut=    50.00 Ry     beta= 0.40
     Davidson diagonalization with overlap

---- Real-time Memory Report at c_bands before calling an iterative solver
           530 MiB given to the printing process from OS
           355 MiB allocation reported by mallinfo(arena+hblkhd)
         73977 MiB available memory on the node where the printing process lives
------------------
     ethr =  1.78E-09,  avg # of iterations =  2.0

     negative rho (up, down):  4.837E-03 5.214E-03

     total cpu time spent up to now is     6320.9 secs

     total energy              =  -16138.55546744 Ry
     estimated scf accuracy    <       0.00000717 Ry

     total magnetization       =     1.00 Bohr mag/cell
     absolute magnetization    =     1.12 Bohr mag/cell

     iteration # 16     ecut=    50.00 Ry     beta= 0.40
     Davidson diagonalization with overlap

---- Real-time Memory Report at c_bands before calling an iterative solver
           530 MiB given to the printing process from OS
           355 MiB allocation reported by mallinfo(arena+hblkhd)
         74039 MiB available memory on the node where the printing process lives
------------------
     ethr =  1.48E-09,  avg # of iterations =  2.0

     negative rho (up, down):  5.402E-03 5.805E-03

     total cpu time spent up to now is     6618.0 secs

     total energy              =  -16138.55540949 Ry
     estimated scf accuracy    <       0.00000445 Ry

     total magnetization       =     1.00 Bohr mag/cell
     absolute magnetization    =     1.12 Bohr mag/cell

     iteration # 17     ecut=    50.00 Ry     beta= 0.40
     Davidson diagonalization with overlap

---- Real-time Memory Report at c_bands before calling an iterative solver
           530 MiB given to the printing process from OS
           355 MiB allocation reported by mallinfo(arena+hblkhd)
         73962 MiB available memory on the node where the printing process lives
------------------
     ethr =  9.18E-10,  avg # of iterations =  8.4

     negative rho (up, down):  4.958E-03 5.338E-03

     total cpu time spent up to now is     7049.1 secs

     total energy              =  -16138.55545298 Ry
     estimated scf accuracy    <       0.00000690 Ry

     total magnetization       =     1.00 Bohr mag/cell
     absolute magnetization    =     1.12 Bohr mag/cell

     iteration # 18     ecut=    50.00 Ry     beta= 0.40
     Davidson diagonalization with overlap

---- Real-time Memory Report at c_bands before calling an iterative solver
           530 MiB given to the printing process from OS
           355 MiB allocation reported by mallinfo(arena+hblkhd)
         73944 MiB available memory on the node where the printing process lives
------------------
     ethr =  9.18E-10,  avg # of iterations =  8.7

     negative rho (up, down):  4.813E-03 5.182E-03

     total cpu time spent up to now is     7431.3 secs

     total energy              =  -16138.55547037 Ry
     estimated scf accuracy    <       0.00000105 Ry

     total magnetization       =     1.00 Bohr mag/cell
     absolute magnetization    =     1.12 Bohr mag/cell

     iteration # 19     ecut=    50.00 Ry     beta= 0.40
     Davidson diagonalization with overlap

---- Real-time Memory Report at c_bands before calling an iterative solver
           530 MiB given to the printing process from OS
           355 MiB allocation reported by mallinfo(arena+hblkhd)
         73864 MiB available memory on the node where the printing process lives
------------------
     ethr =  2.17E-10,  avg # of iterations =  7.2

     negative rho (up, down):  4.802E-03 5.169E-03

     total cpu time spent up to now is     7921.2 secs

     total energy              =  -16138.55547158 Ry
     estimated scf accuracy    <       0.00000217 Ry

     total magnetization       =     1.00 Bohr mag/cell
     absolute magnetization    =     1.12 Bohr mag/cell

     iteration # 20     ecut=    50.00 Ry     beta= 0.40
     Davidson diagonalization with overlap

---- Real-time Memory Report at c_bands before calling an iterative solver
           530 MiB given to the printing process from OS
           355 MiB allocation reported by mallinfo(arena+hblkhd)
         73762 MiB available memory on the node where the printing process lives
------------------
     ethr =  2.17E-10,  avg # of iterations =  6.5

     negative rho (up, down):  4.807E-03 5.174E-03

     total cpu time spent up to now is     8322.0 secs

     total energy              =  -16138.55547061 Ry
     estimated scf accuracy    <       0.00000057 Ry

     total magnetization       =     1.00 Bohr mag/cell
     absolute magnetization    =     1.12 Bohr mag/cell

     iteration # 21     ecut=    50.00 Ry     beta= 0.40
     Davidson diagonalization with overlap

---- Real-time Memory Report at c_bands before calling an iterative solver
           530 MiB given to the printing process from OS
           355 MiB allocation reported by mallinfo(arena+hblkhd)
         73775 MiB available memory on the node where the printing process lives
------------------
     ethr =  1.18E-10,  avg # of iterations =  6.3

     negative rho (up, down):  4.803E-03 5.171E-03

     total cpu time spent up to now is     8766.5 secs

     total energy              =  -16138.55547115 Ry
     estimated scf accuracy    <       0.00000050 Ry

     total magnetization       =     1.00 Bohr mag/cell
     absolute magnetization    =     1.12 Bohr mag/cell

     iteration # 22     ecut=    50.00 Ry     beta= 0.40
     Davidson diagonalization with overlap

---- Real-time Memory Report at c_bands before calling an iterative solver
           530 MiB given to the printing process from OS
           355 MiB allocation reported by mallinfo(arena+hblkhd)
         73726 MiB available memory on the node where the printing process lives
------------------
     ethr =  1.04E-10,  avg # of iterations =  2.4

     negative rho (up, down):  4.800E-03 5.168E-03

     total cpu time spent up to now is     9079.3 secs

     total energy              =  -16138.55547150 Ry
     estimated scf accuracy    <       0.00000013 Ry

     total magnetization       =     1.00 Bohr mag/cell
     absolute magnetization    =     1.12 Bohr mag/cell

     iteration # 23     ecut=    50.00 Ry     beta= 0.40
     Davidson diagonalization with overlap

---- Real-time Memory Report at c_bands before calling an iterative solver
           530 MiB given to the printing process from OS
           355 MiB allocation reported by mallinfo(arena+hblkhd)
         73646 MiB available memory on the node where the printing process lives
------------------
     ethr =  2.76E-11,  avg # of iterations =  8.7

     negative rho (up, down):  4.798E-03 5.165E-03

     total cpu time spent up to now is     9546.4 secs

     total energy              =  -16138.55547184 Ry
     estimated scf accuracy    <       0.00000006 Ry

     total magnetization       =     1.00 Bohr mag/cell
     absolute magnetization    =     1.12 Bohr mag/cell

     iteration # 24     ecut=    50.00 Ry     beta= 0.40
     Davidson diagonalization with overlap

---- Real-time Memory Report at c_bands before calling an iterative solver
           530 MiB given to the printing process from OS
           355 MiB allocation reported by mallinfo(arena+hblkhd)
         73655 MiB available memory on the node where the printing process lives
------------------
     ethr =  1.28E-11,  avg # of iterations =  2.2

     negative rho (up, down):  4.797E-03 5.164E-03

     total cpu time spent up to now is     9848.3 secs

     total energy              =  -16138.55547187 Ry
     estimated scf accuracy    <       0.00000004 Ry

     total magnetization       =     1.00 Bohr mag/cell
     absolute magnetization    =     1.12 Bohr mag/cell

     iteration # 25     ecut=    50.00 Ry     beta= 0.40
     Davidson diagonalization with overlap

---- Real-time Memory Report at c_bands before calling an iterative solver
           530 MiB given to the printing process from OS
           355 MiB allocation reported by mallinfo(arena+hblkhd)
         73683 MiB available memory on the node where the printing process lives
------------------
     ethr =  8.61E-12,  avg # of iterations =  7.0

     negative rho (up, down):  4.797E-03 5.164E-03

     total cpu time spent up to now is    10201.4 secs

     total energy              =  -16138.55547190 Ry
     estimated scf accuracy    <          6.1E-09 Ry

     total magnetization       =     1.00 Bohr mag/cell
     absolute magnetization    =     1.12 Bohr mag/cell

     iteration # 26     ecut=    50.00 Ry     beta= 0.40
     Davidson diagonalization with overlap

---- Real-time Memory Report at c_bands before calling an iterative solver
           530 MiB given to the printing process from OS
           355 MiB allocation reported by mallinfo(arena+hblkhd)
         73665 MiB available memory on the node where the printing process lives
------------------
     ethr =  1.27E-12,  avg # of iterations =  6.5

     negative rho (up, down):  4.796E-03 5.164E-03

     total cpu time spent up to now is    10662.9 secs

     total energy              =  -16138.55547190 Ry
     estimated scf accuracy    <          4.3E-09 Ry

     total magnetization       =     1.00 Bohr mag/cell
     absolute magnetization    =     1.12 Bohr mag/cell

     iteration # 27     ecut=    50.00 Ry     beta= 0.40
     Davidson diagonalization with overlap

---- Real-time Memory Report at c_bands before calling an iterative solver
           530 MiB given to the printing process from OS
           355 MiB allocation reported by mallinfo(arena+hblkhd)
         73844 MiB available memory on the node where the printing process lives
------------------
     ethr =  8.89E-13,  avg # of iterations =  4.7

     negative rho (up, down):  4.796E-03 5.164E-03

     total cpu time spent up to now is    10993.2 secs

     total energy              =  -16138.55547191 Ry
     estimated scf accuracy    <          3.1E-09 Ry

     total magnetization       =     1.00 Bohr mag/cell
     absolute magnetization    =     1.12 Bohr mag/cell

     iteration # 28     ecut=    50.00 Ry     beta= 0.40
     Davidson diagonalization with overlap

---- Real-time Memory Report at c_bands before calling an iterative solver
           530 MiB given to the printing process from OS
           355 MiB allocation reported by mallinfo(arena+hblkhd)
         73618 MiB available memory on the node where the printing process lives
------------------
     ethr =  6.41E-13,  avg # of iterations =  2.0

     negative rho (up, down):  4.796E-03 5.164E-03

     total cpu time spent up to now is    11297.5 secs

     total energy              =  -16138.55547191 Ry
     estimated scf accuracy    <          1.5E-09 Ry

     total magnetization       =     1.00 Bohr mag/cell
     absolute magnetization    =     1.12 Bohr mag/cell

     iteration # 29     ecut=    50.00 Ry     beta= 0.40
     Davidson diagonalization with overlap

---- Real-time Memory Report at c_bands before calling an iterative solver
           530 MiB given to the printing process from OS
           355 MiB allocation reported by mallinfo(arena+hblkhd)
         73578 MiB available memory on the node where the printing process lives
------------------
     ethr =  3.19E-13,  avg # of iterations =  7.3

     negative rho (up, down):  4.796E-03 5.164E-03

     total cpu time spent up to now is    11718.8 secs

     total energy              =  -16138.55547191 Ry
     estimated scf accuracy    <          6.8E-10 Ry

     total magnetization       =     1.00 Bohr mag/cell
     absolute magnetization    =     1.12 Bohr mag/cell

     iteration # 30     ecut=    50.00 Ry     beta= 0.40
     Davidson diagonalization with overlap

---- Real-time Memory Report at c_bands before calling an iterative solver
           530 MiB given to the printing process from OS
           355 MiB allocation reported by mallinfo(arena+hblkhd)
         73759 MiB available memory on the node where the printing process lives
------------------
     ethr =  1.40E-13,  avg # of iterations =  3.1

     negative rho (up, down):  4.796E-03 5.164E-03

     total cpu time spent up to now is    12034.7 secs

     total energy              =  -16138.55547191 Ry
     estimated scf accuracy    <          5.5E-10 Ry

     total magnetization       =     1.00 Bohr mag/cell
     absolute magnetization    =     1.12 Bohr mag/cell

     iteration # 31     ecut=    50.00 Ry     beta= 0.40
     Davidson diagonalization with overlap

---- Real-time Memory Report at c_bands before calling an iterative solver
           530 MiB given to the printing process from OS
           355 MiB allocation reported by mallinfo(arena+hblkhd)
         73716 MiB available memory on the node where the printing process lives
------------------
     ethr =  1.14E-13,  avg # of iterations =  8.2

     negative rho (up, down):  4.796E-03 5.164E-03

     total cpu time spent up to now is    12399.2 secs

     total energy              =  -16138.55547191 Ry
     estimated scf accuracy    <          5.7E-10 Ry

     total magnetization       =     1.00 Bohr mag/cell
     absolute magnetization    =     1.12 Bohr mag/cell

     iteration # 32     ecut=    50.00 Ry     beta= 0.40
     Davidson diagonalization with overlap

---- Real-time Memory Report at c_bands before calling an iterative solver
           530 MiB given to the printing process from OS
           355 MiB allocation reported by mallinfo(arena+hblkhd)
         73556 MiB available memory on the node where the printing process lives
------------------
     ethr =  1.14E-13,  avg # of iterations =  5.3

     negative rho (up, down):  4.796E-03 5.164E-03

     total cpu time spent up to now is    12720.0 secs

     total energy              =  -16138.55547191 Ry
     estimated scf accuracy    <          3.7E-10 Ry

     total magnetization       =     1.00 Bohr mag/cell
     absolute magnetization    =     1.12 Bohr mag/cell

     iteration # 33     ecut=    50.00 Ry     beta= 0.40
     Davidson diagonalization with overlap

---- Real-time Memory Report at c_bands before calling an iterative solver
           530 MiB given to the printing process from OS
           355 MiB allocation reported by mallinfo(arena+hblkhd)
         73685 MiB available memory on the node where the printing process lives
------------------
     ethr =  1.00E-13,  avg # of iterations =  5.1

     negative rho (up, down):  4.796E-03 5.164E-03

     total cpu time spent up to now is    13039.9 secs

     total energy              =  -16138.55547191 Ry
     estimated scf accuracy    <          1.1E-10 Ry

     total magnetization       =     1.00 Bohr mag/cell
     absolute magnetization    =     1.12 Bohr mag/cell

     iteration # 34     ecut=    50.00 Ry     beta= 0.40
     Davidson diagonalization with overlap

---- Real-time Memory Report at c_bands before calling an iterative solver
           530 MiB given to the printing process from OS
           355 MiB allocation reported by mallinfo(arena+hblkhd)
         73725 MiB available memory on the node where the printing process lives
------------------
     ethr =  1.00E-13,  avg # of iterations =  7.7

     negative rho (up, down):  4.796E-03 5.164E-03

     total cpu time spent up to now is    13395.7 secs

     total energy              =  -16138.55547191 Ry
     estimated scf accuracy    <          1.3E-10 Ry

     total magnetization       =     1.00 Bohr mag/cell
     absolute magnetization    =     1.12 Bohr mag/cell

     iteration # 35     ecut=    50.00 Ry     beta= 0.40
     Davidson diagonalization with overlap

---- Real-time Memory Report at c_bands before calling an iterative solver
           530 MiB given to the printing process from OS
           355 MiB allocation reported by mallinfo(arena+hblkhd)
         73709 MiB available memory on the node where the printing process lives
------------------
     ethr =  1.00E-13,  avg # of iterations =  2.0

     negative rho (up, down):  4.796E-03 5.164E-03

     Magnetic moment per site  (integrated on atomic sphere of radius R)
     atom   1 (R=0.078)  charge= 10.3731  magn=  0.0015
     atom   2 (R=0.078)  charge= 10.3731  magn=  0.0080
     atom   3 (R=0.078)  charge= 10.3740  magn= -0.0007
     atom   4 (R=0.078)  charge= 10.3743  magn=  0.0147
     atom   5 (R=0.078)  charge= 10.3763  magn=  0.0111
     atom   6 (R=0.078)  charge= 10.3757  magn=  0.0063
     atom   7 (R=0.078)  charge= 10.3783  magn=  0.0052
     atom   8 (R=0.078)  charge= 10.3749  magn=  0.0108
     atom   9 (R=0.078)  charge= 10.3753  magn=  0.0033
     atom  10 (R=0.078)  charge= 10.3820  magn=  0.0364
     atom  11 (R=0.078)  charge= 10.3836  magn=  0.0167
     atom  12 (R=0.078)  charge= 10.3743  magn=  0.0164
     atom  13 (R=0.078)  charge= 10.3731  magn=  0.0029
     atom  14 (R=0.078)  charge= 10.3740  magn= -0.0006
     atom  15 (R=0.078)  charge= 10.3816  magn=  0.0171
     atom  16 (R=0.078)  charge= 10.3760  magn=  0.0042
     atom  17 (R=0.078)  charge=  4.1591  magn=  0.0027
     atom  18 (R=0.078)  charge=  4.1558  magn=  0.0017
     atom  19 (R=0.078)  charge=  4.1586  magn= -0.0000
     atom  20 (R=0.078)  charge=  4.1590  magn=  0.0027
     atom  21 (R=0.078)  charge=  4.1594  magn=  0.0025
     atom  22 (R=0.078)  charge=  4.1750  magn=  0.0122
     atom  23 (R=0.078)  charge=  4.1787  magn=  0.0050
     atom  24 (R=0.078)  charge=  4.1586  magn=  0.0036
     atom  25 (R=0.078)  charge=  4.1591  magn=  0.0022
     atom  26 (R=0.078)  charge=  4.1626  magn=  0.0026
     atom  27 (R=0.078)  charge=  4.1805  magn=  0.0068
     atom  28 (R=0.078)  charge=  4.1668  magn=  0.0125
     atom  29 (R=0.078)  charge=  4.1578  magn=  0.0030
     atom  30 (R=0.078)  charge=  4.1574  magn=  0.0007
     atom  31 (R=0.078)  charge=  4.1566  magn=  0.0017
     atom  32 (R=0.078)  charge=  4.1575  magn=  0.0062
     atom  33 (R=0.078)  charge=  4.1610  magn=  0.0008
     atom  34 (R=0.078)  charge=  4.1591  magn=  0.0008
     atom  35 (R=0.078)  charge=  4.1606  magn= -0.0002
     atom  36 (R=0.078)  charge=  4.1609  magn=  0.0001
     atom  37 (R=0.078)  charge=  4.1601  magn=  0.0005
     atom  38 (R=0.078)  charge=  4.1589  magn=  0.0036
     atom  39 (R=0.078)  charge=  4.1568  magn=  0.0010
     atom  40 (R=0.078)  charge=  4.1595  magn= -0.0001
     atom  41 (R=0.078)  charge=  4.1602  magn=  0.0005
     atom  42 (R=0.078)  charge=  4.1579  magn=  0.0018
     atom  43 (R=0.078)  charge=  4.1526  magn=  0.0025
     atom  44 (R=0.078)  charge=  4.1584  magn=  0.0032
     atom  45 (R=0.078)  charge=  4.1594  magn=  0.0015
     atom  46 (R=0.078)  charge=  4.1597  magn=  0.0002
     atom  47 (R=0.078)  charge=  4.1603  magn=  0.0006
     atom  48 (R=0.078)  charge=  4.1598  magn=  0.0022
     atom  49 (R=0.075)  charge=  8.3762  magn=  0.0118
     atom  50 (R=0.075)  charge=  8.3724  magn=  0.0310
     atom  51 (R=0.075)  charge=  8.3760  magn=  0.0134
     atom  52 (R=0.075)  charge=  8.3726  magn=  0.0331
     atom  53 (R=0.075)  charge=  8.3617  magn=  0.0185
     atom  54 (R=0.033)  charge=  1.3235  magn= -0.0002
     atom  55 (R=0.032)  charge=  2.0233  magn=  0.0004
     atom  56 (R=0.032)  charge=  0.4187  magn=  0.0002
     atom  57 (R=0.032)  charge=  0.4030  magn=  0.0001
     atom  58 (R=0.032)  charge=  0.4173  magn=  0.0001

     total cpu time spent up to now is    13693.1 secs

     End of self-consistent calculation

 ------ SPIN UP ------------


          k = 0.0000 0.0000 0.0000 (112117 PWs)   bands (ev):

   -73.8173 -73.8138 -73.8109 -73.8083 -73.8063 -73.8055 -73.8029 -73.8009
   -73.7961 -73.7942 -73.7914 -73.7893 -73.7875 -73.7547 -73.7499 -73.7404
   -38.2252 -38.2203 -38.2191 -38.1642 -38.1634 -38.1586 -38.1581 -38.1517
   -38.1439 -38.0602 -38.0573 -38.0546 -38.0540 -38.0489 -38.0469 -38.0450
   -38.0315 -38.0298 -38.0272 -38.0266 -38.0228 -38.0222 -38.0198 -38.0178
   -38.0171 -38.0143 -38.0126 -38.0048 -37.9960 -37.9929 -37.9916 -37.9886
   -37.9870 -37.9828 -37.9691 -37.9589 -37.9576 -37.9547 -37.9521 -37.9467
   -37.9256 -37.9187 -37.9142 -37.9136 -37.9098 -37.9049 -37.8706 -37.8673
   -21.5129 -15.4152 -14.5993 -13.7126 -13.6994 -13.6753 -13.6449 -13.6317
   -13.6215 -12.9839 -12.7142 -12.6786 -12.6563 -12.6405 -12.6040 -12.5823
   -12.5408 -12.5080 -12.4741 -12.4577 -12.4465 -12.4444 -12.4231 -12.4218
   -12.4170 -12.2246 -12.2025 -12.1912 -12.1755 -12.1585 -12.1547 -12.1509
   -12.1478 -12.1452  -7.9437  -7.5439  -6.3442  -6.3286  -6.3105  -6.2856
    -6.1620  -5.6165  -5.5751  -5.5531  -5.5348  -5.5296  -5.4958  -5.4472
    -5.4165  -5.3937  -5.3160  -5.2859  -5.2639  -5.1080  -5.0959  -5.0667
    -5.0616  -5.0571  -5.0560  -5.0016  -5.0001  -4.9912  -4.5267  -4.4437
    -4.4044  -4.3495  -4.2964  -4.2866  -4.2706  -4.2496  -4.2353  -4.1852
    -4.0831  -4.0131  -3.9812  -3.9650  -3.9389  -3.7980  -3.7630  -3.7610
    -3.7061  -3.6806  -3.6771  -3.6172  -3.5179  -3.4770  -3.4099  -3.4055
    -3.3762  -3.3686  -3.3018  -3.2282  -3.1996  -3.1857  -3.1669  -3.1457
    -3.1362  -3.1282  -3.1141  -3.1107  -3.0659  -2.9643  -2.8246  -2.7738
    -2.7259  -2.6807  -2.6517  -2.5945  -2.5860  -2.5260  -2.5170  -2.4686
    -2.4637  -2.4371  -2.4355  -2.4298  -2.4038  -2.3456  -2.2960  -2.2126
    -2.1361  -2.0885  -1.9832  -1.9801  -1.9575  -1.9357  -1.8727  -1.8401
    -1.8178  -1.7855  -1.7716  -1.7681  -1.7545  -1.7543  -1.7459  -1.7410
    -1.7403  -1.7119  -1.6981  -1.6697  -1.6627  -1.6481  -1.6385  -1.6126
    -1.5843  -1.5345  -1.5264  -1.5088  -1.4559  -1.4207  -1.3761  -1.3596
    -1.3139  -1.2785  -1.2074  -1.1008  -1.0619  -1.0323  -1.0169  -0.9984
    -0.7319  -0.6960  -0.6917  -0.6895  -0.6802  -0.6763  -0.6512  -0.6481
    -0.6319  -0.3989  -0.3904  -0.3789  -0.3638  -0.3515  -0.3433  -0.3258
     0.1951   1.2540   1.5335

     occupation numbers 
     1.0000   1.0000   1.0000   1.0000   1.0000   1.0000   1.0000   1.0000
     1.0000   1.0000   1.0000   1.0000   1.0000   1.0000   1.0000   1.0000
     1.0000   1.0000   1.0000   1.0000   1.0000   1.0000   1.0000   1.0000
     1.0000   1.0000   1.0000   1.0000   1.0000   1.0000   1.0000   1.0000
     1.0000   1.0000   1.0000   1.0000   1.0000   1.0000   1.0000   1.0000
     1.0000   1.0000   1.0000   1.0000   1.0000   1.0000   1.0000   1.0000
     1.0000   1.0000   1.0000   1.0000   1.0000   1.0000   1.0000   1.0000
     1.0000   1.0000   1.0000   1.0000   1.0000   1.0000   1.0000   1.0000
     1.0000   1.0000   1.0000   1.0000   1.0000   1.0000   1.0000   1.0000
     1.0000   1.0000   1.0000   1.0000   1.0000   1.0000   1.0000   1.0000
     1.0000   1.0000   1.0000   1.0000   1.0000   1.0000   1.0000   1.0000
     1.0000   1.0000   1.0000   1.0000   1.0000   1.0000   1.0000   1.0000
     1.0000   1.0000   1.0000   1.0000   1.0000   1.0000   1.0000   1.0000
     1.0000   1.0000   1.0000   1.0000   1.0000   1.0000   1.0000   1.0000
     1.0000   1.0000   1.0000   1.0000   1.0000   1.0000   1.0000   1.0000
     1.0000   1.0000   1.0000   1.0000   1.0000   1.0000   1.0000   1.0000
     1.0000   1.0000   1.0000   1.0000   1.0000   1.0000   1.0000   1.0000
     1.0000   1.0000   1.0000   1.0000   1.0000   1.0000   1.0000   1.0000
     1.0000   1.0000   1.0000   1.0000   1.0000   1.0000   1.0000   1.0000
     1.0000   1.0000   1.0000   1.0000   1.0000   1.0000   1.0000   1.0000
     1.0000   1.0000   1.0000   1.0000   1.0000   1.0000   1.0000   1.0000
     1.0000   1.0000   1.0000   1.0000   1.0000   1.0000   1.0000   1.0000
     1.0000   1.0000   1.0000   1.0000   1.0000   1.0000   1.0000   1.0000
     1.0000   1.0000   1.0000   1.0000   1.0000   1.0000   1.0000   1.0000
     1.0000   1.0000   1.0000   1.0000   1.0000   1.0000   1.0000   1.0000
     1.0000   1.0000   1.0000   1.0000   1.0000   1.0000   1.0000   1.0000
     1.0000   1.0000   1.0000   1.0000   1.0000   1.0000   1.0000   1.0000
     1.0000   1.0000   1.0000   1.0000   1.0000   1.0000   1.0000   1.0000
     1.0000   1.0000   1.0000   1.0000   1.0000   1.0000   1.0000   1.0000
     1.0000   1.0000   1.0000   1.0000   1.0000   1.0000   1.0000   1.0000
     1.0000   1.0000   1.0000

          k = 0.0000 0.2309 0.0000 (112171 PWs)   bands (ev):

   -73.8171 -73.8140 -73.8109 -73.8085 -73.8061 -73.8054 -73.8029 -73.8008
   -73.7962 -73.7941 -73.7913 -73.7894 -73.7875 -73.7547 -73.7499 -73.7404
   -38.2200 -38.2150 -38.2128 -38.1707 -38.1660 -38.1627 -38.1558 -38.1482
   -38.1412 -38.1040 -38.0792 -38.0771 -38.0531 -38.0495 -38.0459 -38.0330
   -38.0296 -38.0269 -38.0246 -38.0219 -38.0187 -38.0166 -38.0137 -38.0119
   -38.0048 -37.9995 -37.9976 -37.9962 -37.9944 -37.9925 -37.9889 -37.9876
   -37.9861 -37.9827 -37.9694 -37.9622 -37.9600 -37.9551 -37.9521 -37.9469
   -37.9329 -37.9232 -37.9223 -37.9118 -37.9086 -37.9013 -37.8781 -37.8689
   -21.5129 -15.4152 -14.5577 -13.9781 -13.8032 -13.7862 -13.4951 -13.4621
   -13.3254 -12.9679 -12.8078 -12.7361 -12.6983 -12.6884 -12.6559 -12.5885
   -12.5559 -12.5439 -12.4952 -12.4776 -12.4579 -12.4381 -12.4243 -12.3177
   -12.2859 -12.2641 -12.2449 -12.2150 -12.1861 -12.1752 -12.1688 -12.1534
   -12.0960 -12.0809  -7.9437  -7.5439  -6.2827  -6.2713  -6.2392  -6.2375
    -6.1603  -5.6718  -5.6486  -5.6313  -5.5609  -5.5197  -5.4905  -5.4724
    -5.4314  -5.4192  -5.3971  -5.3223  -5.3180  -5.2886  -5.2715  -5.0746
    -5.0674  -5.0193  -5.0033  -4.9574  -4.7407  -4.7354  -4.5930  -4.4866
    -4.4551  -4.3874  -4.3243  -4.2901  -4.2114  -4.1625  -4.1481  -4.1218
    -4.1010  -4.0641  -4.0448  -4.0026  -3.9863  -3.9140  -3.9109  -3.9024
    -3.6768  -3.5772  -3.5444  -3.5107  -3.4706  -3.4453  -3.4399  -3.3854
    -3.3654  -3.3172  -3.2989  -3.2821  -3.2774  -3.2107  -3.1963  -3.1507
    -3.1057  -2.9986  -2.9670  -2.9361  -2.8609  -2.7968  -2.7782  -2.7504
    -2.7262  -2.7196  -2.7008  -2.6883  -2.6603  -2.6376  -2.6121  -2.5463
    -2.5243  -2.5074  -2.4793  -2.4453  -2.3655  -2.3176  -2.2067  -2.1661
    -2.1267  -2.0897  -2.0199  -2.0057  -1.9868  -1.9704  -1.9391  -1.9124
    -1.8929  -1.8653  -1.8547  -1.8200  -1.7933  -1.7657  -1.7479  -1.7346
    -1.7208  -1.7051  -1.6903  -1.6683  -1.6523  -1.6111  -1.5874  -1.5541
    -1.5379  -1.4968  -1.4861  -1.4631  -1.4352  -1.3744  -1.3386  -1.3288
    -1.2986  -1.2831  -1.2487  -1.2277  -1.1695  -1.0738  -1.0505  -1.0298
    -0.8987  -0.7818  -0.7640  -0.7515  -0.5745  -0.5662  -0.5545  -0.5360
    -0.5231  -0.5132  -0.4147  -0.3788  -0.3673  -0.2687  -0.1720  -0.1470
     0.1760   1.2604   1.5648

     occupation numbers 
     1.0000   1.0000   1.0000   1.0000   1.0000   1.0000   1.0000   1.0000
     1.0000   1.0000   1.0000   1.0000   1.0000   1.0000   1.0000   1.0000
     1.0000   1.0000   1.0000   1.0000   1.0000   1.0000   1.0000   1.0000
     1.0000   1.0000   1.0000   1.0000   1.0000   1.0000   1.0000   1.0000
     1.0000   1.0000   1.0000   1.0000   1.0000   1.0000   1.0000   1.0000
     1.0000   1.0000   1.0000   1.0000   1.0000   1.0000   1.0000   1.0000
     1.0000   1.0000   1.0000   1.0000   1.0000   1.0000   1.0000   1.0000
     1.0000   1.0000   1.0000   1.0000   1.0000   1.0000   1.0000   1.0000
     1.0000   1.0000   1.0000   1.0000   1.0000   1.0000   1.0000   1.0000
     1.0000   1.0000   1.0000   1.0000   1.0000   1.0000   1.0000   1.0000
     1.0000   1.0000   1.0000   1.0000   1.0000   1.0000   1.0000   1.0000
     1.0000   1.0000   1.0000   1.0000   1.0000   1.0000   1.0000   1.0000
     1.0000   1.0000   1.0000   1.0000   1.0000   1.0000   1.0000   1.0000
     1.0000   1.0000   1.0000   1.0000   1.0000   1.0000   1.0000   1.0000
     1.0000   1.0000   1.0000   1.0000   1.0000   1.0000   1.0000   1.0000
     1.0000   1.0000   1.0000   1.0000   1.0000   1.0000   1.0000   1.0000
     1.0000   1.0000   1.0000   1.0000   1.0000   1.0000   1.0000   1.0000
     1.0000   1.0000   1.0000   1.0000   1.0000   1.0000   1.0000   1.0000
     1.0000   1.0000   1.0000   1.0000   1.0000   1.0000   1.0000   1.0000
     1.0000   1.0000   1.0000   1.0000   1.0000   1.0000   1.0000   1.0000
     1.0000   1.0000   1.0000   1.0000   1.0000   1.0000   1.0000   1.0000
     1.0000   1.0000   1.0000   1.0000   1.0000   1.0000   1.0000   1.0000
     1.0000   1.0000   1.0000   1.0000   1.0000   1.0000   1.0000   1.0000
     1.0000   1.0000   1.0000   1.0000   1.0000   1.0000   1.0000   1.0000
     1.0000   1.0000   1.0000   1.0000   1.0000   1.0000   1.0000   1.0000
     1.0000   1.0000   1.0000   1.0000   1.0000   1.0000   1.0000   1.0000
     1.0000   1.0000   1.0000   1.0000   1.0000   1.0000   1.0000   1.0000
     1.0000   1.0000   1.0000   1.0000   1.0000   1.0000   1.0000   1.0000
     1.0000   1.0000   1.0000   1.0000   1.0000   1.0000   1.0000   1.0000
     1.0000   1.0000   1.0000   1.0000   1.0000   1.0000   1.0000   1.0000
     1.0000   1.0000   1.0000

          k = 0.0000 0.4619 0.0000 (112236 PWs)   bands (ev):

   -73.8168 -73.8144 -73.8109 -73.8087 -73.8059 -73.8053 -73.8029 -73.8007
   -73.7964 -73.7941 -73.7911 -73.7895 -73.7874 -73.7547 -73.7499 -73.7404
   -38.2068 -38.2042 -38.1908 -38.1883 -38.1762 -38.1666 -38.1603 -38.1473
   -38.1313 -38.1266 -38.1059 -38.1015 -38.0641 -38.0589 -38.0476 -38.0388
   -38.0317 -38.0208 -38.0172 -38.0129 -38.0096 -38.0070 -38.0033 -38.0010
   -37.9990 -37.9976 -37.9972 -37.9915 -37.9888 -37.9859 -37.9827 -37.9790
   -37.9739 -37.9705 -37.9672 -37.9658 -37.9534 -37.9518 -37.9497 -37.9481
   -37.9433 -37.9366 -37.9319 -37.9163 -37.9114 -37.8955 -37.8939 -37.8718
   -21.5129 -15.4152 -14.4360 -14.2346 -13.8730 -13.8542 -13.2662 -13.2309
   -13.0212 -13.0003 -12.9710 -12.9182 -12.8338 -12.7318 -12.7054 -12.6897
   -12.5225 -12.5153 -12.4637 -12.4505 -12.4376 -12.4254 -12.3831 -12.3698
   -12.3512 -12.2849 -12.2172 -12.2024 -12.1780 -12.1597 -12.1578 -12.1534
   -12.0569 -12.0400  -7.9437  -7.5439  -6.1743  -6.1270  -6.1146  -6.0925
    -6.0282  -5.8742  -5.8618  -5.8394  -5.7155  -5.5357  -5.5010  -5.4896
    -5.4614  -5.4469  -5.4385  -5.3948  -5.3751  -5.3273  -5.3028  -5.0679
    -5.0645  -5.0318  -5.0103  -4.8121  -4.6336  -4.5306  -4.4880  -4.4416
    -4.3956  -4.3767  -4.3505  -4.3149  -4.2464  -4.2332  -4.1928  -4.1618
    -4.1308  -4.1202  -4.1042  -4.0781  -4.0666  -4.0532  -4.0437  -3.6999
    -3.5772  -3.5127  -3.4837  -3.4452  -3.4225  -3.3937  -3.3721  -3.3121
    -3.2985  -3.2836  -3.2643  -3.2417  -3.2226  -3.1903  -3.1655  -3.1091
    -3.0687  -3.0625  -3.0116  -2.9735  -2.9551  -2.9173  -2.8661  -2.7792
    -2.7543  -2.7102  -2.6702  -2.6412  -2.6129  -2.5746  -2.5432  -2.4986
    -2.4533  -2.4341  -2.3994  -2.3209  -2.2813  -2.2567  -2.2436  -2.1886
    -2.1294  -2.1008  -2.0478  -2.0217  -2.0121  -2.0019  -1.9848  -1.9562
    -1.9344  -1.9104  -1.8819  -1.8753  -1.8575  -1.8453  -1.8409  -1.8289
    -1.7755  -1.7673  -1.7248  -1.7157  -1.6978  -1.6719  -1.6353  -1.6220
    -1.5956  -1.5564  -1.5353  -1.5063  -1.4362  -1.3919  -1.3035  -1.2912
    -1.2386  -1.2051  -1.1929  -1.1521  -1.1220  -1.0997  -1.0507  -1.0126
    -0.9794  -0.8964  -0.7353  -0.7241  -0.6426  -0.6264  -0.4972  -0.4588
    -0.4453  -0.4350  -0.3995  -0.3820  -0.3156  -0.0959   0.0005   0.0236
     0.1263   1.2702   1.6173

     occupation numbers 
     1.0000   1.0000   1.0000   1.0000   1.0000   1.0000   1.0000   1.0000
     1.0000   1.0000   1.0000   1.0000   1.0000   1.0000   1.0000   1.0000
     1.0000   1.0000   1.0000   1.0000   1.0000   1.0000   1.0000   1.0000
     1.0000   1.0000   1.0000   1.0000   1.0000   1.0000   1.0000   1.0000
     1.0000   1.0000   1.0000   1.0000   1.0000   1.0000   1.0000   1.0000
     1.0000   1.0000   1.0000   1.0000   1.0000   1.0000   1.0000   1.0000
     1.0000   1.0000   1.0000   1.0000   1.0000   1.0000   1.0000   1.0000
     1.0000   1.0000   1.0000   1.0000   1.0000   1.0000   1.0000   1.0000
     1.0000   1.0000   1.0000   1.0000   1.0000   1.0000   1.0000   1.0000
     1.0000   1.0000   1.0000   1.0000   1.0000   1.0000   1.0000   1.0000
     1.0000   1.0000   1.0000   1.0000   1.0000   1.0000   1.0000   1.0000
     1.0000   1.0000   1.0000   1.0000   1.0000   1.0000   1.0000   1.0000
     1.0000   1.0000   1.0000   1.0000   1.0000   1.0000   1.0000   1.0000
     1.0000   1.0000   1.0000   1.0000   1.0000   1.0000   1.0000   1.0000
     1.0000   1.0000   1.0000   1.0000   1.0000   1.0000   1.0000   1.0000
     1.0000   1.0000   1.0000   1.0000   1.0000   1.0000   1.0000   1.0000
     1.0000   1.0000   1.0000   1.0000   1.0000   1.0000   1.0000   1.0000
     1.0000   1.0000   1.0000   1.0000   1.0000   1.0000   1.0000   1.0000
     1.0000   1.0000   1.0000   1.0000   1.0000   1.0000   1.0000   1.0000
     1.0000   1.0000   1.0000   1.0000   1.0000   1.0000   1.0000   1.0000
     1.0000   1.0000   1.0000   1.0000   1.0000   1.0000   1.0000   1.0000
     1.0000   1.0000   1.0000   1.0000   1.0000   1.0000   1.0000   1.0000
     1.0000   1.0000   1.0000   1.0000   1.0000   1.0000   1.0000   1.0000
     1.0000   1.0000   1.0000   1.0000   1.0000   1.0000   1.0000   1.0000
     1.0000   1.0000   1.0000   1.0000   1.0000   1.0000   1.0000   1.0000
     1.0000   1.0000   1.0000   1.0000   1.0000   1.0000   1.0000   1.0000
     1.0000   1.0000   1.0000   1.0000   1.0000   1.0000   1.0000   1.0000
     1.0000   1.0000   1.0000   1.0000   1.0000   1.0000   1.0000   1.0000
     1.0000   1.0000   1.0000   1.0000   1.0000   1.0000   1.0000   1.0000
     1.0000   1.0000   1.0000   1.0000   1.0000   1.0000   1.0000   1.0000
     1.0000   1.0000   1.0000

          k = 0.2000 0.3464 0.0000 (112231 PWs)   bands (ev):

   -73.8168 -73.8145 -73.8109 -73.8085 -73.8060 -73.8052 -73.8030 -73.8008
   -73.7961 -73.7943 -73.7911 -73.7895 -73.7874 -73.7547 -73.7499 -73.7404
   -38.2122 -38.2035 -38.2002 -38.1794 -38.1764 -38.1646 -38.1559 -38.1485
   -38.1326 -38.1240 -38.1167 -38.0779 -38.0599 -38.0562 -38.0478 -38.0375
   -38.0324 -38.0293 -38.0255 -38.0200 -38.0162 -38.0097 -38.0033 -38.0004
   -37.9957 -37.9929 -37.9912 -37.9895 -37.9871 -37.9844 -37.9830 -37.9816
   -37.9765 -37.9730 -37.9695 -37.9661 -37.9593 -37.9554 -37.9522 -37.9475
   -37.9414 -37.9323 -37.9264 -37.9214 -37.9053 -37.9002 -37.8869 -37.8724
   -21.5129 -15.4152 -14.4759 -14.1043 -14.0596 -13.5678 -13.5649 -13.1755
   -13.1191 -13.0102 -12.9361 -12.8108 -12.7904 -12.7113 -12.6722 -12.6062
   -12.5957 -12.5772 -12.5723 -12.4583 -12.4254 -12.3919 -12.3775 -12.3140
   -12.2908 -12.2737 -12.2527 -12.2330 -12.2212 -12.1555 -12.1509 -12.1085
   -12.0958 -12.0363  -7.9437  -7.5439  -6.1856  -6.1750  -6.1461  -6.1283
    -6.1059  -5.7671  -5.7381  -5.7218  -5.6822  -5.6450  -5.6026  -5.5673
    -5.5061  -5.4745  -5.3564  -5.3354  -5.2851  -5.2768  -5.2441  -5.2296
    -5.0961  -4.9063  -4.8908  -4.8168  -4.7519  -4.6074  -4.4923  -4.4714
    -4.3990  -4.3680  -4.3387  -4.3054  -4.2768  -4.2640  -4.2357  -4.2276
    -4.1739  -4.1235  -4.1083  -4.0929  -4.0563  -3.7675  -3.7374  -3.7275
    -3.7196  -3.6948  -3.6154  -3.4990  -3.4323  -3.4024  -3.3533  -3.3237
    -3.3003  -3.2472  -3.2273  -3.2079  -3.1703  -3.1516  -3.1093  -3.0924
    -3.0426  -3.0167  -2.9916  -2.9527  -2.9450  -2.9272  -2.9170  -2.9015
    -2.8202  -2.7453  -2.7241  -2.6552  -2.6372  -2.5642  -2.5243  -2.4808
    -2.4674  -2.4401  -2.3882  -2.3637  -2.3168  -2.2224  -2.1862  -2.1660
    -2.1327  -2.1260  -2.0980  -2.0897  -2.0193  -2.0003  -1.9826  -1.9529
    -1.9296  -1.9074  -1.8845  -1.8587  -1.8389  -1.8297  -1.8004  -1.7505
    -1.7372  -1.7203  -1.7094  -1.6799  -1.6727  -1.6240  -1.5968  -1.5762
    -1.5675  -1.5426  -1.5386  -1.5095  -1.4292  -1.3943  -1.3820  -1.3669
    -1.2928  -1.2272  -1.2091  -1.1868  -1.1578  -1.1198  -1.0363  -1.0192
    -0.8758  -0.8492  -0.6826  -0.6731  -0.6397  -0.6323  -0.6168  -0.5426
    -0.5337  -0.4406  -0.3770  -0.2564  -0.2121  -0.2008  -0.1604   0.0707
     0.1391   1.2831   1.5895

     occupation numbers 
     1.0000   1.0000   1.0000   1.0000   1.0000   1.0000   1.0000   1.0000
     1.0000   1.0000   1.0000   1.0000   1.0000   1.0000   1.0000   1.0000
     1.0000   1.0000   1.0000   1.0000   1.0000   1.0000   1.0000   1.0000
     1.0000   1.0000   1.0000   1.0000   1.0000   1.0000   1.0000   1.0000
     1.0000   1.0000   1.0000   1.0000   1.0000   1.0000   1.0000   1.0000
     1.0000   1.0000   1.0000   1.0000   1.0000   1.0000   1.0000   1.0000
     1.0000   1.0000   1.0000   1.0000   1.0000   1.0000   1.0000   1.0000
     1.0000   1.0000   1.0000   1.0000   1.0000   1.0000   1.0000   1.0000
     1.0000   1.0000   1.0000   1.0000   1.0000   1.0000   1.0000   1.0000
     1.0000   1.0000   1.0000   1.0000   1.0000   1.0000   1.0000   1.0000
     1.0000   1.0000   1.0000   1.0000   1.0000   1.0000   1.0000   1.0000
     1.0000   1.0000   1.0000   1.0000   1.0000   1.0000   1.0000   1.0000
     1.0000   1.0000   1.0000   1.0000   1.0000   1.0000   1.0000   1.0000
     1.0000   1.0000   1.0000   1.0000   1.0000   1.0000   1.0000   1.0000
     1.0000   1.0000   1.0000   1.0000   1.0000   1.0000   1.0000   1.0000
     1.0000   1.0000   1.0000   1.0000   1.0000   1.0000   1.0000   1.0000
     1.0000   1.0000   1.0000   1.0000   1.0000   1.0000   1.0000   1.0000
     1.0000   1.0000   1.0000   1.0000   1.0000   1.0000   1.0000   1.0000
     1.0000   1.0000   1.0000   1.0000   1.0000   1.0000   1.0000   1.0000
     1.0000   1.0000   1.0000   1.0000   1.0000   1.0000   1.0000   1.0000
     1.0000   1.0000   1.0000   1.0000   1.0000   1.0000   1.0000   1.0000
     1.0000   1.0000   1.0000   1.0000   1.0000   1.0000   1.0000   1.0000
     1.0000   1.0000   1.0000   1.0000   1.0000   1.0000   1.0000   1.0000
     1.0000   1.0000   1.0000   1.0000   1.0000   1.0000   1.0000   1.0000
     1.0000   1.0000   1.0000   1.0000   1.0000   1.0000   1.0000   1.0000
     1.0000   1.0000   1.0000   1.0000   1.0000   1.0000   1.0000   1.0000
     1.0000   1.0000   1.0000   1.0000   1.0000   1.0000   1.0000   1.0000
     1.0000   1.0000   1.0000   1.0000   1.0000   1.0000   1.0000   1.0000
     1.0000   1.0000   1.0000   1.0000   1.0000   1.0000   1.0000   1.0000
     1.0000   1.0000   1.0000   1.0000   1.0000   1.0000   1.0000   1.0000
     1.0000   1.0000   1.0000

          k = 0.2000 0.5774 0.0000 (112237 PWs)   bands (ev):

   -73.8167 -73.8146 -73.8110 -73.8088 -73.8059 -73.8051 -73.8030 -73.8007
   -73.7963 -73.7942 -73.7910 -73.7895 -73.7874 -73.7547 -73.7499 -73.7404
   -38.2011 -38.1972 -38.1870 -38.1838 -38.1769 -38.1715 -38.1656 -38.1508
   -38.1476 -38.1331 -38.0930 -38.0915 -38.0874 -38.0512 -38.0458 -38.0402
   -38.0341 -38.0308 -38.0178 -38.0175 -38.0077 -38.0052 -38.0030 -38.0013
   -38.0002 -37.9974 -37.9925 -37.9887 -37.9860 -37.9824 -37.9754 -37.9710
   -37.9696 -37.9669 -37.9620 -37.9593 -37.9566 -37.9533 -37.9507 -37.9464
   -37.9428 -37.9380 -37.9322 -37.9294 -37.9179 -37.8977 -37.8887 -37.8754
   -21.5129 -15.4152 -14.3369 -14.2935 -14.1152 -13.5961 -13.3025 -13.2941
   -12.9549 -12.9492 -12.8891 -12.8540 -12.8424 -12.8026 -12.7933 -12.6588
   -12.6315 -12.6037 -12.4928 -12.4848 -12.3846 -12.3729 -12.3594 -12.3240
   -12.3101 -12.2974 -12.2593 -12.2339 -12.2328 -12.1311 -12.1211 -12.1188
   -12.0791 -12.0167  -7.9437  -7.5439  -6.1697  -6.0586  -6.0101  -5.9869
    -5.9220  -5.8968  -5.8766  -5.8506  -5.8099  -5.7441  -5.6877  -5.6248
    -5.6137  -5.5415  -5.3643  -5.2673  -5.2557  -5.2201  -5.2049  -5.1716
    -5.1556  -4.8570  -4.8327  -4.7543  -4.6347  -4.5793  -4.5488  -4.5221
    -4.4753  -4.4191  -4.3996  -4.3199  -4.3126  -4.2398  -4.2333  -4.2134
    -4.1896  -4.1658  -4.1229  -4.0960  -3.9543  -3.9507  -3.7936  -3.6641
    -3.6531  -3.5684  -3.4428  -3.3940  -3.3625  -3.3301  -3.3105  -3.2869
    -3.2735  -3.2624  -3.2454  -3.2351  -3.2164  -3.2019  -3.1443  -3.1262
    -3.1027  -3.0812  -3.0628  -3.0362  -3.0087  -2.9600  -2.8797  -2.8321
    -2.7546  -2.7293  -2.6988  -2.6733  -2.6341  -2.5588  -2.5202  -2.4583
    -2.3995  -2.3345  -2.3209  -2.3091  -2.2556  -2.2075  -2.1804  -2.1364
    -2.1215  -2.1113  -2.0807  -2.0625  -2.0184  -1.9878  -1.9678  -1.9566
    -1.9395  -1.9190  -1.8982  -1.8816  -1.8707  -1.8571  -1.8442  -1.8361
    -1.8248  -1.7829  -1.7631  -1.7378  -1.7055  -1.6885  -1.6815  -1.6520
    -1.6191  -1.5736  -1.5621  -1.5090  -1.4793  -1.4671  -1.4151  -1.3346
    -1.2860  -1.1965  -1.1617  -1.1450  -1.0985  -1.0818  -1.0100  -1.0009
    -0.8145  -0.8001  -0.7028  -0.6919  -0.6608  -0.6462  -0.5934  -0.5839
    -0.5670  -0.4169  -0.2797  -0.2710  -0.1897  -0.1259  -0.0675   0.0890
     0.1876   1.2922   1.6058

     occupation numbers 
     1.0000   1.0000   1.0000   1.0000   1.0000   1.0000   1.0000   1.0000
     1.0000   1.0000   1.0000   1.0000   1.0000   1.0000   1.0000   1.0000
     1.0000   1.0000   1.0000   1.0000   1.0000   1.0000   1.0000   1.0000
     1.0000   1.0000   1.0000   1.0000   1.0000   1.0000   1.0000   1.0000
     1.0000   1.0000   1.0000   1.0000   1.0000   1.0000   1.0000   1.0000
     1.0000   1.0000   1.0000   1.0000   1.0000   1.0000   1.0000   1.0000
     1.0000   1.0000   1.0000   1.0000   1.0000   1.0000   1.0000   1.0000
     1.0000   1.0000   1.0000   1.0000   1.0000   1.0000   1.0000   1.0000
     1.0000   1.0000   1.0000   1.0000   1.0000   1.0000   1.0000   1.0000
     1.0000   1.0000   1.0000   1.0000   1.0000   1.0000   1.0000   1.0000
     1.0000   1.0000   1.0000   1.0000   1.0000   1.0000   1.0000   1.0000
     1.0000   1.0000   1.0000   1.0000   1.0000   1.0000   1.0000   1.0000
     1.0000   1.0000   1.0000   1.0000   1.0000   1.0000   1.0000   1.0000
     1.0000   1.0000   1.0000   1.0000   1.0000   1.0000   1.0000   1.0000
     1.0000   1.0000   1.0000   1.0000   1.0000   1.0000   1.0000   1.0000
     1.0000   1.0000   1.0000   1.0000   1.0000   1.0000   1.0000   1.0000
     1.0000   1.0000   1.0000   1.0000   1.0000   1.0000   1.0000   1.0000
     1.0000   1.0000   1.0000   1.0000   1.0000   1.0000   1.0000   1.0000
     1.0000   1.0000   1.0000   1.0000   1.0000   1.0000   1.0000   1.0000
     1.0000   1.0000   1.0000   1.0000   1.0000   1.0000   1.0000   1.0000
     1.0000   1.0000   1.0000   1.0000   1.0000   1.0000   1.0000   1.0000
     1.0000   1.0000   1.0000   1.0000   1.0000   1.0000   1.0000   1.0000
     1.0000   1.0000   1.0000   1.0000   1.0000   1.0000   1.0000   1.0000
     1.0000   1.0000   1.0000   1.0000   1.0000   1.0000   1.0000   1.0000
     1.0000   1.0000   1.0000   1.0000   1.0000   1.0000   1.0000   1.0000
     1.0000   1.0000   1.0000   1.0000   1.0000   1.0000   1.0000   1.0000
     1.0000   1.0000   1.0000   1.0000   1.0000   1.0000   1.0000   1.0000
     1.0000   1.0000   1.0000   1.0000   1.0000   1.0000   1.0000   1.0000
     1.0000   1.0000   1.0000   1.0000   1.0000   1.0000   1.0000   1.0000
     1.0000   1.0000   1.0000   1.0000   1.0000   1.0000   1.0000   1.0000
     1.0000   1.0000   1.0000

          k =-0.2000 0.1155 0.0000 (112171 PWs)   bands (ev):

   -73.8172 -73.8140 -73.8109 -73.8087 -73.8062 -73.8052 -73.8030 -73.8008
   -73.7960 -73.7942 -73.7913 -73.7893 -73.7875 -73.7547 -73.7499 -73.7404
   -38.2200 -38.2152 -38.2124 -38.1692 -38.1654 -38.1642 -38.1593 -38.1466
   -38.1401 -38.1033 -38.0805 -38.0764 -38.0515 -38.0490 -38.0450 -38.0347
   -38.0285 -38.0280 -38.0254 -38.0242 -38.0171 -38.0162 -38.0140 -38.0127
   -38.0044 -38.0010 -37.9979 -37.9965 -37.9937 -37.9922 -37.9885 -37.9867
   -37.9859 -37.9826 -37.9694 -37.9627 -37.9602 -37.9546 -37.9521 -37.9469
   -37.9331 -37.9251 -37.9211 -37.9109 -37.9089 -37.9007 -37.8751 -37.8720
   -21.5129 -15.4152 -14.5577 -13.9768 -13.8033 -13.7889 -13.4800 -13.4753
   -13.3261 -12.9683 -12.7929 -12.7602 -12.6928 -12.6829 -12.6582 -12.5881
   -12.5659 -12.5225 -12.4986 -12.4796 -12.4708 -12.4332 -12.4225 -12.3088
   -12.2954 -12.2624 -12.2450 -12.2142 -12.1875 -12.1765 -12.1685 -12.1513
   -12.0957 -12.0816  -7.9437  -7.5439  -6.2867  -6.2659  -6.2455  -6.2326
    -6.1604  -5.6801  -5.6408  -5.6264  -5.5507  -5.5330  -5.4938  -5.4702
    -5.4400  -5.4214  -5.3852  -5.3294  -5.3119  -5.2837  -5.2777  -5.0832
    -5.0640  -5.0170  -5.0008  -4.9527  -4.7416  -4.7366  -4.5748  -4.5166
    -4.4518  -4.3737  -4.3416  -4.2818  -4.2096  -4.1634  -4.1489  -4.1240
    -4.1012  -4.0675  -4.0416  -3.9976  -3.9852  -3.9166  -3.9068  -3.8982
    -3.6718  -3.5919  -3.5378  -3.5047  -3.4800  -3.4625  -3.4464  -3.3767
    -3.3675  -3.3213  -3.2968  -3.2806  -3.2667  -3.2076  -3.1962  -3.1562
    -3.1050  -2.9879  -2.9667  -2.9320  -2.8359  -2.8049  -2.7784  -2.7516
    -2.7330  -2.7163  -2.7001  -2.6920  -2.6781  -2.6546  -2.6084  -2.5487
    -2.5219  -2.4864  -2.4716  -2.4493  -2.3718  -2.3148  -2.1996  -2.1773
    -2.1367  -2.0912  -2.0235  -2.0072  -1.9814  -1.9680  -1.9466  -1.9094
    -1.8871  -1.8681  -1.8435  -1.8223  -1.8076  -1.7757  -1.7437  -1.7274
    -1.7114  -1.7012  -1.6858  -1.6687  -1.6553  -1.6105  -1.5781  -1.5574
    -1.5303  -1.5073  -1.4971  -1.4373  -1.4281  -1.3749  -1.3533  -1.3316
    -1.3153  -1.2778  -1.2581  -1.2255  -1.1671  -1.0827  -1.0482  -1.0189
    -0.9017  -0.7776  -0.7606  -0.7422  -0.5876  -0.5706  -0.5542  -0.5349
    -0.5202  -0.5119  -0.4167  -0.3845  -0.3605  -0.2667  -0.1737  -0.1468
     0.1748   1.2822   1.5410

     occupation numbers 
     1.0000   1.0000   1.0000   1.0000   1.0000   1.0000   1.0000   1.0000
     1.0000   1.0000   1.0000   1.0000   1.0000   1.0000   1.0000   1.0000
     1.0000   1.0000   1.0000   1.0000   1.0000   1.0000   1.0000   1.0000
     1.0000   1.0000   1.0000   1.0000   1.0000   1.0000   1.0000   1.0000
     1.0000   1.0000   1.0000   1.0000   1.0000   1.0000   1.0000   1.0000
     1.0000   1.0000   1.0000   1.0000   1.0000   1.0000   1.0000   1.0000
     1.0000   1.0000   1.0000   1.0000   1.0000   1.0000   1.0000   1.0000
     1.0000   1.0000   1.0000   1.0000   1.0000   1.0000   1.0000   1.0000
     1.0000   1.0000   1.0000   1.0000   1.0000   1.0000   1.0000   1.0000
     1.0000   1.0000   1.0000   1.0000   1.0000   1.0000   1.0000   1.0000
     1.0000   1.0000   1.0000   1.0000   1.0000   1.0000   1.0000   1.0000
     1.0000   1.0000   1.0000   1.0000   1.0000   1.0000   1.0000   1.0000
     1.0000   1.0000   1.0000   1.0000   1.0000   1.0000   1.0000   1.0000
     1.0000   1.0000   1.0000   1.0000   1.0000   1.0000   1.0000   1.0000
     1.0000   1.0000   1.0000   1.0000   1.0000   1.0000   1.0000   1.0000
     1.0000   1.0000   1.0000   1.0000   1.0000   1.0000   1.0000   1.0000
     1.0000   1.0000   1.0000   1.0000   1.0000   1.0000   1.0000   1.0000
     1.0000   1.0000   1.0000   1.0000   1.0000   1.0000   1.0000   1.0000
     1.0000   1.0000   1.0000   1.0000   1.0000   1.0000   1.0000   1.0000
     1.0000   1.0000   1.0000   1.0000   1.0000   1.0000   1.0000   1.0000
     1.0000   1.0000   1.0000   1.0000   1.0000   1.0000   1.0000   1.0000
     1.0000   1.0000   1.0000   1.0000   1.0000   1.0000   1.0000   1.0000
     1.0000   1.0000   1.0000   1.0000   1.0000   1.0000   1.0000   1.0000
     1.0000   1.0000   1.0000   1.0000   1.0000   1.0000   1.0000   1.0000
     1.0000   1.0000   1.0000   1.0000   1.0000   1.0000   1.0000   1.0000
     1.0000   1.0000   1.0000   1.0000   1.0000   1.0000   1.0000   1.0000
     1.0000   1.0000   1.0000   1.0000   1.0000   1.0000   1.0000   1.0000
     1.0000   1.0000   1.0000   1.0000   1.0000   1.0000   1.0000   1.0000
     1.0000   1.0000   1.0000   1.0000   1.0000   1.0000   1.0000   1.0000
     1.0000   1.0000   1.0000   1.0000   1.0000   1.0000   1.0000   1.0000
     1.0000   1.0000   1.0000

          k = 0.2000 0.1155 0.0000 (112171 PWs)   bands (ev):

   -73.8171 -73.8141 -73.8108 -73.8084 -73.8063 -73.8052 -73.8030 -73.8009
   -73.7960 -73.7943 -73.7912 -73.7894 -73.7875 -73.7547 -73.7499 -73.7404
   -38.2198 -38.2158 -38.2121 -38.1700 -38.1663 -38.1631 -38.1581 -38.1468
   -38.1402 -38.1036 -38.0804 -38.0767 -38.0517 -38.0492 -38.0455 -38.0347
   -38.0286 -38.0266 -38.0256 -38.0238 -38.0173 -38.0154 -38.0145 -38.0129
   -38.0047 -38.0002 -37.9980 -37.9965 -37.9939 -37.9917 -37.9897 -37.9867
   -37.9858 -37.9826 -37.9692 -37.9620 -37.9609 -37.9547 -37.9520 -37.9468
   -37.9331 -37.9244 -37.9206 -37.9129 -37.9081 -37.9009 -37.8767 -37.8703
   -21.5129 -15.4152 -14.5577 -13.9770 -13.8024 -13.7894 -13.4792 -13.4770
   -13.3252 -12.9684 -12.7931 -12.7594 -12.6923 -12.6841 -12.6585 -12.5881
   -12.5671 -12.5208 -12.4964 -12.4815 -12.4703 -12.4355 -12.4218 -12.3043
   -12.2952 -12.2655 -12.2481 -12.2093 -12.1931 -12.1734 -12.1716 -12.1488
   -12.0929 -12.0841  -7.9437  -7.5439  -6.2813  -6.2676  -6.2482  -6.2341
    -6.1604  -5.6740  -5.6443  -5.6240  -5.5518  -5.5373  -5.4908  -5.4728
    -5.4457  -5.4251  -5.3723  -5.3288  -5.3153  -5.2843  -5.2767  -5.0790
    -5.0718  -5.0149  -5.0046  -4.9473  -4.7425  -4.7373  -4.5705  -4.5125
    -4.4490  -4.3955  -4.3406  -4.2754  -4.2088  -4.1640  -4.1508  -4.1243
    -4.1008  -4.0576  -4.0415  -4.0046  -3.9835  -3.9141  -3.9110  -3.9006
    -3.6642  -3.5720  -3.5532  -3.5118  -3.4700  -3.4588  -3.4427  -3.3855
    -3.3736  -3.3134  -3.3032  -3.2841  -3.2613  -3.2147  -3.1982  -3.1488
    -3.1113  -3.0038  -2.9618  -2.9143  -2.8322  -2.8107  -2.7859  -2.7542
    -2.7397  -2.7140  -2.7004  -2.6940  -2.6699  -2.6403  -2.6012  -2.5517
    -2.5357  -2.5028  -2.4768  -2.4328  -2.3686  -2.3082  -2.2048  -2.1831
    -2.1257  -2.0930  -2.0209  -2.0020  -1.9743  -1.9707  -1.9327  -1.9102
    -1.9023  -1.8795  -1.8402  -1.8271  -1.8094  -1.7831  -1.7456  -1.7350
    -1.7105  -1.6944  -1.6822  -1.6601  -1.6419  -1.6280  -1.5922  -1.5463
    -1.5344  -1.5065  -1.4614  -1.4471  -1.4265  -1.4063  -1.3583  -1.3129
    -1.3069  -1.2985  -1.2526  -1.2128  -1.1719  -1.0678  -1.0482  -1.0310
    -0.9008  -0.7677  -0.7593  -0.7568  -0.5993  -0.5636  -0.5496  -0.5342
    -0.5225  -0.5168  -0.4121  -0.3853  -0.3568  -0.2674  -0.1699  -0.1508
     0.1755   1.2769   1.5474

     occupation numbers 
     1.0000   1.0000   1.0000   1.0000   1.0000   1.0000   1.0000   1.0000
     1.0000   1.0000   1.0000   1.0000   1.0000   1.0000   1.0000   1.0000
     1.0000   1.0000   1.0000   1.0000   1.0000   1.0000   1.0000   1.0000
     1.0000   1.0000   1.0000   1.0000   1.0000   1.0000   1.0000   1.0000
     1.0000   1.0000   1.0000   1.0000   1.0000   1.0000   1.0000   1.0000
     1.0000   1.0000   1.0000   1.0000   1.0000   1.0000   1.0000   1.0000
     1.0000   1.0000   1.0000   1.0000   1.0000   1.0000   1.0000   1.0000
     1.0000   1.0000   1.0000   1.0000   1.0000   1.0000   1.0000   1.0000
     1.0000   1.0000   1.0000   1.0000   1.0000   1.0000   1.0000   1.0000
     1.0000   1.0000   1.0000   1.0000   1.0000   1.0000   1.0000   1.0000
     1.0000   1.0000   1.0000   1.0000   1.0000   1.0000   1.0000   1.0000
     1.0000   1.0000   1.0000   1.0000   1.0000   1.0000   1.0000   1.0000
     1.0000   1.0000   1.0000   1.0000   1.0000   1.0000   1.0000   1.0000
     1.0000   1.0000   1.0000   1.0000   1.0000   1.0000   1.0000   1.0000
     1.0000   1.0000   1.0000   1.0000   1.0000   1.0000   1.0000   1.0000
     1.0000   1.0000   1.0000   1.0000   1.0000   1.0000   1.0000   1.0000
     1.0000   1.0000   1.0000   1.0000   1.0000   1.0000   1.0000   1.0000
     1.0000   1.0000   1.0000   1.0000   1.0000   1.0000   1.0000   1.0000
     1.0000   1.0000   1.0000   1.0000   1.0000   1.0000   1.0000   1.0000
     1.0000   1.0000   1.0000   1.0000   1.0000   1.0000   1.0000   1.0000
     1.0000   1.0000   1.0000   1.0000   1.0000   1.0000   1.0000   1.0000
     1.0000   1.0000   1.0000   1.0000   1.0000   1.0000   1.0000   1.0000
     1.0000   1.0000   1.0000   1.0000   1.0000   1.0000   1.0000   1.0000
     1.0000   1.0000   1.0000   1.0000   1.0000   1.0000   1.0000   1.0000
     1.0000   1.0000   1.0000   1.0000   1.0000   1.0000   1.0000   1.0000
     1.0000   1.0000   1.0000   1.0000   1.0000   1.0000   1.0000   1.0000
     1.0000   1.0000   1.0000   1.0000   1.0000   1.0000   1.0000   1.0000
     1.0000   1.0000   1.0000   1.0000   1.0000   1.0000   1.0000   1.0000
     1.0000   1.0000   1.0000   1.0000   1.0000   1.0000   1.0000   1.0000
     1.0000   1.0000   1.0000   1.0000   1.0000   1.0000   1.0000   1.0000
     1.0000   1.0000   1.0000

          k =-0.4000 0.2309 0.0000 (112236 PWs)   bands (ev):

   -73.8169 -73.8142 -73.8109 -73.8092 -73.8060 -73.8046 -73.8032 -73.8008
   -73.7960 -73.7944 -73.7913 -73.7893 -73.7875 -73.7547 -73.7499 -73.7404
   -38.2080 -38.2022 -38.1907 -38.1845 -38.1834 -38.1646 -38.1615 -38.1474
   -38.1307 -38.1243 -38.1062 -38.1013 -38.0635 -38.0583 -38.0475 -38.0402
   -38.0295 -38.0250 -38.0149 -38.0126 -38.0098 -38.0085 -38.0046 -38.0001
   -37.9989 -37.9978 -37.9956 -37.9930 -37.9879 -37.9862 -37.9827 -37.9798
   -37.9756 -37.9698 -37.9664 -37.9657 -37.9536 -37.9517 -37.9497 -37.9471
   -37.9449 -37.9386 -37.9301 -37.9175 -37.9095 -37.8925 -37.8909 -37.8765
   -21.5129 -15.4152 -14.4365 -14.2334 -13.8704 -13.8585 -13.2503 -13.2446
   -13.0257 -12.9984 -12.9759 -12.9115 -12.8332 -12.7339 -12.7045 -12.6857
   -12.5372 -12.5100 -12.4624 -12.4536 -12.4312 -12.4238 -12.3871 -12.3640
   -12.3536 -12.2827 -12.2228 -12.2008 -12.1764 -12.1620 -12.1554 -12.1528
   -12.0568 -12.0407  -7.9437  -7.5439  -6.1739  -6.1335  -6.1148  -6.0901
    -6.0237  -5.8775  -5.8571  -5.8404  -5.7124  -5.5352  -5.5121  -5.4909
    -5.4552  -5.4476  -5.4384  -5.3899  -5.3805  -5.3182  -5.3108  -5.0833
    -5.0590  -5.0247  -5.0065  -4.8057  -4.6104  -4.5580  -4.4832  -4.4432
    -4.4149  -4.3745  -4.3533  -4.3124  -4.2475  -4.2236  -4.1966  -4.1628
    -4.1233  -4.1151  -4.1027  -4.0759  -4.0697  -4.0550  -4.0438  -3.6938
    -3.5733  -3.5260  -3.4800  -3.4607  -3.4272  -3.4002  -3.3600  -3.3201
    -3.3039  -3.2821  -3.2616  -3.2434  -3.2164  -3.2007  -3.1520  -3.1172
    -3.0746  -3.0498  -3.0160  -2.9744  -2.9400  -2.9081  -2.8424  -2.7829
    -2.7457  -2.7166  -2.6687  -2.6354  -2.6172  -2.5894  -2.5593  -2.5010
    -2.4345  -2.4284  -2.4020  -2.3387  -2.2872  -2.2559  -2.2468  -2.1791
    -2.1294  -2.1202  -2.0619  -2.0335  -2.0199  -1.9962  -1.9664  -1.9383
    -1.9196  -1.9026  -1.8920  -1.8716  -1.8666  -1.8538  -1.8404  -1.8258
    -1.7906  -1.7618  -1.7161  -1.6999  -1.6944  -1.6742  -1.6547  -1.6164
    -1.5943  -1.5655  -1.5072  -1.4798  -1.4539  -1.3615  -1.3347  -1.3037
    -1.2677  -1.2235  -1.1753  -1.1306  -1.1236  -1.1054  -1.0795  -0.9922
    -0.9737  -0.8812  -0.7374  -0.7218  -0.6427  -0.6256  -0.5126  -0.4575
    -0.4517  -0.4265  -0.4056  -0.3788  -0.3061  -0.1030  -0.0007   0.0296
     0.1208   1.3283   1.5529

     occupation numbers 
     1.0000   1.0000   1.0000   1.0000   1.0000   1.0000   1.0000   1.0000
     1.0000   1.0000   1.0000   1.0000   1.0000   1.0000   1.0000   1.0000
     1.0000   1.0000   1.0000   1.0000   1.0000   1.0000   1.0000   1.0000
     1.0000   1.0000   1.0000   1.0000   1.0000   1.0000   1.0000   1.0000
     1.0000   1.0000   1.0000   1.0000   1.0000   1.0000   1.0000   1.0000
     1.0000   1.0000   1.0000   1.0000   1.0000   1.0000   1.0000   1.0000
     1.0000   1.0000   1.0000   1.0000   1.0000   1.0000   1.0000   1.0000
     1.0000   1.0000   1.0000   1.0000   1.0000   1.0000   1.0000   1.0000
     1.0000   1.0000   1.0000   1.0000   1.0000   1.0000   1.0000   1.0000
     1.0000   1.0000   1.0000   1.0000   1.0000   1.0000   1.0000   1.0000
     1.0000   1.0000   1.0000   1.0000   1.0000   1.0000   1.0000   1.0000
     1.0000   1.0000   1.0000   1.0000   1.0000   1.0000   1.0000   1.0000
     1.0000   1.0000   1.0000   1.0000   1.0000   1.0000   1.0000   1.0000
     1.0000   1.0000   1.0000   1.0000   1.0000   1.0000   1.0000   1.0000
     1.0000   1.0000   1.0000   1.0000   1.0000   1.0000   1.0000   1.0000
     1.0000   1.0000   1.0000   1.0000   1.0000   1.0000   1.0000   1.0000
     1.0000   1.0000   1.0000   1.0000   1.0000   1.0000   1.0000   1.0000
     1.0000   1.0000   1.0000   1.0000   1.0000   1.0000   1.0000   1.0000
     1.0000   1.0000   1.0000   1.0000   1.0000   1.0000   1.0000   1.0000
     1.0000   1.0000   1.0000   1.0000   1.0000   1.0000   1.0000   1.0000
     1.0000   1.0000   1.0000   1.0000   1.0000   1.0000   1.0000   1.0000
     1.0000   1.0000   1.0000   1.0000   1.0000   1.0000   1.0000   1.0000
     1.0000   1.0000   1.0000   1.0000   1.0000   1.0000   1.0000   1.0000
     1.0000   1.0000   1.0000   1.0000   1.0000   1.0000   1.0000   1.0000
     1.0000   1.0000   1.0000   1.0000   1.0000   1.0000   1.0000   1.0000
     1.0000   1.0000   1.0000   1.0000   1.0000   1.0000   1.0000   1.0000
     1.0000   1.0000   1.0000   1.0000   1.0000   1.0000   1.0000   1.0000
     1.0000   1.0000   1.0000   1.0000   1.0000   1.0000   1.0000   1.0000
     1.0000   1.0000   1.0000   1.0000   1.0000   1.0000   1.0000   1.0000
     1.0000   1.0000   1.0000   1.0000   1.0000   1.0000   1.0000   1.0000
     1.0000   1.0000   1.0000

          k = 0.4000 0.2309 0.0000 (112236 PWs)   bands (ev):

   -73.8167 -73.8147 -73.8109 -73.8085 -73.8061 -73.8048 -73.8032 -73.8009
   -73.7958 -73.7945 -73.7911 -73.7895 -73.7874 -73.7547 -73.7499 -73.7404
   -38.2063 -38.2043 -38.1904 -38.1871 -38.1807 -38.1636 -38.1619 -38.1473
   -38.1302 -38.1248 -38.1069 -38.1017 -38.0630 -38.0593 -38.0473 -38.0405
   -38.0287 -38.0251 -38.0141 -38.0117 -38.0110 -38.0098 -38.0046 -38.0004
   -37.9981 -37.9968 -37.9951 -37.9919 -37.9898 -37.9864 -37.9824 -37.9797
   -37.9769 -37.9696 -37.9670 -37.9645 -37.9531 -37.9507 -37.9502 -37.9469
   -37.9450 -37.9377 -37.9303 -37.9183 -37.9099 -37.8944 -37.8919 -37.8742
   -21.5129 -15.4152 -14.4364 -14.2337 -13.8697 -13.8591 -13.2501 -13.2456
   -13.0224 -12.9983 -12.9779 -12.9107 -12.8340 -12.7316 -12.7063 -12.6865
   -12.5440 -12.5028 -12.4666 -12.4512 -12.4301 -12.4240 -12.3875 -12.3626
   -12.3511 -12.2826 -12.2295 -12.1987 -12.1784 -12.1610 -12.1558 -12.1502
   -12.0538 -12.0432  -7.9437  -7.5439  -6.1737  -6.1255  -6.1151  -6.0899
    -6.0375  -5.8702  -5.8568  -5.8371  -5.7174  -5.5364  -5.5106  -5.4938
    -5.4498  -5.4491  -5.4410  -5.3894  -5.3839  -5.3160  -5.3099  -5.0746
    -5.0706  -5.0229  -5.0112  -4.7779  -4.6238  -4.5620  -4.4916  -4.4534
    -4.4210  -4.3734  -4.3514  -4.3063  -4.2418  -4.2279  -4.1925  -4.1602
    -4.1268  -4.1165  -4.1039  -4.0778  -4.0647  -4.0527  -4.0443  -3.6811
    -3.5657  -3.5272  -3.4705  -3.4531  -3.4330  -3.4039  -3.3626  -3.3296
    -3.2932  -3.2866  -3.2567  -3.2420  -3.2210  -3.2068  -3.1413  -3.1202
    -3.0926  -3.0586  -3.0224  -2.9727  -2.9421  -2.9077  -2.8540  -2.7833
    -2.7490  -2.6934  -2.6593  -2.6356  -2.6225  -2.6072  -2.5238  -2.5075
    -2.4641  -2.4337  -2.3784  -2.3370  -2.2795  -2.2615  -2.2476  -2.1630
    -2.1286  -2.1209  -2.0469  -2.0182  -2.0124  -1.9886  -1.9818  -1.9663
    -1.9423  -1.9071  -1.8966  -1.8709  -1.8587  -1.8493  -1.8405  -1.8252
    -1.8085  -1.7470  -1.7340  -1.7091  -1.6986  -1.6514  -1.6377  -1.6293
    -1.6008  -1.5586  -1.5148  -1.5017  -1.4276  -1.3653  -1.3162  -1.2967
    -1.2634  -1.2399  -1.1946  -1.1366  -1.1206  -1.0669  -1.0595  -1.0072
    -0.9793  -0.8925  -0.7325  -0.7281  -0.6413  -0.6319  -0.5223  -0.4612
    -0.4504  -0.4247  -0.4066  -0.3690  -0.2998  -0.1046   0.0006   0.0256
     0.1240   1.3113   1.5736

     occupation numbers 
     1.0000   1.0000   1.0000   1.0000   1.0000   1.0000   1.0000   1.0000
     1.0000   1.0000   1.0000   1.0000   1.0000   1.0000   1.0000   1.0000
     1.0000   1.0000   1.0000   1.0000   1.0000   1.0000   1.0000   1.0000
     1.0000   1.0000   1.0000   1.0000   1.0000   1.0000   1.0000   1.0000
     1.0000   1.0000   1.0000   1.0000   1.0000   1.0000   1.0000   1.0000
     1.0000   1.0000   1.0000   1.0000   1.0000   1.0000   1.0000   1.0000
     1.0000   1.0000   1.0000   1.0000   1.0000   1.0000   1.0000   1.0000
     1.0000   1.0000   1.0000   1.0000   1.0000   1.0000   1.0000   1.0000
     1.0000   1.0000   1.0000   1.0000   1.0000   1.0000   1.0000   1.0000
     1.0000   1.0000   1.0000   1.0000   1.0000   1.0000   1.0000   1.0000
     1.0000   1.0000   1.0000   1.0000   1.0000   1.0000   1.0000   1.0000
     1.0000   1.0000   1.0000   1.0000   1.0000   1.0000   1.0000   1.0000
     1.0000   1.0000   1.0000   1.0000   1.0000   1.0000   1.0000   1.0000
     1.0000   1.0000   1.0000   1.0000   1.0000   1.0000   1.0000   1.0000
     1.0000   1.0000   1.0000   1.0000   1.0000   1.0000   1.0000   1.0000
     1.0000   1.0000   1.0000   1.0000   1.0000   1.0000   1.0000   1.0000
     1.0000   1.0000   1.0000   1.0000   1.0000   1.0000   1.0000   1.0000
     1.0000   1.0000   1.0000   1.0000   1.0000   1.0000   1.0000   1.0000
     1.0000   1.0000   1.0000   1.0000   1.0000   1.0000   1.0000   1.0000
     1.0000   1.0000   1.0000   1.0000   1.0000   1.0000   1.0000   1.0000
     1.0000   1.0000   1.0000   1.0000   1.0000   1.0000   1.0000   1.0000
     1.0000   1.0000   1.0000   1.0000   1.0000   1.0000   1.0000   1.0000
     1.0000   1.0000   1.0000   1.0000   1.0000   1.0000   1.0000   1.0000
     1.0000   1.0000   1.0000   1.0000   1.0000   1.0000   1.0000   1.0000
     1.0000   1.0000   1.0000   1.0000   1.0000   1.0000   1.0000   1.0000
     1.0000   1.0000   1.0000   1.0000   1.0000   1.0000   1.0000   1.0000
     1.0000   1.0000   1.0000   1.0000   1.0000   1.0000   1.0000   1.0000
     1.0000   1.0000   1.0000   1.0000   1.0000   1.0000   1.0000   1.0000
     1.0000   1.0000   1.0000   1.0000   1.0000   1.0000   1.0000   1.0000
     1.0000   1.0000   1.0000   1.0000   1.0000   1.0000   1.0000   1.0000
     1.0000   1.0000   1.0000

          k =-0.2000 0.3464 0.0000 (112231 PWs)   bands (ev):

   -73.8169 -73.8142 -73.8109 -73.8089 -73.8060 -73.8051 -73.8030 -73.8007
   -73.7963 -73.7942 -73.7912 -73.7894 -73.7875 -73.7547 -73.7499 -73.7404
   -38.2125 -38.2024 -38.2010 -38.1795 -38.1759 -38.1646 -38.1559 -38.1496
   -38.1331 -38.1258 -38.1133 -38.0773 -38.0612 -38.0558 -38.0482 -38.0375
   -38.0325 -38.0288 -38.0255 -38.0207 -38.0164 -38.0085 -38.0039 -38.0000
   -37.9966 -37.9936 -37.9916 -37.9888 -37.9867 -37.9843 -37.9825 -37.9813
   -37.9769 -37.9739 -37.9699 -37.9655 -37.9587 -37.9556 -37.9521 -37.9474
   -37.9419 -37.9327 -37.9270 -37.9219 -37.9037 -37.8989 -37.8870 -37.8735
   -21.5129 -15.4152 -14.4760 -14.1035 -14.0604 -13.5746 -13.5576 -13.1762
   -13.1197 -13.0102 -12.9359 -12.8091 -12.7920 -12.7071 -12.6732 -12.6205
   -12.5858 -12.5774 -12.5694 -12.4556 -12.4267 -12.3944 -12.3800 -12.3110
   -12.2924 -12.2746 -12.2520 -12.2272 -12.2234 -12.1572 -12.1505 -12.1090
   -12.0960 -12.0360  -7.9437  -7.5439  -6.1933  -6.1762  -6.1429  -6.1224
    -6.1040  -5.7698  -5.7389  -5.7178  -5.7005  -5.6272  -5.6032  -5.5648
    -5.5086  -5.4769  -5.3573  -5.3321  -5.3010  -5.2663  -5.2430  -5.2222
    -5.0986  -4.9150  -4.8956  -4.7977  -4.7568  -4.6101  -4.5186  -4.4491
    -4.3966  -4.3456  -4.3363  -4.3105  -4.2815  -4.2618  -4.2467  -4.2286
    -4.1653  -4.1312  -4.1122  -4.0942  -4.0550  -3.7761  -3.7412  -3.7299
    -3.7099  -3.6932  -3.6172  -3.5093  -3.4247  -3.3842  -3.3754  -3.3106
    -3.2962  -3.2444  -3.2345  -3.2052  -3.1680  -3.1485  -3.1288  -3.0851
    -3.0646  -3.0140  -2.9758  -2.9470  -2.9351  -2.9282  -2.9249  -2.9031
    -2.7996  -2.7462  -2.7239  -2.6790  -2.6322  -2.5664  -2.5334  -2.4794
    -2.4652  -2.4115  -2.3917  -2.3671  -2.3243  -2.2232  -2.1994  -2.1595
    -2.1393  -2.1249  -2.1098  -2.0853  -2.0394  -1.9919  -1.9849  -1.9454
    -1.9219  -1.9030  -1.8708  -1.8568  -1.8276  -1.8193  -1.7988  -1.7747
    -1.7479  -1.7074  -1.7061  -1.6821  -1.6567  -1.6402  -1.5907  -1.5849
    -1.5627  -1.5500  -1.5325  -1.5127  -1.4447  -1.3987  -1.3868  -1.3480
    -1.2916  -1.2501  -1.1986  -1.1748  -1.1599  -1.1239  -1.0488  -1.0076
    -0.8779  -0.8390  -0.6890  -0.6726  -0.6393  -0.6294  -0.6116  -0.5444
    -0.5376  -0.4306  -0.3870  -0.2590  -0.2077  -0.2003  -0.1627   0.0714
     0.1375   1.2910   1.5795

     occupation numbers 
     1.0000   1.0000   1.0000   1.0000   1.0000   1.0000   1.0000   1.0000
     1.0000   1.0000   1.0000   1.0000   1.0000   1.0000   1.0000   1.0000
     1.0000   1.0000   1.0000   1.0000   1.0000   1.0000   1.0000   1.0000
     1.0000   1.0000   1.0000   1.0000   1.0000   1.0000   1.0000   1.0000
     1.0000   1.0000   1.0000   1.0000   1.0000   1.0000   1.0000   1.0000
     1.0000   1.0000   1.0000   1.0000   1.0000   1.0000   1.0000   1.0000
     1.0000   1.0000   1.0000   1.0000   1.0000   1.0000   1.0000   1.0000
     1.0000   1.0000   1.0000   1.0000   1.0000   1.0000   1.0000   1.0000
     1.0000   1.0000   1.0000   1.0000   1.0000   1.0000   1.0000   1.0000
     1.0000   1.0000   1.0000   1.0000   1.0000   1.0000   1.0000   1.0000
     1.0000   1.0000   1.0000   1.0000   1.0000   1.0000   1.0000   1.0000
     1.0000   1.0000   1.0000   1.0000   1.0000   1.0000   1.0000   1.0000
     1.0000   1.0000   1.0000   1.0000   1.0000   1.0000   1.0000   1.0000
     1.0000   1.0000   1.0000   1.0000   1.0000   1.0000   1.0000   1.0000
     1.0000   1.0000   1.0000   1.0000   1.0000   1.0000   1.0000   1.0000
     1.0000   1.0000   1.0000   1.0000   1.0000   1.0000   1.0000   1.0000
     1.0000   1.0000   1.0000   1.0000   1.0000   1.0000   1.0000   1.0000
     1.0000   1.0000   1.0000   1.0000   1.0000   1.0000   1.0000   1.0000
     1.0000   1.0000   1.0000   1.0000   1.0000   1.0000   1.0000   1.0000
     1.0000   1.0000   1.0000   1.0000   1.0000   1.0000   1.0000   1.0000
     1.0000   1.0000   1.0000   1.0000   1.0000   1.0000   1.0000   1.0000
     1.0000   1.0000   1.0000   1.0000   1.0000   1.0000   1.0000   1.0000
     1.0000   1.0000   1.0000   1.0000   1.0000   1.0000   1.0000   1.0000
     1.0000   1.0000   1.0000   1.0000   1.0000   1.0000   1.0000   1.0000
     1.0000   1.0000   1.0000   1.0000   1.0000   1.0000   1.0000   1.0000
     1.0000   1.0000   1.0000   1.0000   1.0000   1.0000   1.0000   1.0000
     1.0000   1.0000   1.0000   1.0000   1.0000   1.0000   1.0000   1.0000
     1.0000   1.0000   1.0000   1.0000   1.0000   1.0000   1.0000   1.0000
     1.0000   1.0000   1.0000   1.0000   1.0000   1.0000   1.0000   1.0000
     1.0000   1.0000   1.0000   1.0000   1.0000   1.0000   1.0000   1.0000
     1.0000   1.0000   1.0000

          k = 0.4000-0.0000 0.0000 (112231 PWs)   bands (ev):

   -73.8169 -73.8144 -73.8109 -73.8088 -73.8061 -73.8047 -73.8032 -73.8009
   -73.7959 -73.7945 -73.7912 -73.7894 -73.7874 -73.7547 -73.7499 -73.7404
   -38.2125 -38.2031 -38.1999 -38.1793 -38.1761 -38.1659 -38.1564 -38.1498
   -38.1324 -38.1243 -38.1128 -38.0771 -38.0621 -38.0564 -38.0480 -38.0382
   -38.0310 -38.0290 -38.0256 -38.0222 -38.0143 -38.0095 -38.0042 -37.9988
   -37.9964 -37.9938 -37.9915 -37.9893 -37.9881 -37.9855 -37.9824 -37.9804
   -37.9754 -37.9749 -37.9696 -37.9657 -37.9586 -37.9552 -37.9519 -37.9471
   -37.9425 -37.9321 -37.9282 -37.9224 -37.9019 -37.8985 -37.8858 -37.8754
   -21.5129 -15.4152 -14.4761 -14.1000 -14.0639 -13.5690 -13.5639 -13.1712
   -13.1231 -13.0141 -12.9297 -12.8050 -12.7961 -12.7118 -12.6824 -12.6028
   -12.5999 -12.5745 -12.5615 -12.4573 -12.4240 -12.4132 -12.3652 -12.3080
   -12.2935 -12.2715 -12.2547 -12.2351 -12.2205 -12.1580 -12.1479 -12.1068
   -12.0975 -12.0364  -7.9437  -7.5439  -6.1835  -6.1818  -6.1465  -6.1199
    -6.1091  -5.7594  -5.7437  -5.7217  -5.6887  -5.6376  -5.6096  -5.5624
    -5.5066  -5.4742  -5.3528  -5.3359  -5.2936  -5.2727  -5.2454  -5.2303
    -5.0982  -4.9028  -4.8875  -4.8112  -4.7571  -4.5733  -4.5401  -4.4670
    -4.4108  -4.3478  -4.3389  -4.3143  -4.2765  -4.2654  -4.2446  -4.2117
    -4.1761  -4.1185  -4.1111  -4.0909  -4.0552  -3.7651  -3.7359  -3.7287
    -3.7091  -3.6998  -3.6289  -3.4874  -3.4321  -3.4040  -3.3736  -3.3280
    -3.2895  -3.2477  -3.2377  -3.2039  -3.1785  -3.1461  -3.1285  -3.0837
    -3.0448  -3.0073  -2.9706  -2.9533  -2.9423  -2.9251  -2.9092  -2.9013
    -2.7911  -2.7600  -2.7242  -2.6635  -2.6347  -2.5857  -2.5499  -2.4729
    -2.4691  -2.4223  -2.3894  -2.3483  -2.3224  -2.2285  -2.1821  -2.1640
    -2.1336  -2.1257  -2.1094  -2.1029  -2.0147  -1.9961  -1.9779  -1.9522
    -1.9284  -1.9023  -1.8843  -1.8664  -1.8541  -1.8230  -1.7931  -1.7704
    -1.7306  -1.7139  -1.6948  -1.6761  -1.6624  -1.6308  -1.5967  -1.5740
    -1.5582  -1.5486  -1.5342  -1.5077  -1.4513  -1.4143  -1.3713  -1.3417
    -1.2893  -1.2688  -1.2033  -1.1805  -1.1533  -1.1121  -1.0518  -1.0059
    -0.8690  -0.8510  -0.6833  -0.6759  -0.6404  -0.6242  -0.6161  -0.5427
    -0.5368  -0.4450  -0.3845  -0.2537  -0.2086  -0.1953  -0.1642   0.0686
     0.1375   1.3207   1.5485

     occupation numbers 
     1.0000   1.0000   1.0000   1.0000   1.0000   1.0000   1.0000   1.0000
     1.0000   1.0000   1.0000   1.0000   1.0000   1.0000   1.0000   1.0000
     1.0000   1.0000   1.0000   1.0000   1.0000   1.0000   1.0000   1.0000
     1.0000   1.0000   1.0000   1.0000   1.0000   1.0000   1.0000   1.0000
     1.0000   1.0000   1.0000   1.0000   1.0000   1.0000   1.0000   1.0000
     1.0000   1.0000   1.0000   1.0000   1.0000   1.0000   1.0000   1.0000
     1.0000   1.0000   1.0000   1.0000   1.0000   1.0000   1.0000   1.0000
     1.0000   1.0000   1.0000   1.0000   1.0000   1.0000   1.0000   1.0000
     1.0000   1.0000   1.0000   1.0000   1.0000   1.0000   1.0000   1.0000
     1.0000   1.0000   1.0000   1.0000   1.0000   1.0000   1.0000   1.0000
     1.0000   1.0000   1.0000   1.0000   1.0000   1.0000   1.0000   1.0000
     1.0000   1.0000   1.0000   1.0000   1.0000   1.0000   1.0000   1.0000
     1.0000   1.0000   1.0000   1.0000   1.0000   1.0000   1.0000   1.0000
     1.0000   1.0000   1.0000   1.0000   1.0000   1.0000   1.0000   1.0000
     1.0000   1.0000   1.0000   1.0000   1.0000   1.0000   1.0000   1.0000
     1.0000   1.0000   1.0000   1.0000   1.0000   1.0000   1.0000   1.0000
     1.0000   1.0000   1.0000   1.0000   1.0000   1.0000   1.0000   1.0000
     1.0000   1.0000   1.0000   1.0000   1.0000   1.0000   1.0000   1.0000
     1.0000   1.0000   1.0000   1.0000   1.0000   1.0000   1.0000   1.0000
     1.0000   1.0000   1.0000   1.0000   1.0000   1.0000   1.0000   1.0000
     1.0000   1.0000   1.0000   1.0000   1.0000   1.0000   1.0000   1.0000
     1.0000   1.0000   1.0000   1.0000   1.0000   1.0000   1.0000   1.0000
     1.0000   1.0000   1.0000   1.0000   1.0000   1.0000   1.0000   1.0000
     1.0000   1.0000   1.0000   1.0000   1.0000   1.0000   1.0000   1.0000
     1.0000   1.0000   1.0000   1.0000   1.0000   1.0000   1.0000   1.0000
     1.0000   1.0000   1.0000   1.0000   1.0000   1.0000   1.0000   1.0000
     1.0000   1.0000   1.0000   1.0000   1.0000   1.0000   1.0000   1.0000
     1.0000   1.0000   1.0000   1.0000   1.0000   1.0000   1.0000   1.0000
     1.0000   1.0000   1.0000   1.0000   1.0000   1.0000   1.0000   1.0000
     1.0000   1.0000   1.0000   1.0000   1.0000   1.0000   1.0000   1.0000
     1.0000   1.0000   1.0000

          k =-0.4000 0.4619 0.0000 (112237 PWs)   bands (ev):

   -73.8168 -73.8144 -73.8110 -73.8090 -73.8060 -73.8046 -73.8032 -73.8008
   -73.7961 -73.7944 -73.7912 -73.7894 -73.7874 -73.7547 -73.7499 -73.7404
   -38.2021 -38.1953 -38.1859 -38.1825 -38.1799 -38.1736 -38.1662 -38.1493
   -38.1466 -38.1330 -38.0946 -38.0904 -38.0852 -38.0524 -38.0451 -38.0415
   -38.0333 -38.0315 -38.0213 -38.0132 -38.0085 -38.0055 -38.0039 -38.0005
   -37.9994 -37.9966 -37.9938 -37.9884 -37.9862 -37.9825 -37.9751 -37.9719
   -37.9699 -37.9682 -37.9614 -37.9580 -37.9549 -37.9532 -37.9502 -37.9480
   -37.9459 -37.9385 -37.9341 -37.9272 -37.9151 -37.8963 -37.8856 -37.8798
   -21.5129 -15.4152 -14.3397 -14.2897 -14.1162 -13.5971 -13.2989 -13.2953
   -12.9621 -12.9500 -12.8872 -12.8572 -12.8281 -12.8016 -12.7968 -12.6662
   -12.6347 -12.5966 -12.4945 -12.4841 -12.3884 -12.3760 -12.3486 -12.3265
   -12.3099 -12.2977 -12.2615 -12.2352 -12.2299 -12.1343 -12.1204 -12.1153
   -12.0803 -12.0168  -7.9437  -7.5439  -6.1695  -6.0602  -6.0256  -5.9701
    -5.9157  -5.8910  -5.8780  -5.8601  -5.8086  -5.7453  -5.6899  -5.6265
    -5.6109  -5.5418  -5.3584  -5.2872  -5.2482  -5.2174  -5.2024  -5.1693
    -5.1583  -4.8552  -4.8334  -4.7466  -4.6210  -4.5908  -4.5452  -4.5259
    -4.4921  -4.4274  -4.3852  -4.3265  -4.3090  -4.2427  -4.2278  -4.2097
    -4.1942  -4.1646  -4.1208  -4.0950  -3.9578  -3.9477  -3.7934  -3.6723
    -3.6288  -3.5904  -3.4351  -3.3984  -3.3643  -3.3268  -3.3094  -3.2822
    -3.2793  -3.2680  -3.2428  -3.2325  -3.2207  -3.2147  -3.1503  -3.1218
    -3.0978  -3.0860  -3.0597  -3.0475  -2.9983  -2.9540  -2.8519  -2.8163
    -2.7454  -2.7316  -2.7134  -2.6831  -2.6322  -2.5984  -2.5121  -2.4211
    -2.4011  -2.3317  -2.3237  -2.3186  -2.2688  -2.1997  -2.1754  -2.1614
    -2.1474  -2.0908  -2.0807  -2.0528  -2.0293  -1.9799  -1.9695  -1.9494
    -1.9331  -1.9190  -1.8954  -1.8845  -1.8693  -1.8558  -1.8455  -1.8427
    -1.8193  -1.7951  -1.7572  -1.7260  -1.7055  -1.6925  -1.6739  -1.6547
    -1.6274  -1.5861  -1.5369  -1.5062  -1.4851  -1.4623  -1.4217  -1.3185
    -1.2854  -1.2373  -1.1714  -1.1172  -1.0947  -1.0782  -1.0456  -0.9751
    -0.8149  -0.7888  -0.7032  -0.6924  -0.6587  -0.6472  -0.6007  -0.5847
    -0.5682  -0.4159  -0.2816  -0.2754  -0.1800  -0.1201  -0.0781   0.0893
     0.1863   1.3291   1.5657

     occupation numbers 
     1.0000   1.0000   1.0000   1.0000   1.0000   1.0000   1.0000   1.0000
     1.0000   1.0000   1.0000   1.0000   1.0000   1.0000   1.0000   1.0000
     1.0000   1.0000   1.0000   1.0000   1.0000   1.0000   1.0000   1.0000
     1.0000   1.0000   1.0000   1.0000   1.0000   1.0000   1.0000   1.0000
     1.0000   1.0000   1.0000   1.0000   1.0000   1.0000   1.0000   1.0000
     1.0000   1.0000   1.0000   1.0000   1.0000   1.0000   1.0000   1.0000
     1.0000   1.0000   1.0000   1.0000   1.0000   1.0000   1.0000   1.0000
     1.0000   1.0000   1.0000   1.0000   1.0000   1.0000   1.0000   1.0000
     1.0000   1.0000   1.0000   1.0000   1.0000   1.0000   1.0000   1.0000
     1.0000   1.0000   1.0000   1.0000   1.0000   1.0000   1.0000   1.0000
     1.0000   1.0000   1.0000   1.0000   1.0000   1.0000   1.0000   1.0000
     1.0000   1.0000   1.0000   1.0000   1.0000   1.0000   1.0000   1.0000
     1.0000   1.0000   1.0000   1.0000   1.0000   1.0000   1.0000   1.0000
     1.0000   1.0000   1.0000   1.0000   1.0000   1.0000   1.0000   1.0000
     1.0000   1.0000   1.0000   1.0000   1.0000   1.0000   1.0000   1.0000
     1.0000   1.0000   1.0000   1.0000   1.0000   1.0000   1.0000   1.0000
     1.0000   1.0000   1.0000   1.0000   1.0000   1.0000   1.0000   1.0000
     1.0000   1.0000   1.0000   1.0000   1.0000   1.0000   1.0000   1.0000
     1.0000   1.0000   1.0000   1.0000   1.0000   1.0000   1.0000   1.0000
     1.0000   1.0000   1.0000   1.0000   1.0000   1.0000   1.0000   1.0000
     1.0000   1.0000   1.0000   1.0000   1.0000   1.0000   1.0000   1.0000
     1.0000   1.0000   1.0000   1.0000   1.0000   1.0000   1.0000   1.0000
     1.0000   1.0000   1.0000   1.0000   1.0000   1.0000   1.0000   1.0000
     1.0000   1.0000   1.0000   1.0000   1.0000   1.0000   1.0000   1.0000
     1.0000   1.0000   1.0000   1.0000   1.0000   1.0000   1.0000   1.0000
     1.0000   1.0000   1.0000   1.0000   1.0000   1.0000   1.0000   1.0000
     1.0000   1.0000   1.0000   1.0000   1.0000   1.0000   1.0000   1.0000
     1.0000   1.0000   1.0000   1.0000   1.0000   1.0000   1.0000   1.0000
     1.0000   1.0000   1.0000   1.0000   1.0000   1.0000   1.0000   1.0000
     1.0000   1.0000   1.0000   1.0000   1.0000   1.0000   1.0000   1.0000
     1.0000   1.0000   1.0000

          k = 0.6000 0.1155 0.0000 (112237 PWs)   bands (ev):

   -73.8166 -73.8148 -73.8109 -73.8087 -73.8060 -73.8048 -73.8032 -73.8009
   -73.7959 -73.7945 -73.7911 -73.7895 -73.7874 -73.7547 -73.7499 -73.7404
   -38.2009 -38.1970 -38.1867 -38.1840 -38.1771 -38.1736 -38.1657 -38.1491
   -38.1474 -38.1327 -38.0940 -38.0924 -38.0848 -38.0519 -38.0452 -38.0412
   -38.0335 -38.0318 -38.0209 -38.0124 -38.0093 -38.0063 -38.0032 -38.0008
   -37.9998 -37.9952 -37.9935 -37.9892 -37.9863 -37.9824 -37.9749 -37.9721
   -37.9697 -37.9690 -37.9613 -37.9579 -37.9554 -37.9534 -37.9505 -37.9479
   -37.9419 -37.9391 -37.9324 -37.9296 -37.9162 -37.8971 -37.8871 -37.8776
   -21.5129 -15.4152 -14.3390 -14.2905 -14.1160 -13.5970 -13.3062 -13.2880
   -12.9681 -12.9440 -12.8822 -12.8607 -12.8284 -12.8020 -12.7973 -12.6687
   -12.6336 -12.5948 -12.5045 -12.4740 -12.3951 -12.3726 -12.3447 -12.3218
   -12.3107 -12.2998 -12.2647 -12.2357 -12.2307 -12.1322 -12.1212 -12.1157
   -12.0796 -12.0171  -7.9437  -7.5439  -6.1695  -6.0571  -6.0206  -5.9692
    -5.9292  -5.9073  -5.8774  -5.8358  -5.8078  -5.7503  -5.6918  -5.6242
    -5.6131  -5.5384  -5.3573  -5.2835  -5.2569  -5.2262  -5.1976  -5.1732
    -5.1491  -4.8572  -4.8401  -4.6965  -4.6480  -4.6105  -4.5523  -4.5152
    -4.4951  -4.4363  -4.3856  -4.3221  -4.3029  -4.2428  -4.2321  -4.2003
    -4.1926  -4.1683  -4.1205  -4.0966  -3.9585  -3.9480  -3.7898  -3.6698
    -3.6303  -3.5812  -3.4369  -3.3770  -3.3682  -3.3355  -3.3038  -3.2879
    -3.2853  -3.2623  -3.2462  -3.2354  -3.2216  -3.2038  -3.1809  -3.1442
    -3.0881  -3.0797  -3.0540  -3.0223  -3.0077  -2.9666  -2.8498  -2.8141
    -2.7534  -2.7330  -2.7267  -2.6589  -2.6418  -2.5608  -2.5216  -2.4689
    -2.3961  -2.3368  -2.3167  -2.2978  -2.2477  -2.2157  -2.1751  -2.1517
    -2.1305  -2.1057  -2.0779  -2.0492  -2.0205  -1.9852  -1.9693  -1.9601
    -1.9389  -1.9137  -1.9038  -1.8829  -1.8734  -1.8630  -1.8542  -1.8453
    -1.8121  -1.7990  -1.7476  -1.7326  -1.7066  -1.6930  -1.6668  -1.6449
    -1.6277  -1.6063  -1.5396  -1.5221  -1.4773  -1.4351  -1.4073  -1.3305
    -1.2943  -1.2314  -1.1613  -1.1403  -1.0968  -1.0590  -1.0240  -0.9944
    -0.8113  -0.7954  -0.6987  -0.6970  -0.6597  -0.6533  -0.6014  -0.5961
    -0.5537  -0.4173  -0.2836  -0.2685  -0.1775  -0.1250  -0.0774   0.0901
     0.1866   1.3189   1.5781

     occupation numbers 
     1.0000   1.0000   1.0000   1.0000   1.0000   1.0000   1.0000   1.0000
     1.0000   1.0000   1.0000   1.0000   1.0000   1.0000   1.0000   1.0000
     1.0000   1.0000   1.0000   1.0000   1.0000   1.0000   1.0000   1.0000
     1.0000   1.0000   1.0000   1.0000   1.0000   1.0000   1.0000   1.0000
     1.0000   1.0000   1.0000   1.0000   1.0000   1.0000   1.0000   1.0000
     1.0000   1.0000   1.0000   1.0000   1.0000   1.0000   1.0000   1.0000
     1.0000   1.0000   1.0000   1.0000   1.0000   1.0000   1.0000   1.0000
     1.0000   1.0000   1.0000   1.0000   1.0000   1.0000   1.0000   1.0000
     1.0000   1.0000   1.0000   1.0000   1.0000   1.0000   1.0000   1.0000
     1.0000   1.0000   1.0000   1.0000   1.0000   1.0000   1.0000   1.0000
     1.0000   1.0000   1.0000   1.0000   1.0000   1.0000   1.0000   1.0000
     1.0000   1.0000   1.0000   1.0000   1.0000   1.0000   1.0000   1.0000
     1.0000   1.0000   1.0000   1.0000   1.0000   1.0000   1.0000   1.0000
     1.0000   1.0000   1.0000   1.0000   1.0000   1.0000   1.0000   1.0000
     1.0000   1.0000   1.0000   1.0000   1.0000   1.0000   1.0000   1.0000
     1.0000   1.0000   1.0000   1.0000   1.0000   1.0000   1.0000   1.0000
     1.0000   1.0000   1.0000   1.0000   1.0000   1.0000   1.0000   1.0000
     1.0000   1.0000   1.0000   1.0000   1.0000   1.0000   1.0000   1.0000
     1.0000   1.0000   1.0000   1.0000   1.0000   1.0000   1.0000   1.0000
     1.0000   1.0000   1.0000   1.0000   1.0000   1.0000   1.0000   1.0000
     1.0000   1.0000   1.0000   1.0000   1.0000   1.0000   1.0000   1.0000
     1.0000   1.0000   1.0000   1.0000   1.0000   1.0000   1.0000   1.0000
     1.0000   1.0000   1.0000   1.0000   1.0000   1.0000   1.0000   1.0000
     1.0000   1.0000   1.0000   1.0000   1.0000   1.0000   1.0000   1.0000
     1.0000   1.0000   1.0000   1.0000   1.0000   1.0000   1.0000   1.0000
     1.0000   1.0000   1.0000   1.0000   1.0000   1.0000   1.0000   1.0000
     1.0000   1.0000   1.0000   1.0000   1.0000   1.0000   1.0000   1.0000
     1.0000   1.0000   1.0000   1.0000   1.0000   1.0000   1.0000   1.0000
     1.0000   1.0000   1.0000   1.0000   1.0000   1.0000   1.0000   1.0000
     1.0000   1.0000   1.0000   1.0000   1.0000   1.0000   1.0000   1.0000
     1.0000   1.0000   1.0000

 ------ SPIN DOWN ----------


          k = 0.0000 0.0000 0.0000 (112117 PWs)   bands (ev):

   -73.8139 -73.8095 -73.8064 -73.8046 -73.8024 -73.8017 -73.7984 -73.7961
   -73.7938 -73.7888 -73.7879 -73.7863 -73.7822 -73.7413 -73.7317 -73.7287
   -38.2161 -38.2149 -38.2128 -38.1568 -38.1562 -38.1520 -38.1474 -38.1462
   -38.1349 -38.0558 -38.0507 -38.0481 -38.0476 -38.0415 -38.0385 -38.0373
   -38.0244 -38.0225 -38.0207 -38.0194 -38.0168 -38.0166 -38.0151 -38.0122
   -38.0091 -38.0057 -38.0044 -37.9994 -37.9925 -37.9891 -37.9866 -37.9850
   -37.9836 -37.9764 -37.9524 -37.9515 -37.9486 -37.9448 -37.9355 -37.9250
   -37.9190 -37.9080 -37.9058 -37.9042 -37.9018 -37.8911 -37.8586 -37.8565
   -21.5115 -15.4140 -14.5948 -13.7059 -13.6914 -13.6713 -13.6426 -13.6286
   -13.6194 -12.9794 -12.7052 -12.6746 -12.6505 -12.6359 -12.6008 -12.5801
   -12.5326 -12.5038 -12.4679 -12.4551 -12.4435 -12.4418 -12.4207 -12.4191
   -12.4154 -12.2204 -12.1982 -12.1884 -12.1718 -12.1561 -12.1522 -12.1479
   -12.1459 -12.1435  -7.9417  -7.5422  -6.3360  -6.3228  -6.3052  -6.2752
    -6.1602  -5.6001  -5.5685  -5.5445  -5.5288  -5.5246  -5.4921  -5.4379
    -5.4051  -5.3864  -5.3110  -5.2798  -5.2598  -5.0990  -5.0900  -5.0620
    -5.0573  -5.0532  -5.0525  -4.9965  -4.9959  -4.9874  -4.5115  -4.4322
    -4.3924  -4.3431  -4.2894  -4.2804  -4.2644  -4.2432  -4.2298  -4.1761
    -4.0772  -4.0064  -3.9754  -3.9603  -3.9340  -3.7883  -3.7558  -3.7519
    -3.6980  -3.6761  -3.6731  -3.5987  -3.5076  -3.4683  -3.4029  -3.3991
    -3.3715  -3.3648  -3.2745  -3.2190  -3.1929  -3.1792  -3.1574  -3.1397
    -3.1267  -3.1218  -3.1076  -3.1051  -3.0394  -2.9244  -2.7917  -2.7472
    -2.6872  -2.6659  -2.6202  -2.5856  -2.5727  -2.5013  -2.4911  -2.4627
    -2.4577  -2.4304  -2.4277  -2.4227  -2.3897  -2.3292  -2.2723  -2.1860
    -2.1157  -2.0536  -1.9641  -1.9591  -1.9298  -1.9164  -1.8651  -1.8223
    -1.7986  -1.7746  -1.7636  -1.7611  -1.7486  -1.7469  -1.7408  -1.7339
    -1.7319  -1.6992  -1.6880  -1.6558  -1.6463  -1.6342  -1.6314  -1.5983
    -1.5723  -1.5257  -1.5156  -1.4884  -1.4479  -1.4088  -1.3693  -1.3519
    -1.2896  -1.2612  -1.1822  -1.0872  -1.0343  -1.0259  -1.0093  -0.9899
    -0.7221  -0.6870  -0.6829  -0.6826  -0.6696  -0.6649  -0.6428  -0.6363
    -0.6199  -0.3925  -0.3812  -0.3712  -0.3560  -0.3393  -0.3298  -0.2945
     0.2183   1.3019   1.6760

     occupation numbers 
     1.0000   1.0000   1.0000   1.0000   1.0000   1.0000   1.0000   1.0000
     1.0000   1.0000   1.0000   1.0000   1.0000   1.0000   1.0000   1.0000
     1.0000   1.0000   1.0000   1.0000   1.0000   1.0000   1.0000   1.0000
     1.0000   1.0000   1.0000   1.0000   1.0000   1.0000   1.0000   1.0000
     1.0000   1.0000   1.0000   1.0000   1.0000   1.0000   1.0000   1.0000
     1.0000   1.0000   1.0000   1.0000   1.0000   1.0000   1.0000   1.0000
     1.0000   1.0000   1.0000   1.0000   1.0000   1.0000   1.0000   1.0000
     1.0000   1.0000   1.0000   1.0000   1.0000   1.0000   1.0000   1.0000
     1.0000   1.0000   1.0000   1.0000   1.0000   1.0000   1.0000   1.0000
     1.0000   1.0000   1.0000   1.0000   1.0000   1.0000   1.0000   1.0000
     1.0000   1.0000   1.0000   1.0000   1.0000   1.0000   1.0000   1.0000
     1.0000   1.0000   1.0000   1.0000   1.0000   1.0000   1.0000   1.0000
     1.0000   1.0000   1.0000   1.0000   1.0000   1.0000   1.0000   1.0000
     1.0000   1.0000   1.0000   1.0000   1.0000   1.0000   1.0000   1.0000
     1.0000   1.0000   1.0000   1.0000   1.0000   1.0000   1.0000   1.0000
     1.0000   1.0000   1.0000   1.0000   1.0000   1.0000   1.0000   1.0000
     1.0000   1.0000   1.0000   1.0000   1.0000   1.0000   1.0000   1.0000
     1.0000   1.0000   1.0000   1.0000   1.0000   1.0000   1.0000   1.0000
     1.0000   1.0000   1.0000   1.0000   1.0000   1.0000   1.0000   1.0000
     1.0000   1.0000   1.0000   1.0000   1.0000   1.0000   1.0000   1.0000
     1.0000   1.0000   1.0000   1.0000   1.0000   1.0000   1.0000   1.0000
     1.0000   1.0000   1.0000   1.0000   1.0000   1.0000   1.0000   1.0000
     1.0000   1.0000   1.0000   1.0000   1.0000   1.0000   1.0000   1.0000
     1.0000   1.0000   1.0000   1.0000   1.0000   1.0000   1.0000   1.0000
     1.0000   1.0000   1.0000   1.0000   1.0000   1.0000   1.0000   1.0000
     1.0000   1.0000   1.0000   1.0000   1.0000   1.0000   1.0000   1.0000
     1.0000   1.0000   1.0000   1.0000   1.0000   1.0000   1.0000   1.0000
     1.0000   1.0000   1.0000   1.0000   1.0000   1.0000   1.0000   1.0000
     1.0000   1.0000   1.0000   1.0000   1.0000   1.0000   1.0000   1.0000
     1.0000   1.0000   1.0000   1.0000   1.0000   1.0000   1.0000   1.0000
     1.0000   1.0000   0.0000

          k = 0.0000 0.2309 0.0000 (112171 PWs)   bands (ev):

   -73.8139 -73.8095 -73.8067 -73.8046 -73.8026 -73.8014 -73.7984 -73.7960
   -73.7939 -73.7889 -73.7879 -73.7864 -73.7822 -73.7413 -73.7317 -73.7287
   -38.2113 -38.2094 -38.2064 -38.1604 -38.1589 -38.1575 -38.1503 -38.1398
   -38.1317 -38.0964 -38.0711 -38.0698 -38.0464 -38.0424 -38.0377 -38.0269
   -38.0254 -38.0202 -38.0173 -38.0160 -38.0132 -38.0103 -38.0088 -38.0054
   -37.9993 -37.9946 -37.9941 -37.9907 -37.9881 -37.9867 -37.9839 -37.9831
   -37.9793 -37.9764 -37.9555 -37.9531 -37.9490 -37.9457 -37.9357 -37.9259
   -37.9253 -37.9145 -37.9107 -37.9027 -37.8988 -37.8895 -37.8643 -37.8592
   -21.5115 -15.4140 -14.5531 -13.9729 -13.7988 -13.7827 -13.4887 -13.4588
   -13.3219 -12.9633 -12.8001 -12.7321 -12.6929 -12.6846 -12.6527 -12.5830
   -12.5521 -12.5391 -12.4917 -12.4750 -12.4538 -12.4331 -12.4220 -12.3138
   -12.2826 -12.2603 -12.2419 -12.2125 -12.1830 -12.1725 -12.1657 -12.1509
   -12.0939 -12.0781  -7.9417  -7.5422  -6.2748  -6.2642  -6.2327  -6.2288
    -6.1582  -5.6591  -5.6396  -5.6230  -5.5530  -5.5144  -5.4859  -5.4670
    -5.4228  -5.4124  -5.3901  -5.3174  -5.3132  -5.2827  -5.2659  -5.0686
    -5.0638  -5.0130  -4.9991  -4.9510  -4.7357  -4.7311  -4.5802  -4.4731
    -4.4445  -4.3807  -4.3179  -4.2806  -4.2028  -4.1572  -4.1421  -4.1161
    -4.0959  -4.0577  -4.0396  -3.9977  -3.9815  -3.9073  -3.9048  -3.8973
    -3.6550  -3.5659  -3.5351  -3.5015  -3.4624  -3.4377  -3.4334  -3.3798
    -3.3607  -3.3093  -3.2886  -3.2748  -3.2611  -3.2028  -3.1888  -3.1459
    -3.0728  -2.9807  -2.9370  -2.9213  -2.8423  -2.7747  -2.7555  -2.7412
    -2.7153  -2.7075  -2.6921  -2.6684  -2.6421  -2.6247  -2.5824  -2.5379
    -2.4988  -2.4945  -2.4634  -2.4282  -2.3473  -2.3013  -2.1851  -2.1566
    -2.1039  -2.0607  -2.0085  -1.9927  -1.9676  -1.9484  -1.9222  -1.9002
    -1.8809  -1.8516  -1.8399  -1.8100  -1.7761  -1.7514  -1.7358  -1.7230
    -1.7139  -1.6925  -1.6769  -1.6514  -1.6359  -1.5995  -1.5783  -1.5379
    -1.5226  -1.4880  -1.4763  -1.4477  -1.4284  -1.3640  -1.3314  -1.3185
    -1.2932  -1.2719  -1.2322  -1.2138  -1.1476  -1.0614  -1.0380  -1.0050
    -0.8872  -0.7734  -0.7551  -0.7386  -0.5631  -0.5590  -0.5418  -0.5279
    -0.5149  -0.5020  -0.4024  -0.3717  -0.3559  -0.2425  -0.1652  -0.1348
     0.2003   1.3077   1.7071

     occupation numbers 
     1.0000   1.0000   1.0000   1.0000   1.0000   1.0000   1.0000   1.0000
     1.0000   1.0000   1.0000   1.0000   1.0000   1.0000   1.0000   1.0000
     1.0000   1.0000   1.0000   1.0000   1.0000   1.0000   1.0000   1.0000
     1.0000   1.0000   1.0000   1.0000   1.0000   1.0000   1.0000   1.0000
     1.0000   1.0000   1.0000   1.0000   1.0000   1.0000   1.0000   1.0000
     1.0000   1.0000   1.0000   1.0000   1.0000   1.0000   1.0000   1.0000
     1.0000   1.0000   1.0000   1.0000   1.0000   1.0000   1.0000   1.0000
     1.0000   1.0000   1.0000   1.0000   1.0000   1.0000   1.0000   1.0000
     1.0000   1.0000   1.0000   1.0000   1.0000   1.0000   1.0000   1.0000
     1.0000   1.0000   1.0000   1.0000   1.0000   1.0000   1.0000   1.0000
     1.0000   1.0000   1.0000   1.0000   1.0000   1.0000   1.0000   1.0000
     1.0000   1.0000   1.0000   1.0000   1.0000   1.0000   1.0000   1.0000
     1.0000   1.0000   1.0000   1.0000   1.0000   1.0000   1.0000   1.0000
     1.0000   1.0000   1.0000   1.0000   1.0000   1.0000   1.0000   1.0000
     1.0000   1.0000   1.0000   1.0000   1.0000   1.0000   1.0000   1.0000
     1.0000   1.0000   1.0000   1.0000   1.0000   1.0000   1.0000   1.0000
     1.0000   1.0000   1.0000   1.0000   1.0000   1.0000   1.0000   1.0000
     1.0000   1.0000   1.0000   1.0000   1.0000   1.0000   1.0000   1.0000
     1.0000   1.0000   1.0000   1.0000   1.0000   1.0000   1.0000   1.0000
     1.0000   1.0000   1.0000   1.0000   1.0000   1.0000   1.0000   1.0000
     1.0000   1.0000   1.0000   1.0000   1.0000   1.0000   1.0000   1.0000
     1.0000   1.0000   1.0000   1.0000   1.0000   1.0000   1.0000   1.0000
     1.0000   1.0000   1.0000   1.0000   1.0000   1.0000   1.0000   1.0000
     1.0000   1.0000   1.0000   1.0000   1.0000   1.0000   1.0000   1.0000
     1.0000   1.0000   1.0000   1.0000   1.0000   1.0000   1.0000   1.0000
     1.0000   1.0000   1.0000   1.0000   1.0000   1.0000   1.0000   1.0000
     1.0000   1.0000   1.0000   1.0000   1.0000   1.0000   1.0000   1.0000
     1.0000   1.0000   1.0000   1.0000   1.0000   1.0000   1.0000   1.0000
     1.0000   1.0000   1.0000   1.0000   1.0000   1.0000   1.0000   1.0000
     1.0000   1.0000   1.0000   1.0000   1.0000   1.0000   1.0000   1.0000
     1.0000   1.0000   0.0000

          k = 0.0000 0.4619 0.0000 (112236 PWs)   bands (ev):

   -73.8137 -73.8097 -73.8070 -73.8044 -73.8027 -73.8011 -73.7983 -73.7959
   -73.7941 -73.7889 -73.7879 -73.7864 -73.7822 -73.7413 -73.7317 -73.7287
   -38.2007 -38.1965 -38.1848 -38.1777 -38.1727 -38.1582 -38.1547 -38.1387
   -38.1242 -38.1170 -38.0961 -38.0933 -38.0564 -38.0501 -38.0428 -38.0332
   -38.0271 -38.0157 -38.0102 -38.0072 -38.0029 -38.0017 -37.9985 -37.9975
   -37.9947 -37.9915 -37.9912 -37.9876 -37.9839 -37.9823 -37.9763 -37.9732
   -37.9670 -37.9605 -37.9586 -37.9505 -37.9451 -37.9413 -37.9389 -37.9336
   -37.9322 -37.9223 -37.9177 -37.9092 -37.8990 -37.8842 -37.8782 -37.8626
   -21.5115 -15.4140 -14.4314 -14.2300 -13.8682 -13.8508 -13.2593 -13.2275
   -13.0149 -12.9962 -12.9674 -12.9135 -12.8301 -12.7264 -12.7021 -12.6863
   -12.5173 -12.5099 -12.4582 -12.4473 -12.4339 -12.4230 -12.3800 -12.3663
   -12.3481 -12.2820 -12.2130 -12.1993 -12.1749 -12.1568 -12.1550 -12.1507
   -12.0547 -12.0373  -7.9417  -7.5422  -6.1704  -6.1183  -6.1051  -6.0859
    -6.0208  -5.8676  -5.8556  -5.8305  -5.7080  -5.5279  -5.4953  -5.4823
    -5.4552  -5.4424  -5.4333  -5.3875  -5.3701  -5.3206  -5.2972  -5.0638
    -5.0585  -5.0257  -5.0063  -4.8027  -4.6213  -4.5166  -4.4789  -4.4349
    -4.3904  -4.3707  -4.3446  -4.3069  -4.2403  -4.2256  -4.1877  -4.1561
    -4.1253  -4.1142  -4.0996  -4.0732  -4.0631  -4.0483  -4.0381  -3.6789
    -3.5649  -3.5032  -3.4718  -3.4371  -3.4124  -3.3830  -3.3626  -3.3063
    -3.2847  -3.2758  -3.2572  -3.2327  -3.2150  -3.1822  -3.1529  -3.1027
    -3.0583  -3.0453  -3.0015  -2.9499  -2.9318  -2.9047  -2.8420  -2.7579
    -2.7223  -2.6927  -2.6428  -2.6274  -2.5924  -2.5524  -2.5237  -2.4774
    -2.4390  -2.4249  -2.3886  -2.3105  -2.2728  -2.2464  -2.2374  -2.1690
    -2.1026  -2.0811  -2.0333  -2.0084  -2.0016  -1.9901  -1.9697  -1.9344
    -1.9177  -1.8967  -1.8741  -1.8637  -1.8490  -1.8368  -1.8273  -1.8213
    -1.7611  -1.7533  -1.7091  -1.7020  -1.6786  -1.6519  -1.6223  -1.6087
    -1.5807  -1.5469  -1.5156  -1.4858  -1.4181  -1.3804  -1.2963  -1.2784
    -1.2224  -1.1952  -1.1850  -1.1377  -1.1112  -1.0908  -1.0384  -0.9908
    -0.9656  -0.8837  -0.7274  -0.7125  -0.6349  -0.6150  -0.4783  -0.4499
    -0.4382  -0.4266  -0.3929  -0.3695  -0.2986  -0.0818   0.0068   0.0364
     0.1538   1.3164   1.7581

     occupation numbers 
     1.0000   1.0000   1.0000   1.0000   1.0000   1.0000   1.0000   1.0000
     1.0000   1.0000   1.0000   1.0000   1.0000   1.0000   1.0000   1.0000
     1.0000   1.0000   1.0000   1.0000   1.0000   1.0000   1.0000   1.0000
     1.0000   1.0000   1.0000   1.0000   1.0000   1.0000   1.0000   1.0000
     1.0000   1.0000   1.0000   1.0000   1.0000   1.0000   1.0000   1.0000
     1.0000   1.0000   1.0000   1.0000   1.0000   1.0000   1.0000   1.0000
     1.0000   1.0000   1.0000   1.0000   1.0000   1.0000   1.0000   1.0000
     1.0000   1.0000   1.0000   1.0000   1.0000   1.0000   1.0000   1.0000
     1.0000   1.0000   1.0000   1.0000   1.0000   1.0000   1.0000   1.0000
     1.0000   1.0000   1.0000   1.0000   1.0000   1.0000   1.0000   1.0000
     1.0000   1.0000   1.0000   1.0000   1.0000   1.0000   1.0000   1.0000
     1.0000   1.0000   1.0000   1.0000   1.0000   1.0000   1.0000   1.0000
     1.0000   1.0000   1.0000   1.0000   1.0000   1.0000   1.0000   1.0000
     1.0000   1.0000   1.0000   1.0000   1.0000   1.0000   1.0000   1.0000
     1.0000   1.0000   1.0000   1.0000   1.0000   1.0000   1.0000   1.0000
     1.0000   1.0000   1.0000   1.0000   1.0000   1.0000   1.0000   1.0000
     1.0000   1.0000   1.0000   1.0000   1.0000   1.0000   1.0000   1.0000
     1.0000   1.0000   1.0000   1.0000   1.0000   1.0000   1.0000   1.0000
     1.0000   1.0000   1.0000   1.0000   1.0000   1.0000   1.0000   1.0000
     1.0000   1.0000   1.0000   1.0000   1.0000   1.0000   1.0000   1.0000
     1.0000   1.0000   1.0000   1.0000   1.0000   1.0000   1.0000   1.0000
     1.0000   1.0000   1.0000   1.0000   1.0000   1.0000   1.0000   1.0000
     1.0000   1.0000   1.0000   1.0000   1.0000   1.0000   1.0000   1.0000
     1.0000   1.0000   1.0000   1.0000   1.0000   1.0000   1.0000   1.0000
     1.0000   1.0000   1.0000   1.0000   1.0000   1.0000   1.0000   1.0000
     1.0000   1.0000   1.0000   1.0000   1.0000   1.0000   1.0000   1.0000
     1.0000   1.0000   1.0000   1.0000   1.0000   1.0000   1.0000   1.0000
     1.0000   1.0000   1.0000   1.0000   1.0000   1.0000   1.0000   1.0000
     1.0000   1.0000   1.0000   1.0000   1.0000   1.0000   1.0000   1.0000
     1.0000   1.0000   1.0000   1.0000   1.0000   1.0000   1.0000   1.0000
     1.0000   1.0000   0.0000

          k = 0.2000 0.3464 0.0000 (112231 PWs)   bands (ev):

   -73.8137 -73.8098 -73.8068 -73.8046 -73.8025 -73.8012 -73.7985 -73.7961
   -73.7938 -73.7889 -73.7878 -73.7864 -73.7822 -73.7413 -73.7317 -73.7287
   -38.2050 -38.1959 -38.1952 -38.1725 -38.1672 -38.1583 -38.1484 -38.1412
   -38.1265 -38.1159 -38.1051 -38.0701 -38.0531 -38.0476 -38.0433 -38.0318
   -38.0270 -38.0224 -38.0170 -38.0143 -38.0109 -38.0054 -37.9987 -37.9970
   -37.9916 -37.9883 -37.9868 -37.9846 -37.9823 -37.9798 -37.9764 -37.9753
   -37.9698 -37.9657 -37.9573 -37.9519 -37.9492 -37.9464 -37.9376 -37.9332
   -37.9267 -37.9204 -37.9173 -37.9090 -37.8959 -37.8890 -37.8739 -37.8613
   -21.5115 -15.4140 -14.4713 -14.0983 -14.0569 -13.5629 -13.5609 -13.1688
   -13.1165 -13.0052 -12.9314 -12.8051 -12.7862 -12.7063 -12.6697 -12.6007
   -12.5912 -12.5739 -12.5689 -12.4538 -12.4222 -12.3878 -12.3736 -12.3099
   -12.2880 -12.2697 -12.2501 -12.2297 -12.2189 -12.1523 -12.1478 -12.1051
   -12.0940 -12.0338  -7.9417  -7.5422  -6.1779  -6.1694  -6.1392  -6.1189
    -6.1010  -5.7538  -5.7308  -5.7159  -5.6753  -5.6401  -5.5980  -5.5596
    -5.5009  -5.4693  -5.3506  -5.3281  -5.2801  -5.2708  -5.2387  -5.2219
    -5.0915  -4.8994  -4.8850  -4.8098  -4.7487  -4.5927  -4.4833  -4.4577
    -4.3907  -4.3612  -4.3335  -4.2980  -4.2726  -4.2592  -4.2291  -4.2212
    -4.1680  -4.1180  -4.1032  -4.0880  -4.0526  -3.7560  -3.7298  -3.7207
    -3.7130  -3.6877  -3.5971  -3.4898  -3.4218  -3.3901  -3.3447  -3.3143
    -3.2799  -3.2398  -3.2171  -3.1986  -3.1621  -3.1458  -3.0939  -3.0873
    -3.0327  -3.0005  -2.9649  -2.9436  -2.9356  -2.9179  -2.9031  -2.8905
    -2.7930  -2.7173  -2.6890  -2.6404  -2.6041  -2.5364  -2.5025  -2.4704
    -2.4537  -2.4249  -2.3802  -2.3538  -2.3043  -2.2087  -2.1711  -2.1534
    -2.1205  -2.1191  -2.0814  -2.0712  -1.9960  -1.9816  -1.9655  -1.9378
    -1.9164  -1.8926  -1.8688  -1.8445  -1.8292  -1.8149  -1.7865  -1.7379
    -1.7224  -1.7075  -1.6964  -1.6631  -1.6568  -1.6096  -1.5819  -1.5685
    -1.5600  -1.5336  -1.5214  -1.4944  -1.4142  -1.3822  -1.3684  -1.3557
    -1.2793  -1.2159  -1.1993  -1.1752  -1.1480  -1.1031  -1.0214  -0.9925
    -0.8679  -0.8364  -0.6744  -0.6647  -0.6305  -0.6212  -0.6079  -0.5330
    -0.5243  -0.4190  -0.3680  -0.2494  -0.2003  -0.1910  -0.1430   0.0804
     0.1655   1.3302   1.7284

     occupation numbers 
     1.0000   1.0000   1.0000   1.0000   1.0000   1.0000   1.0000   1.0000
     1.0000   1.0000   1.0000   1.0000   1.0000   1.0000   1.0000   1.0000
     1.0000   1.0000   1.0000   1.0000   1.0000   1.0000   1.0000   1.0000
     1.0000   1.0000   1.0000   1.0000   1.0000   1.0000   1.0000   1.0000
     1.0000   1.0000   1.0000   1.0000   1.0000   1.0000   1.0000   1.0000
     1.0000   1.0000   1.0000   1.0000   1.0000   1.0000   1.0000   1.0000
     1.0000   1.0000   1.0000   1.0000   1.0000   1.0000   1.0000   1.0000
     1.0000   1.0000   1.0000   1.0000   1.0000   1.0000   1.0000   1.0000
     1.0000   1.0000   1.0000   1.0000   1.0000   1.0000   1.0000   1.0000
     1.0000   1.0000   1.0000   1.0000   1.0000   1.0000   1.0000   1.0000
     1.0000   1.0000   1.0000   1.0000   1.0000   1.0000   1.0000   1.0000
     1.0000   1.0000   1.0000   1.0000   1.0000   1.0000   1.0000   1.0000
     1.0000   1.0000   1.0000   1.0000   1.0000   1.0000   1.0000   1.0000
     1.0000   1.0000   1.0000   1.0000   1.0000   1.0000   1.0000   1.0000
     1.0000   1.0000   1.0000   1.0000   1.0000   1.0000   1.0000   1.0000
     1.0000   1.0000   1.0000   1.0000   1.0000   1.0000   1.0000   1.0000
     1.0000   1.0000   1.0000   1.0000   1.0000   1.0000   1.0000   1.0000
     1.0000   1.0000   1.0000   1.0000   1.0000   1.0000   1.0000   1.0000
     1.0000   1.0000   1.0000   1.0000   1.0000   1.0000   1.0000   1.0000
     1.0000   1.0000   1.0000   1.0000   1.0000   1.0000   1.0000   1.0000
     1.0000   1.0000   1.0000   1.0000   1.0000   1.0000   1.0000   1.0000
     1.0000   1.0000   1.0000   1.0000   1.0000   1.0000   1.0000   1.0000
     1.0000   1.0000   1.0000   1.0000   1.0000   1.0000   1.0000   1.0000
     1.0000   1.0000   1.0000   1.0000   1.0000   1.0000   1.0000   1.0000
     1.0000   1.0000   1.0000   1.0000   1.0000   1.0000   1.0000   1.0000
     1.0000   1.0000   1.0000   1.0000   1.0000   1.0000   1.0000   1.0000
     1.0000   1.0000   1.0000   1.0000   1.0000   1.0000   1.0000   1.0000
     1.0000   1.0000   1.0000   1.0000   1.0000   1.0000   1.0000   1.0000
     1.0000   1.0000   1.0000   1.0000   1.0000   1.0000   1.0000   1.0000
     1.0000   1.0000   1.0000   1.0000   1.0000   1.0000   1.0000   1.0000
     1.0000   1.0000   0.0000

          k = 0.2000 0.5774 0.0000 (112237 PWs)   bands (ev):

   -73.8136 -73.8098 -73.8070 -73.8045 -73.8025 -73.8012 -73.7983 -73.7960
   -73.7940 -73.7889 -73.7879 -73.7864 -73.7822 -73.7413 -73.7317 -73.7287
   -38.1958 -38.1888 -38.1801 -38.1760 -38.1703 -38.1664 -38.1583 -38.1430
   -38.1390 -38.1229 -38.0856 -38.0842 -38.0763 -38.0449 -38.0411 -38.0345
   -38.0291 -38.0227 -38.0134 -38.0098 -38.0037 -38.0000 -37.9981 -37.9962
   -37.9950 -37.9931 -37.9884 -37.9844 -37.9819 -37.9762 -37.9691 -37.9650
   -37.9599 -37.9556 -37.9534 -37.9505 -37.9493 -37.9418 -37.9381 -37.9345
   -37.9313 -37.9244 -37.9202 -37.9161 -37.9043 -37.8867 -37.8744 -37.8660
   -21.5115 -15.4140 -14.3315 -14.2895 -14.1115 -13.5918 -13.2958 -13.2909
   -12.9475 -12.9442 -12.8852 -12.8499 -12.8376 -12.7997 -12.7902 -12.6549
   -12.6276 -12.5998 -12.4881 -12.4815 -12.3799 -12.3683 -12.3548 -12.3214
   -12.3069 -12.2950 -12.2556 -12.2311 -12.2301 -12.1281 -12.1180 -12.1156
   -12.0768 -12.0143  -7.9417  -7.5422  -6.1671  -6.0441  -5.9981  -5.9814
    -5.9148  -5.8897  -5.8704  -5.8437  -5.8050  -5.7398  -5.6814  -5.6181
    -5.6096  -5.5369  -5.3579  -5.2602  -5.2502  -5.2132  -5.1981  -5.1660
    -5.1499  -4.8506  -4.8269  -4.7434  -4.6269  -4.5709  -4.5412  -4.5140
    -4.4683  -4.4114  -4.3918  -4.3117  -4.3055  -4.2353  -4.2280  -4.2078
    -4.1817  -4.1609  -4.1185  -4.0921  -3.9490  -3.9456  -3.7841  -3.6564
    -3.6339  -3.5595  -3.4268  -3.3830  -3.3500  -3.3175  -3.2974  -3.2792
    -3.2645  -3.2552  -3.2372  -3.2276  -3.2103  -3.1947  -3.1353  -3.1161
    -3.0920  -3.0739  -3.0561  -3.0240  -2.9919  -2.9218  -2.8677  -2.8115
    -2.7289  -2.6978  -2.6786  -2.6557  -2.5993  -2.5397  -2.4929  -2.4413
    -2.3844  -2.3266  -2.3143  -2.3001  -2.2448  -2.1894  -2.1669  -2.1239
    -2.1078  -2.0930  -2.0681  -2.0465  -2.0062  -1.9727  -1.9536  -1.9427
    -1.9245  -1.9049  -1.8854  -1.8691  -1.8606  -1.8480  -1.8375  -1.8279
    -1.8105  -1.7710  -1.7505  -1.7252  -1.6937  -1.6717  -1.6579  -1.6356
    -1.6020  -1.5604  -1.5429  -1.4902  -1.4721  -1.4575  -1.3916  -1.3203
    -1.2658  -1.1848  -1.1515  -1.1336  -1.0862  -1.0726  -0.9980  -0.9747
    -0.8064  -0.7913  -0.6951  -0.6828  -0.6498  -0.6356  -0.5855  -0.5745
    -0.5564  -0.3922  -0.2714  -0.2622  -0.1800  -0.1169  -0.0565   0.1209
     0.1971   1.3383   1.7415

     occupation numbers 
     1.0000   1.0000   1.0000   1.0000   1.0000   1.0000   1.0000   1.0000
     1.0000   1.0000   1.0000   1.0000   1.0000   1.0000   1.0000   1.0000
     1.0000   1.0000   1.0000   1.0000   1.0000   1.0000   1.0000   1.0000
     1.0000   1.0000   1.0000   1.0000   1.0000   1.0000   1.0000   1.0000
     1.0000   1.0000   1.0000   1.0000   1.0000   1.0000   1.0000   1.0000
     1.0000   1.0000   1.0000   1.0000   1.0000   1.0000   1.0000   1.0000
     1.0000   1.0000   1.0000   1.0000   1.0000   1.0000   1.0000   1.0000
     1.0000   1.0000   1.0000   1.0000   1.0000   1.0000   1.0000   1.0000
     1.0000   1.0000   1.0000   1.0000   1.0000   1.0000   1.0000   1.0000
     1.0000   1.0000   1.0000   1.0000   1.0000   1.0000   1.0000   1.0000
     1.0000   1.0000   1.0000   1.0000   1.0000   1.0000   1.0000   1.0000
     1.0000   1.0000   1.0000   1.0000   1.0000   1.0000   1.0000   1.0000
     1.0000   1.0000   1.0000   1.0000   1.0000   1.0000   1.0000   1.0000
     1.0000   1.0000   1.0000   1.0000   1.0000   1.0000   1.0000   1.0000
     1.0000   1.0000   1.0000   1.0000   1.0000   1.0000   1.0000   1.0000
     1.0000   1.0000   1.0000   1.0000   1.0000   1.0000   1.0000   1.0000
     1.0000   1.0000   1.0000   1.0000   1.0000   1.0000   1.0000   1.0000
     1.0000   1.0000   1.0000   1.0000   1.0000   1.0000   1.0000   1.0000
     1.0000   1.0000   1.0000   1.0000   1.0000   1.0000   1.0000   1.0000
     1.0000   1.0000   1.0000   1.0000   1.0000   1.0000   1.0000   1.0000
     1.0000   1.0000   1.0000   1.0000   1.0000   1.0000   1.0000   1.0000
     1.0000   1.0000   1.0000   1.0000   1.0000   1.0000   1.0000   1.0000
     1.0000   1.0000   1.0000   1.0000   1.0000   1.0000   1.0000   1.0000
     1.0000   1.0000   1.0000   1.0000   1.0000   1.0000   1.0000   1.0000
     1.0000   1.0000   1.0000   1.0000   1.0000   1.0000   1.0000   1.0000
     1.0000   1.0000   1.0000   1.0000   1.0000   1.0000   1.0000   1.0000
     1.0000   1.0000   1.0000   1.0000   1.0000   1.0000   1.0000   1.0000
     1.0000   1.0000   1.0000   1.0000   1.0000   1.0000   1.0000   1.0000
     1.0000   1.0000   1.0000   1.0000   1.0000   1.0000   1.0000   1.0000
     1.0000   1.0000   1.0000   1.0000   1.0000   1.0000   1.0000   1.0000
     1.0000   1.0000   0.0000

          k =-0.2000 0.1155 0.0000 (112171 PWs)   bands (ev):

   -73.8139 -73.8096 -73.8065 -73.8047 -73.8023 -73.8017 -73.7984 -73.7960
   -73.7939 -73.7889 -73.7879 -73.7863 -73.7822 -73.7413 -73.7317 -73.7287
   -38.2108 -38.2105 -38.2059 -38.1620 -38.1588 -38.1561 -38.1505 -38.1390
   -38.1320 -38.0959 -38.0719 -38.0697 -38.0464 -38.0427 -38.0375 -38.0283
   -38.0223 -38.0205 -38.0195 -38.0181 -38.0115 -38.0098 -38.0086 -38.0051
   -37.9993 -37.9944 -37.9928 -37.9914 -37.9882 -37.9869 -37.9846 -37.9827
   -37.9793 -37.9763 -37.9554 -37.9523 -37.9497 -37.9457 -37.9356 -37.9277
   -37.9239 -37.9140 -37.9099 -37.9034 -37.8994 -37.8894 -37.8637 -37.8597
   -21.5115 -15.4140 -14.5532 -13.9721 -13.7979 -13.7855 -13.4755 -13.4708
   -13.3222 -12.9637 -12.7873 -12.7530 -12.6887 -12.6789 -12.6549 -12.5837
   -12.5615 -12.5181 -12.4938 -12.4762 -12.4657 -12.4304 -12.4211 -12.3045
   -12.2919 -12.2593 -12.2421 -12.2107 -12.1845 -12.1730 -12.1660 -12.1496
   -12.0931 -12.0790  -7.9417  -7.5422  -6.2787  -6.2583  -6.2381  -6.2253
    -6.1583  -5.6680  -5.6319  -5.6192  -5.5438  -5.5258  -5.4854  -5.4656
    -5.4326  -5.4137  -5.3799  -5.3240  -5.3081  -5.2779  -5.2726  -5.0758
    -5.0593  -5.0115  -4.9970  -4.9476  -4.7360  -4.7324  -4.5626  -4.5038
    -4.4397  -4.3665  -4.3351  -4.2729  -4.2010  -4.1573  -4.1424  -4.1190
    -4.0958  -4.0609  -4.0366  -3.9924  -3.9798  -3.9112  -3.9011  -3.8925
    -3.6496  -3.5808  -3.5286  -3.4960  -3.4710  -3.4548  -3.4403  -3.3703
    -3.3617  -3.3075  -3.2907  -3.2735  -3.2531  -3.2007  -3.1893  -3.1489
    -3.0739  -2.9678  -2.9445  -2.9115  -2.8134  -2.7884  -2.7640  -2.7384
    -2.7154  -2.7028  -2.6901  -2.6807  -2.6622  -2.6343  -2.5803  -2.5381
    -2.4933  -2.4762  -2.4609  -2.4263  -2.3542  -2.3005  -2.1778  -2.1648
    -2.1131  -2.0651  -2.0127  -1.9912  -1.9638  -1.9534  -1.9228  -1.8988
    -1.8735  -1.8540  -1.8302  -1.8099  -1.7899  -1.7616  -1.7316  -1.7178
    -1.7022  -1.6904  -1.6726  -1.6530  -1.6430  -1.5982  -1.5647  -1.5431
    -1.5138  -1.4946  -1.4880  -1.4305  -1.4221  -1.3578  -1.3427  -1.3219
    -1.3049  -1.2714  -1.2435  -1.2131  -1.1450  -1.0711  -1.0350  -0.9921
    -0.8932  -0.7685  -0.7506  -0.7306  -0.5777  -0.5622  -0.5416  -0.5267
    -0.5101  -0.5013  -0.4051  -0.3749  -0.3503  -0.2415  -0.1647  -0.1369
     0.1989   1.3300   1.6816

     occupation numbers 
     1.0000   1.0000   1.0000   1.0000   1.0000   1.0000   1.0000   1.0000
     1.0000   1.0000   1.0000   1.0000   1.0000   1.0000   1.0000   1.0000
     1.0000   1.0000   1.0000   1.0000   1.0000   1.0000   1.0000   1.0000
     1.0000   1.0000   1.0000   1.0000   1.0000   1.0000   1.0000   1.0000
     1.0000   1.0000   1.0000   1.0000   1.0000   1.0000   1.0000   1.0000
     1.0000   1.0000   1.0000   1.0000   1.0000   1.0000   1.0000   1.0000
     1.0000   1.0000   1.0000   1.0000   1.0000   1.0000   1.0000   1.0000
     1.0000   1.0000   1.0000   1.0000   1.0000   1.0000   1.0000   1.0000
     1.0000   1.0000   1.0000   1.0000   1.0000   1.0000   1.0000   1.0000
     1.0000   1.0000   1.0000   1.0000   1.0000   1.0000   1.0000   1.0000
     1.0000   1.0000   1.0000   1.0000   1.0000   1.0000   1.0000   1.0000
     1.0000   1.0000   1.0000   1.0000   1.0000   1.0000   1.0000   1.0000
     1.0000   1.0000   1.0000   1.0000   1.0000   1.0000   1.0000   1.0000
     1.0000   1.0000   1.0000   1.0000   1.0000   1.0000   1.0000   1.0000
     1.0000   1.0000   1.0000   1.0000   1.0000   1.0000   1.0000   1.0000
     1.0000   1.0000   1.0000   1.0000   1.0000   1.0000   1.0000   1.0000
     1.0000   1.0000   1.0000   1.0000   1.0000   1.0000   1.0000   1.0000
     1.0000   1.0000   1.0000   1.0000   1.0000   1.0000   1.0000   1.0000
     1.0000   1.0000   1.0000   1.0000   1.0000   1.0000   1.0000   1.0000
     1.0000   1.0000   1.0000   1.0000   1.0000   1.0000   1.0000   1.0000
     1.0000   1.0000   1.0000   1.0000   1.0000   1.0000   1.0000   1.0000
     1.0000   1.0000   1.0000   1.0000   1.0000   1.0000   1.0000   1.0000
     1.0000   1.0000   1.0000   1.0000   1.0000   1.0000   1.0000   1.0000
     1.0000   1.0000   1.0000   1.0000   1.0000   1.0000   1.0000   1.0000
     1.0000   1.0000   1.0000   1.0000   1.0000   1.0000   1.0000   1.0000
     1.0000   1.0000   1.0000   1.0000   1.0000   1.0000   1.0000   1.0000
     1.0000   1.0000   1.0000   1.0000   1.0000   1.0000   1.0000   1.0000
     1.0000   1.0000   1.0000   1.0000   1.0000   1.0000   1.0000   1.0000
     1.0000   1.0000   1.0000   1.0000   1.0000   1.0000   1.0000   1.0000
     1.0000   1.0000   1.0000   1.0000   1.0000   1.0000   1.0000   1.0000
     1.0000   1.0000   0.0000

          k = 0.2000 0.1155 0.0000 (112171 PWs)   bands (ev):

   -73.8138 -73.8096 -73.8065 -73.8047 -73.8023 -73.8015 -73.7986 -73.7961
   -73.7937 -73.7889 -73.7879 -73.7864 -73.7822 -73.7413 -73.7317 -73.7287
   -38.2115 -38.2093 -38.2064 -38.1633 -38.1583 -38.1553 -38.1498 -38.1392
   -38.1325 -38.0960 -38.0722 -38.0696 -38.0465 -38.0416 -38.0389 -38.0283
   -38.0228 -38.0205 -38.0188 -38.0172 -38.0125 -38.0097 -38.0077 -38.0052
   -37.9997 -37.9943 -37.9933 -37.9900 -37.9879 -37.9871 -37.9858 -37.9827
   -37.9793 -37.9762 -37.9545 -37.9535 -37.9498 -37.9453 -37.9356 -37.9278
   -37.9235 -37.9135 -37.9105 -37.9034 -37.8993 -37.8897 -37.8656 -37.8579
   -21.5115 -15.4140 -14.5532 -13.9723 -13.7972 -13.7860 -13.4744 -13.4726
   -13.3215 -12.9638 -12.7872 -12.7524 -12.6880 -12.6805 -12.6552 -12.5836
   -12.5626 -12.5169 -12.4915 -12.4780 -12.4656 -12.4323 -12.4201 -12.3002
   -12.2917 -12.2621 -12.2451 -12.2062 -12.1901 -12.1706 -12.1684 -12.1467
   -12.0904 -12.0814  -7.9417  -7.5422  -6.2729  -6.2608  -6.2412  -6.2261
    -6.1583  -5.6608  -5.6375  -5.6159  -5.5436  -5.5309  -5.4844  -5.4672
    -5.4370  -5.4188  -5.3669  -5.3235  -5.3110  -5.2783  -5.2713  -5.0732
    -5.0663  -5.0098  -5.0003  -4.9418  -4.7373  -4.7327  -4.5564  -4.5038
    -4.4344  -4.3873  -4.3345  -4.2675  -4.1999  -4.1580  -4.1445  -4.1195
    -4.0953  -4.0518  -4.0362  -3.9991  -3.9788  -3.9085  -3.9048  -3.8948
    -3.6420  -3.5619  -3.5437  -3.5019  -3.4621  -3.4525  -3.4352  -3.3774
    -3.3676  -3.3044  -3.2949  -3.2777  -3.2444  -3.2069  -3.1922  -3.1428
    -3.0822  -2.9813  -2.9345  -2.9002  -2.8105  -2.7901  -2.7689  -2.7402
    -2.7267  -2.7034  -2.6919  -2.6813  -2.6481  -2.6218  -2.5733  -2.5417
    -2.5176  -2.4823  -2.4642  -2.4138  -2.3508  -2.2934  -2.1886  -2.1629
    -2.1071  -2.0658  -2.0105  -1.9828  -1.9582  -1.9460  -1.9146  -1.9005
    -1.8929  -1.8665  -1.8284  -1.8101  -1.7957  -1.7652  -1.7330  -1.7258
    -1.7006  -1.6830  -1.6701  -1.6465  -1.6278  -1.6091  -1.5834  -1.5309
    -1.5251  -1.4963  -1.4477  -1.4376  -1.4183  -1.3931  -1.3450  -1.3052
    -1.3008  -1.2898  -1.2387  -1.1968  -1.1516  -1.0513  -1.0362  -1.0083
    -0.8906  -0.7588  -0.7493  -0.7447  -0.5885  -0.5532  -0.5412  -0.5261
    -0.5129  -0.5055  -0.4010  -0.3763  -0.3453  -0.2424  -0.1607  -0.1407
     0.1996   1.3248   1.6882

     occupation numbers 
     1.0000   1.0000   1.0000   1.0000   1.0000   1.0000   1.0000   1.0000
     1.0000   1.0000   1.0000   1.0000   1.0000   1.0000   1.0000   1.0000
     1.0000   1.0000   1.0000   1.0000   1.0000   1.0000   1.0000   1.0000
     1.0000   1.0000   1.0000   1.0000   1.0000   1.0000   1.0000   1.0000
     1.0000   1.0000   1.0000   1.0000   1.0000   1.0000   1.0000   1.0000
     1.0000   1.0000   1.0000   1.0000   1.0000   1.0000   1.0000   1.0000
     1.0000   1.0000   1.0000   1.0000   1.0000   1.0000   1.0000   1.0000
     1.0000   1.0000   1.0000   1.0000   1.0000   1.0000   1.0000   1.0000
     1.0000   1.0000   1.0000   1.0000   1.0000   1.0000   1.0000   1.0000
     1.0000   1.0000   1.0000   1.0000   1.0000   1.0000   1.0000   1.0000
     1.0000   1.0000   1.0000   1.0000   1.0000   1.0000   1.0000   1.0000
     1.0000   1.0000   1.0000   1.0000   1.0000   1.0000   1.0000   1.0000
     1.0000   1.0000   1.0000   1.0000   1.0000   1.0000   1.0000   1.0000
     1.0000   1.0000   1.0000   1.0000   1.0000   1.0000   1.0000   1.0000
     1.0000   1.0000   1.0000   1.0000   1.0000   1.0000   1.0000   1.0000
     1.0000   1.0000   1.0000   1.0000   1.0000   1.0000   1.0000   1.0000
     1.0000   1.0000   1.0000   1.0000   1.0000   1.0000   1.0000   1.0000
     1.0000   1.0000   1.0000   1.0000   1.0000   1.0000   1.0000   1.0000
     1.0000   1.0000   1.0000   1.0000   1.0000   1.0000   1.0000   1.0000
     1.0000   1.0000   1.0000   1.0000   1.0000   1.0000   1.0000   1.0000
     1.0000   1.0000   1.0000   1.0000   1.0000   1.0000   1.0000   1.0000
     1.0000   1.0000   1.0000   1.0000   1.0000   1.0000   1.0000   1.0000
     1.0000   1.0000   1.0000   1.0000   1.0000   1.0000   1.0000   1.0000
     1.0000   1.0000   1.0000   1.0000   1.0000   1.0000   1.0000   1.0000
     1.0000   1.0000   1.0000   1.0000   1.0000   1.0000   1.0000   1.0000
     1.0000   1.0000   1.0000   1.0000   1.0000   1.0000   1.0000   1.0000
     1.0000   1.0000   1.0000   1.0000   1.0000   1.0000   1.0000   1.0000
     1.0000   1.0000   1.0000   1.0000   1.0000   1.0000   1.0000   1.0000
     1.0000   1.0000   1.0000   1.0000   1.0000   1.0000   1.0000   1.0000
     1.0000   1.0000   1.0000   1.0000   1.0000   1.0000   1.0000   1.0000
     1.0000   1.0000   0.0000

          k =-0.4000 0.2309 0.0000 (112236 PWs)   bands (ev):

   -73.8137 -73.8098 -73.8067 -73.8048 -73.8020 -73.8017 -73.7983 -73.7960
   -73.7939 -73.7890 -73.7879 -73.7863 -73.7822 -73.7413 -73.7317 -73.7287
   -38.2002 -38.1977 -38.1843 -38.1791 -38.1724 -38.1567 -38.1546 -38.1385
   -38.1231 -38.1170 -38.0973 -38.0935 -38.0567 -38.0505 -38.0427 -38.0341
   -38.0238 -38.0199 -38.0072 -38.0069 -38.0051 -38.0031 -37.9992 -37.9961
   -37.9937 -37.9910 -37.9901 -37.9884 -37.9850 -37.9814 -37.9763 -37.9741
   -37.9673 -37.9599 -37.9572 -37.9511 -37.9447 -37.9419 -37.9394 -37.9361
   -37.9286 -37.9228 -37.9169 -37.9091 -37.8997 -37.8849 -37.8773 -37.8630
   -21.5115 -15.4140 -14.4316 -14.2293 -13.8652 -13.8550 -13.2452 -13.2400
   -13.0196 -12.9935 -12.9718 -12.9076 -12.8299 -12.7286 -12.7009 -12.6825
   -12.5301 -12.5041 -12.4582 -12.4501 -12.4279 -12.4225 -12.3836 -12.3607
   -12.3501 -12.2801 -12.2187 -12.1967 -12.1739 -12.1589 -12.1530 -12.1501
   -12.0542 -12.0381  -7.9417  -7.5422  -6.1700  -6.1244  -6.1024  -6.0843
    -6.0179  -5.8709  -5.8518  -5.8325  -5.7064  -5.5250  -5.5061  -5.4807
    -5.4496  -5.4419  -5.4340  -5.3852  -5.3759  -5.3128  -5.3052  -5.0753
    -5.0533  -5.0200  -5.0032  -4.7979  -4.5992  -4.5444  -4.4718  -4.4360
    -4.4082  -4.3682  -4.3482  -4.3044  -4.2406  -4.2172  -4.1919  -4.1566
    -4.1182  -4.1096  -4.0977  -4.0717  -4.0647  -4.0484  -4.0375  -3.6724
    -3.5626  -3.5149  -3.4691  -3.4502  -3.4201  -3.3905  -3.3521  -3.3130
    -3.2842  -3.2750  -3.2553  -3.2379  -3.2097  -3.1917  -3.1412  -3.1117
    -3.0628  -3.0322  -3.0060  -2.9448  -2.9258  -2.8940  -2.8195  -2.7593
    -2.7146  -2.6963  -2.6457  -2.6226  -2.5888  -2.5741  -2.5445  -2.4757
    -2.4234  -2.4177  -2.3880  -2.3258  -2.2745  -2.2466  -2.2382  -2.1608
    -2.1145  -2.0929  -2.0477  -2.0248  -2.0056  -1.9867  -1.9504  -1.9164
    -1.9029  -1.8899  -1.8797  -1.8618  -1.8533  -1.8454  -1.8340  -1.8154
    -1.7734  -1.7456  -1.7030  -1.6827  -1.6803  -1.6549  -1.6404  -1.6065
    -1.5801  -1.5480  -1.4917  -1.4625  -1.4414  -1.3476  -1.3193  -1.2901
    -1.2583  -1.2067  -1.1681  -1.1224  -1.1119  -1.0927  -1.0663  -0.9801
    -0.9538  -0.8693  -0.7277  -0.7114  -0.6334  -0.6162  -0.4965  -0.4481
    -0.4406  -0.4186  -0.3979  -0.3676  -0.2858  -0.0917   0.0079   0.0391
     0.1492   1.3764   1.6891

     occupation numbers 
     1.0000   1.0000   1.0000   1.0000   1.0000   1.0000   1.0000   1.0000
     1.0000   1.0000   1.0000   1.0000   1.0000   1.0000   1.0000   1.0000
     1.0000   1.0000   1.0000   1.0000   1.0000   1.0000   1.0000   1.0000
     1.0000   1.0000   1.0000   1.0000   1.0000   1.0000   1.0000   1.0000
     1.0000   1.0000   1.0000   1.0000   1.0000   1.0000   1.0000   1.0000
     1.0000   1.0000   1.0000   1.0000   1.0000   1.0000   1.0000   1.0000
     1.0000   1.0000   1.0000   1.0000   1.0000   1.0000   1.0000   1.0000
     1.0000   1.0000   1.0000   1.0000   1.0000   1.0000   1.0000   1.0000
     1.0000   1.0000   1.0000   1.0000   1.0000   1.0000   1.0000   1.0000
     1.0000   1.0000   1.0000   1.0000   1.0000   1.0000   1.0000   1.0000
     1.0000   1.0000   1.0000   1.0000   1.0000   1.0000   1.0000   1.0000
     1.0000   1.0000   1.0000   1.0000   1.0000   1.0000   1.0000   1.0000
     1.0000   1.0000   1.0000   1.0000   1.0000   1.0000   1.0000   1.0000
     1.0000   1.0000   1.0000   1.0000   1.0000   1.0000   1.0000   1.0000
     1.0000   1.0000   1.0000   1.0000   1.0000   1.0000   1.0000   1.0000
     1.0000   1.0000   1.0000   1.0000   1.0000   1.0000   1.0000   1.0000
     1.0000   1.0000   1.0000   1.0000   1.0000   1.0000   1.0000   1.0000
     1.0000   1.0000   1.0000   1.0000   1.0000   1.0000   1.0000   1.0000
     1.0000   1.0000   1.0000   1.0000   1.0000   1.0000   1.0000   1.0000
     1.0000   1.0000   1.0000   1.0000   1.0000   1.0000   1.0000   1.0000
     1.0000   1.0000   1.0000   1.0000   1.0000   1.0000   1.0000   1.0000
     1.0000   1.0000   1.0000   1.0000   1.0000   1.0000   1.0000   1.0000
     1.0000   1.0000   1.0000   1.0000   1.0000   1.0000   1.0000   1.0000
     1.0000   1.0000   1.0000   1.0000   1.0000   1.0000   1.0000   1.0000
     1.0000   1.0000   1.0000   1.0000   1.0000   1.0000   1.0000   1.0000
     1.0000   1.0000   1.0000   1.0000   1.0000   1.0000   1.0000   1.0000
     1.0000   1.0000   1.0000   1.0000   1.0000   1.0000   1.0000   1.0000
     1.0000   1.0000   1.0000   1.0000   1.0000   1.0000   1.0000   1.0000
     1.0000   1.0000   1.0000   1.0000   1.0000   1.0000   1.0000   1.0000
     1.0000   1.0000   1.0000   1.0000   1.0000   1.0000   1.0000   1.0000
     1.0000   1.0000   0.0000

          k = 0.4000 0.2309 0.0000 (112236 PWs)   bands (ev):

   -73.8136 -73.8100 -73.8066 -73.8047 -73.8022 -73.8012 -73.7988 -73.7961
   -73.7936 -73.7891 -73.7878 -73.7864 -73.7822 -73.7413 -73.7317 -73.7287
   -38.1990 -38.1985 -38.1848 -38.1805 -38.1707 -38.1561 -38.1549 -38.1393
   -38.1225 -38.1168 -38.0983 -38.0937 -38.0553 -38.0518 -38.0426 -38.0343
   -38.0243 -38.0182 -38.0076 -38.0068 -38.0056 -38.0033 -37.9993 -37.9967
   -37.9919 -37.9915 -37.9897 -37.9875 -37.9860 -37.9816 -37.9763 -37.9738
   -37.9688 -37.9593 -37.9575 -37.9507 -37.9437 -37.9421 -37.9397 -37.9352
   -37.9274 -37.9237 -37.9177 -37.9100 -37.8977 -37.8858 -37.8807 -37.8604
   -21.5115 -15.4140 -14.4315 -14.2295 -13.8647 -13.8554 -13.2448 -13.2412
   -13.0166 -12.9931 -12.9739 -12.9068 -12.8305 -12.7263 -12.7028 -12.6834
   -12.5378 -12.4963 -12.4623 -12.4474 -12.4269 -12.4225 -12.3842 -12.3593
   -12.3478 -12.2799 -12.2257 -12.1947 -12.1757 -12.1580 -12.1532 -12.1475
   -12.0514 -12.0407  -7.9417  -7.5422  -6.1698  -6.1151  -6.1060  -6.0829
    -6.0306  -5.8636  -5.8519  -5.8294  -5.7110  -5.5267  -5.5053  -5.4835
    -5.4449  -5.4437  -5.4358  -5.3848  -5.3777  -5.3104  -5.3040  -5.0681
    -5.0647  -5.0183  -5.0074  -4.7709  -4.6086  -4.5531  -4.4782  -4.4460
    -4.4144  -4.3674  -4.3444  -4.3007  -4.2350  -4.2216  -4.1875  -4.1539
    -4.1217  -4.1119  -4.0986  -4.0732  -4.0600  -4.0462  -4.0388  -3.6593
    -3.5567  -3.5159  -3.4580  -3.4443  -3.4240  -3.3943  -3.3544  -3.3211
    -3.2867  -3.2710  -3.2495  -3.2319  -3.2145  -3.1988  -3.1309  -3.1126
    -3.0717  -3.0523  -3.0125  -2.9456  -2.9239  -2.8982  -2.8280  -2.7600
    -2.7119  -2.6788  -2.6345  -2.6122  -2.6086  -2.5927  -2.5028  -2.4868
    -2.4490  -2.4246  -2.3663  -2.3255  -2.2686  -2.2531  -2.2379  -2.1414
    -2.1113  -2.0991  -2.0327  -2.0050  -1.9962  -1.9775  -1.9679  -1.9521
    -1.9256  -1.8951  -1.8807  -1.8600  -1.8471  -1.8416  -1.8332  -1.8107
    -1.7932  -1.7338  -1.7157  -1.6927  -1.6841  -1.6331  -1.6209  -1.6144
    -1.5910  -1.5440  -1.5013  -1.4886  -1.4069  -1.3553  -1.3026  -1.2837
    -1.2463  -1.2275  -1.1856  -1.1301  -1.1133  -1.0546  -1.0411  -0.9900
    -0.9660  -0.8772  -0.7239  -0.7178  -0.6329  -0.6225  -0.5043  -0.4516
    -0.4427  -0.4161  -0.4003  -0.3562  -0.2804  -0.0925   0.0099   0.0352
     0.1517   1.3603   1.7096

     occupation numbers 
     1.0000   1.0000   1.0000   1.0000   1.0000   1.0000   1.0000   1.0000
     1.0000   1.0000   1.0000   1.0000   1.0000   1.0000   1.0000   1.0000
     1.0000   1.0000   1.0000   1.0000   1.0000   1.0000   1.0000   1.0000
     1.0000   1.0000   1.0000   1.0000   1.0000   1.0000   1.0000   1.0000
     1.0000   1.0000   1.0000   1.0000   1.0000   1.0000   1.0000   1.0000
     1.0000   1.0000   1.0000   1.0000   1.0000   1.0000   1.0000   1.0000
     1.0000   1.0000   1.0000   1.0000   1.0000   1.0000   1.0000   1.0000
     1.0000   1.0000   1.0000   1.0000   1.0000   1.0000   1.0000   1.0000
     1.0000   1.0000   1.0000   1.0000   1.0000   1.0000   1.0000   1.0000
     1.0000   1.0000   1.0000   1.0000   1.0000   1.0000   1.0000   1.0000
     1.0000   1.0000   1.0000   1.0000   1.0000   1.0000   1.0000   1.0000
     1.0000   1.0000   1.0000   1.0000   1.0000   1.0000   1.0000   1.0000
     1.0000   1.0000   1.0000   1.0000   1.0000   1.0000   1.0000   1.0000
     1.0000   1.0000   1.0000   1.0000   1.0000   1.0000   1.0000   1.0000
     1.0000   1.0000   1.0000   1.0000   1.0000   1.0000   1.0000   1.0000
     1.0000   1.0000   1.0000   1.0000   1.0000   1.0000   1.0000   1.0000
     1.0000   1.0000   1.0000   1.0000   1.0000   1.0000   1.0000   1.0000
     1.0000   1.0000   1.0000   1.0000   1.0000   1.0000   1.0000   1.0000
     1.0000   1.0000   1.0000   1.0000   1.0000   1.0000   1.0000   1.0000
     1.0000   1.0000   1.0000   1.0000   1.0000   1.0000   1.0000   1.0000
     1.0000   1.0000   1.0000   1.0000   1.0000   1.0000   1.0000   1.0000
     1.0000   1.0000   1.0000   1.0000   1.0000   1.0000   1.0000   1.0000
     1.0000   1.0000   1.0000   1.0000   1.0000   1.0000   1.0000   1.0000
     1.0000   1.0000   1.0000   1.0000   1.0000   1.0000   1.0000   1.0000
     1.0000   1.0000   1.0000   1.0000   1.0000   1.0000   1.0000   1.0000
     1.0000   1.0000   1.0000   1.0000   1.0000   1.0000   1.0000   1.0000
     1.0000   1.0000   1.0000   1.0000   1.0000   1.0000   1.0000   1.0000
     1.0000   1.0000   1.0000   1.0000   1.0000   1.0000   1.0000   1.0000
     1.0000   1.0000   1.0000   1.0000   1.0000   1.0000   1.0000   1.0000
     1.0000   1.0000   1.0000   1.0000   1.0000   1.0000   1.0000   1.0000
     1.0000   1.0000   0.0000

          k =-0.2000 0.3464 0.0000 (112231 PWs)   bands (ev):

   -73.8137 -73.8097 -73.8069 -73.8046 -73.8025 -73.8014 -73.7983 -73.7960
   -73.7940 -73.7889 -73.7879 -73.7864 -73.7822 -73.7413 -73.7317 -73.7287
   -38.2052 -38.1967 -38.1941 -38.1721 -38.1669 -38.1589 -38.1485 -38.1418
   -38.1260 -38.1178 -38.1023 -38.0695 -38.0545 -38.0480 -38.0435 -38.0315
   -38.0272 -38.0220 -38.0167 -38.0156 -38.0105 -38.0044 -37.9987 -37.9963
   -37.9931 -37.9885 -37.9867 -37.9843 -37.9826 -37.9784 -37.9763 -37.9752
   -37.9693 -37.9674 -37.9572 -37.9518 -37.9490 -37.9467 -37.9372 -37.9339
   -37.9267 -37.9201 -37.9170 -37.9113 -37.8945 -37.8880 -37.8725 -37.8632
   -21.5115 -15.4140 -14.4713 -14.0977 -14.0575 -13.5700 -13.5532 -13.1697
   -13.1168 -13.0053 -12.9312 -12.8041 -12.7872 -12.7021 -12.6704 -12.6151
   -12.5813 -12.5743 -12.5662 -12.4513 -12.4234 -12.3900 -12.3762 -12.3072
   -12.2894 -12.2710 -12.2487 -12.2244 -12.2211 -12.1541 -12.1473 -12.1060
   -12.0939 -12.0335  -7.9417  -7.5422  -6.1854  -6.1705  -6.1334  -6.1170
    -6.0982  -5.7574  -5.7300  -5.7123  -5.6936  -5.6227  -5.5984  -5.5567
    -5.5031  -5.4721  -5.3513  -5.3256  -5.2950  -5.2616  -5.2371  -5.2150
    -5.0933  -4.9084  -4.8896  -4.7910  -4.7531  -4.5974  -4.5041  -4.4382
    -4.3905  -4.3396  -4.3298  -4.3040  -4.2772  -4.2554  -4.2403  -4.2215
    -4.1597  -4.1253  -4.1069  -4.0900  -4.0506  -3.7648  -3.7340  -3.7231
    -3.7036  -3.6861  -3.5981  -3.4994  -3.4140  -3.3756  -3.3645  -3.3002
    -3.2794  -3.2360  -3.2231  -3.1970  -3.1593  -3.1434  -3.1106  -3.0787
    -3.0521  -3.0012  -2.9557  -2.9382  -2.9232  -2.9185  -2.9079  -2.8940
    -2.7749  -2.7170  -2.6861  -2.6646  -2.5969  -2.5431  -2.5118  -2.4674
    -2.4515  -2.3996  -2.3797  -2.3555  -2.3121  -2.2072  -2.1895  -2.1454
    -2.1236  -2.1163  -2.0979  -2.0659  -2.0219  -1.9768  -1.9646  -1.9278
    -1.9020  -1.8896  -1.8583  -1.8420  -1.8158  -1.8090  -1.7862  -1.7613
    -1.7318  -1.6993  -1.6872  -1.6667  -1.6403  -1.6243  -1.5787  -1.5765
    -1.5543  -1.5430  -1.5180  -1.4927  -1.4253  -1.3885  -1.3775  -1.3376
    -1.2740  -1.2380  -1.1872  -1.1675  -1.1498  -1.1064  -1.0364  -0.9792
    -0.8706  -0.8266  -0.6814  -0.6646  -0.6284  -0.6182  -0.6028  -0.5333
    -0.5292  -0.4087  -0.3777  -0.2515  -0.1986  -0.1901  -0.1447   0.0810
     0.1639   1.3380   1.7182

     occupation numbers 
     1.0000   1.0000   1.0000   1.0000   1.0000   1.0000   1.0000   1.0000
     1.0000   1.0000   1.0000   1.0000   1.0000   1.0000   1.0000   1.0000
     1.0000   1.0000   1.0000   1.0000   1.0000   1.0000   1.0000   1.0000
     1.0000   1.0000   1.0000   1.0000   1.0000   1.0000   1.0000   1.0000
     1.0000   1.0000   1.0000   1.0000   1.0000   1.0000   1.0000   1.0000
     1.0000   1.0000   1.0000   1.0000   1.0000   1.0000   1.0000   1.0000
     1.0000   1.0000   1.0000   1.0000   1.0000   1.0000   1.0000   1.0000
     1.0000   1.0000   1.0000   1.0000   1.0000   1.0000   1.0000   1.0000
     1.0000   1.0000   1.0000   1.0000   1.0000   1.0000   1.0000   1.0000
     1.0000   1.0000   1.0000   1.0000   1.0000   1.0000   1.0000   1.0000
     1.0000   1.0000   1.0000   1.0000   1.0000   1.0000   1.0000   1.0000
     1.0000   1.0000   1.0000   1.0000   1.0000   1.0000   1.0000   1.0000
     1.0000   1.0000   1.0000   1.0000   1.0000   1.0000   1.0000   1.0000
     1.0000   1.0000   1.0000   1.0000   1.0000   1.0000   1.0000   1.0000
     1.0000   1.0000   1.0000   1.0000   1.0000   1.0000   1.0000   1.0000
     1.0000   1.0000   1.0000   1.0000   1.0000   1.0000   1.0000   1.0000
     1.0000   1.0000   1.0000   1.0000   1.0000   1.0000   1.0000   1.0000
     1.0000   1.0000   1.0000   1.0000   1.0000   1.0000   1.0000   1.0000
     1.0000   1.0000   1.0000   1.0000   1.0000   1.0000   1.0000   1.0000
     1.0000   1.0000   1.0000   1.0000   1.0000   1.0000   1.0000   1.0000
     1.0000   1.0000   1.0000   1.0000   1.0000   1.0000   1.0000   1.0000
     1.0000   1.0000   1.0000   1.0000   1.0000   1.0000   1.0000   1.0000
     1.0000   1.0000   1.0000   1.0000   1.0000   1.0000   1.0000   1.0000
     1.0000   1.0000   1.0000   1.0000   1.0000   1.0000   1.0000   1.0000
     1.0000   1.0000   1.0000   1.0000   1.0000   1.0000   1.0000   1.0000
     1.0000   1.0000   1.0000   1.0000   1.0000   1.0000   1.0000   1.0000
     1.0000   1.0000   1.0000   1.0000   1.0000   1.0000   1.0000   1.0000
     1.0000   1.0000   1.0000   1.0000   1.0000   1.0000   1.0000   1.0000
     1.0000   1.0000   1.0000   1.0000   1.0000   1.0000   1.0000   1.0000
     1.0000   1.0000   1.0000   1.0000   1.0000   1.0000   1.0000   1.0000
     1.0000   1.0000   0.0000

          k = 0.4000-0.0000 0.0000 (112231 PWs)   bands (ev):

   -73.8137 -73.8099 -73.8066 -73.8048 -73.8020 -73.8016 -73.7986 -73.7961
   -73.7937 -73.7890 -73.7878 -73.7864 -73.7822 -73.7413 -73.7317 -73.7287
   -38.2054 -38.1963 -38.1946 -38.1718 -38.1681 -38.1587 -38.1482 -38.1408
   -38.1247 -38.1163 -38.1058 -38.0705 -38.0534 -38.0477 -38.0434 -38.0324
   -38.0258 -38.0226 -38.0176 -38.0156 -38.0105 -38.0054 -37.9991 -37.9947
   -37.9925 -37.9889 -37.9864 -37.9850 -37.9820 -37.9794 -37.9763 -37.9754
   -37.9687 -37.9656 -37.9578 -37.9524 -37.9499 -37.9457 -37.9372 -37.9353
   -37.9249 -37.9201 -37.9170 -37.9098 -37.8958 -37.8894 -37.8734 -37.8617
   -21.5115 -15.4140 -14.4714 -14.0955 -14.0598 -13.5635 -13.5604 -13.1659
   -13.1190 -13.0090 -12.9257 -12.8012 -12.7901 -12.7062 -12.6780 -12.5996
   -12.5957 -12.5716 -12.5572 -12.4536 -12.4198 -12.4084 -12.3617 -12.3054
   -12.2898 -12.2678 -12.2508 -12.2330 -12.2181 -12.1548 -12.1446 -12.1044
   -12.0948 -12.0339  -7.9417  -7.5422  -6.1769  -6.1732  -6.1390  -6.1126
    -6.1042  -5.7500  -5.7351  -5.7164  -5.6813  -5.6301  -5.6039  -5.5555
    -5.5009  -5.4695  -5.3476  -5.3309  -5.2861  -5.2675  -5.2394  -5.2240
    -5.0926  -4.8958  -4.8828  -4.8045  -4.7525  -4.5607  -4.5279  -4.4531
    -4.4030  -4.3416  -4.3337  -4.3071  -4.2720  -4.2601  -4.2378  -4.2049
    -4.1709  -4.1139  -4.1056  -4.0863  -4.0501  -3.7551  -3.7286  -3.7220
    -3.7021  -3.6927  -3.6088  -3.4784  -3.4231  -3.3913  -3.3650  -3.3109
    -3.2759  -3.2396  -3.2271  -3.1967  -3.1687  -3.1385  -3.1184  -3.0749
    -3.0319  -2.9850  -2.9619  -2.9433  -2.9349  -2.9120  -2.8970  -2.8883
    -2.7626  -2.7331  -2.6885  -2.6383  -2.6096  -2.5641  -2.5254  -2.4611
    -2.4546  -2.4095  -2.3785  -2.3349  -2.3112  -2.2139  -2.1734  -2.1450
    -2.1215  -2.1171  -2.0958  -2.0832  -1.9943  -1.9774  -1.9640  -1.9311
    -1.9157  -1.8903  -1.8677  -1.8545  -1.8374  -1.8126  -1.7755  -1.7540
    -1.7229  -1.6996  -1.6806  -1.6646  -1.6437  -1.6168  -1.5862  -1.5665
    -1.5473  -1.5381  -1.5184  -1.4908  -1.4400  -1.4021  -1.3577  -1.3294
    -1.2766  -1.2521  -1.1929  -1.1710  -1.1442  -1.0958  -1.0373  -0.9783
    -0.8602  -0.8408  -0.6759  -0.6671  -0.6284  -0.6147  -0.6067  -0.5327
    -0.5281  -0.4269  -0.3711  -0.2442  -0.1995  -0.1853  -0.1476   0.0785
     0.1636   1.3684   1.6855

     occupation numbers 
     1.0000   1.0000   1.0000   1.0000   1.0000   1.0000   1.0000   1.0000
     1.0000   1.0000   1.0000   1.0000   1.0000   1.0000   1.0000   1.0000
     1.0000   1.0000   1.0000   1.0000   1.0000   1.0000   1.0000   1.0000
     1.0000   1.0000   1.0000   1.0000   1.0000   1.0000   1.0000   1.0000
     1.0000   1.0000   1.0000   1.0000   1.0000   1.0000   1.0000   1.0000
     1.0000   1.0000   1.0000   1.0000   1.0000   1.0000   1.0000   1.0000
     1.0000   1.0000   1.0000   1.0000   1.0000   1.0000   1.0000   1.0000
     1.0000   1.0000   1.0000   1.0000   1.0000   1.0000   1.0000   1.0000
     1.0000   1.0000   1.0000   1.0000   1.0000   1.0000   1.0000   1.0000
     1.0000   1.0000   1.0000   1.0000   1.0000   1.0000   1.0000   1.0000
     1.0000   1.0000   1.0000   1.0000   1.0000   1.0000   1.0000   1.0000
     1.0000   1.0000   1.0000   1.0000   1.0000   1.0000   1.0000   1.0000
     1.0000   1.0000   1.0000   1.0000   1.0000   1.0000   1.0000   1.0000
     1.0000   1.0000   1.0000   1.0000   1.0000   1.0000   1.0000   1.0000
     1.0000   1.0000   1.0000   1.0000   1.0000   1.0000   1.0000   1.0000
     1.0000   1.0000   1.0000   1.0000   1.0000   1.0000   1.0000   1.0000
     1.0000   1.0000   1.0000   1.0000   1.0000   1.0000   1.0000   1.0000
     1.0000   1.0000   1.0000   1.0000   1.0000   1.0000   1.0000   1.0000
     1.0000   1.0000   1.0000   1.0000   1.0000   1.0000   1.0000   1.0000
     1.0000   1.0000   1.0000   1.0000   1.0000   1.0000   1.0000   1.0000
     1.0000   1.0000   1.0000   1.0000   1.0000   1.0000   1.0000   1.0000
     1.0000   1.0000   1.0000   1.0000   1.0000   1.0000   1.0000   1.0000
     1.0000   1.0000   1.0000   1.0000   1.0000   1.0000   1.0000   1.0000
     1.0000   1.0000   1.0000   1.0000   1.0000   1.0000   1.0000   1.0000
     1.0000   1.0000   1.0000   1.0000   1.0000   1.0000   1.0000   1.0000
     1.0000   1.0000   1.0000   1.0000   1.0000   1.0000   1.0000   1.0000
     1.0000   1.0000   1.0000   1.0000   1.0000   1.0000   1.0000   1.0000
     1.0000   1.0000   1.0000   1.0000   1.0000   1.0000   1.0000   1.0000
     1.0000   1.0000   1.0000   1.0000   1.0000   1.0000   1.0000   1.0000
     1.0000   1.0000   1.0000   1.0000   1.0000   1.0000   1.0000   1.0000
     1.0000   1.0000   0.0000

          k =-0.4000 0.4619 0.0000 (112237 PWs)   bands (ev):

   -73.8136 -73.8099 -73.8068 -73.8047 -73.8021 -73.8015 -73.7984 -73.7960
   -73.7939 -73.7890 -73.7878 -73.7864 -73.7822 -73.7413 -73.7317 -73.7287
   -38.1956 -38.1896 -38.1798 -38.1772 -38.1696 -38.1657 -38.1577 -38.1427
   -38.1390 -38.1228 -38.0864 -38.0833 -38.0773 -38.0444 -38.0408 -38.0352
   -38.0279 -38.0242 -38.0155 -38.0074 -38.0047 -38.0000 -37.9979 -37.9958
   -37.9938 -37.9927 -37.9893 -37.9848 -37.9815 -37.9762 -37.9689 -37.9656
   -37.9601 -37.9553 -37.9524 -37.9508 -37.9492 -37.9424 -37.9379 -37.9361
   -37.9304 -37.9237 -37.9193 -37.9160 -37.9053 -37.8868 -37.8741 -37.8663
   -21.5115 -15.4140 -14.3332 -14.2871 -14.1121 -13.5925 -13.2938 -13.2910
   -12.9551 -12.9447 -12.8821 -12.8535 -12.8243 -12.7988 -12.7934 -12.6606
   -12.6315 -12.5929 -12.4902 -12.4805 -12.3839 -12.3715 -12.3439 -12.3224
   -12.3077 -12.2957 -12.2578 -12.2323 -12.2272 -12.1308 -12.1179 -12.1122
   -12.0777 -12.0144  -7.9417  -7.5422  -6.1669  -6.0450  -6.0116  -5.9649
    -5.9096  -5.8856  -5.8723  -5.8538  -5.8048  -5.7404  -5.6815  -5.6207
    -5.6053  -5.5373  -5.3535  -5.2779  -5.2424  -5.2119  -5.1962  -5.1637
    -5.1524  -4.8482  -4.8275  -4.7371  -4.6158  -4.5800  -4.5381  -4.5172
    -4.4842  -4.4189  -4.3770  -4.3190  -4.3018  -4.2374  -4.2226  -4.2031
    -4.1885  -4.1589  -4.1170  -4.0904  -3.9513  -3.9433  -3.7840  -3.6613
    -3.6096  -3.5826  -3.4214  -3.3853  -3.3498  -3.3171  -3.2979  -3.2742
    -3.2690  -3.2606  -3.2368  -3.2254  -3.2152  -3.2072  -3.1394  -3.1157
    -3.0901  -3.0734  -3.0533  -3.0348  -2.9806  -2.9180  -2.8366  -2.7961
    -2.7290  -2.7015  -2.6846  -2.6608  -2.6045  -2.5781  -2.4842  -2.4040
    -2.3881  -2.3195  -2.3154  -2.3090  -2.2584  -2.1794  -2.1651  -2.1487
    -2.1278  -2.0826  -2.0680  -2.0392  -2.0169  -1.9636  -1.9502  -1.9342
    -1.9216  -1.9080  -1.8845  -1.8705  -1.8572  -1.8464  -1.8394  -1.8319
    -1.8050  -1.7806  -1.7443  -1.7154  -1.6902  -1.6766  -1.6544  -1.6382
    -1.6121  -1.5708  -1.5183  -1.4933  -1.4734  -1.4514  -1.4018  -1.3003
    -1.2655  -1.2254  -1.1578  -1.1085  -1.0858  -1.0653  -1.0326  -0.9510
    -0.8080  -0.7801  -0.6940  -0.6833  -0.6494  -0.6364  -0.5932  -0.5739
    -0.5572  -0.3923  -0.2714  -0.2666  -0.1683  -0.1121  -0.0694   0.1216
     0.1955   1.3761   1.6998

     occupation numbers 
     1.0000   1.0000   1.0000   1.0000   1.0000   1.0000   1.0000   1.0000
     1.0000   1.0000   1.0000   1.0000   1.0000   1.0000   1.0000   1.0000
     1.0000   1.0000   1.0000   1.0000   1.0000   1.0000   1.0000   1.0000
     1.0000   1.0000   1.0000   1.0000   1.0000   1.0000   1.0000   1.0000
     1.0000   1.0000   1.0000   1.0000   1.0000   1.0000   1.0000   1.0000
     1.0000   1.0000   1.0000   1.0000   1.0000   1.0000   1.0000   1.0000
     1.0000   1.0000   1.0000   1.0000   1.0000   1.0000   1.0000   1.0000
     1.0000   1.0000   1.0000   1.0000   1.0000   1.0000   1.0000   1.0000
     1.0000   1.0000   1.0000   1.0000   1.0000   1.0000   1.0000   1.0000
     1.0000   1.0000   1.0000   1.0000   1.0000   1.0000   1.0000   1.0000
     1.0000   1.0000   1.0000   1.0000   1.0000   1.0000   1.0000   1.0000
     1.0000   1.0000   1.0000   1.0000   1.0000   1.0000   1.0000   1.0000
     1.0000   1.0000   1.0000   1.0000   1.0000   1.0000   1.0000   1.0000
     1.0000   1.0000   1.0000   1.0000   1.0000   1.0000   1.0000   1.0000
     1.0000   1.0000   1.0000   1.0000   1.0000   1.0000   1.0000   1.0000
     1.0000   1.0000   1.0000   1.0000   1.0000   1.0000   1.0000   1.0000
     1.0000   1.0000   1.0000   1.0000   1.0000   1.0000   1.0000   1.0000
     1.0000   1.0000   1.0000   1.0000   1.0000   1.0000   1.0000   1.0000
     1.0000   1.0000   1.0000   1.0000   1.0000   1.0000   1.0000   1.0000
     1.0000   1.0000   1.0000   1.0000   1.0000   1.0000   1.0000   1.0000
     1.0000   1.0000   1.0000   1.0000   1.0000   1.0000   1.0000   1.0000
     1.0000   1.0000   1.0000   1.0000   1.0000   1.0000   1.0000   1.0000
     1.0000   1.0000   1.0000   1.0000   1.0000   1.0000   1.0000   1.0000
     1.0000   1.0000   1.0000   1.0000   1.0000   1.0000   1.0000   1.0000
     1.0000   1.0000   1.0000   1.0000   1.0000   1.0000   1.0000   1.0000
     1.0000   1.0000   1.0000   1.0000   1.0000   1.0000   1.0000   1.0000
     1.0000   1.0000   1.0000   1.0000   1.0000   1.0000   1.0000   1.0000
     1.0000   1.0000   1.0000   1.0000   1.0000   1.0000   1.0000   1.0000
     1.0000   1.0000   1.0000   1.0000   1.0000   1.0000   1.0000   1.0000
     1.0000   1.0000   1.0000   1.0000   1.0000   1.0000   1.0000   1.0000
     1.0000   1.0000   0.0000

          k = 0.6000 0.1155 0.0000 (112237 PWs)   bands (ev):

   -73.8136 -73.8100 -73.8068 -73.8047 -73.8022 -73.8012 -73.7987 -73.7961
   -73.7937 -73.7891 -73.7878 -73.7864 -73.7822 -73.7413 -73.7317 -73.7287
   -38.1947 -38.1904 -38.1806 -38.1774 -38.1690 -38.1653 -38.1575 -38.1428
   -38.1395 -38.1225 -38.0864 -38.0838 -38.0779 -38.0430 -38.0410 -38.0354
   -38.0278 -38.0246 -38.0145 -38.0079 -38.0053 -37.9996 -37.9983 -37.9964
   -37.9940 -37.9914 -37.9893 -37.9852 -37.9816 -37.9762 -37.9690 -37.9650
   -37.9614 -37.9551 -37.9523 -37.9510 -37.9485 -37.9430 -37.9375 -37.9348
   -37.9294 -37.9242 -37.9193 -37.9173 -37.9048 -37.8877 -37.8764 -37.8639
   -21.5115 -15.4140 -14.3327 -14.2877 -14.1120 -13.5925 -13.3013 -13.2835
   -12.9616 -12.9379 -12.8772 -12.8573 -12.8244 -12.7989 -12.7943 -12.6636
   -12.6300 -12.5911 -12.5003 -12.4701 -12.3908 -12.3677 -12.3401 -12.3186
   -12.3079 -12.2977 -12.2612 -12.2327 -12.2281 -12.1287 -12.1186 -12.1125
   -12.0771 -12.0147  -7.9417  -7.5422  -6.1669  -6.0416  -6.0083  -5.9629
    -5.9202  -5.9023  -5.8731  -5.8309  -5.8036  -5.7454  -5.6836  -5.6183
    -5.6076  -5.5337  -5.3519  -5.2751  -5.2508  -5.2190  -5.1930  -5.1667
    -5.1437  -4.8504  -4.8342  -4.6870  -4.6401  -4.6020  -4.5449  -4.5083
    -4.4846  -4.4291  -4.3767  -4.3164  -4.2943  -4.2377  -4.2279  -4.1943
    -4.1855  -4.1629  -4.1165  -4.0923  -3.9531  -3.9424  -3.7808  -3.6592
    -3.6115  -3.5740  -3.4225  -3.3629  -3.3534  -3.3250  -3.2906  -3.2812
    -3.2781  -3.2540  -3.2388  -3.2277  -3.2158  -3.1956  -3.1700  -3.1354
    -3.0812  -3.0723  -3.0493  -3.0136  -2.9844  -2.9294  -2.8330  -2.7956
    -2.7342  -2.7119  -2.6903  -2.6348  -2.6167  -2.5412  -2.4947  -2.4498
    -2.3838  -2.3260  -2.3106  -2.2883  -2.2392  -2.1910  -2.1672  -2.1353
    -2.1124  -2.0928  -2.0703  -2.0301  -2.0055  -1.9728  -1.9573  -1.9448
    -1.9253  -1.8957  -1.8913  -1.8741  -1.8636  -1.8548  -1.8473  -1.8318
    -1.7982  -1.7845  -1.7361  -1.7196  -1.6887  -1.6787  -1.6484  -1.6288
    -1.6114  -1.5915  -1.5231  -1.5098  -1.4648  -1.4243  -1.3877  -1.3121
    -1.2740  -1.2177  -1.1510  -1.1303  -1.0902  -1.0449  -1.0093  -0.9705
    -0.8046  -0.7841  -0.6905  -0.6881  -0.6499  -0.6440  -0.5926  -0.5862
    -0.5431  -0.3938  -0.2741  -0.2603  -0.1660  -0.1154  -0.0687   0.1221
     0.1959   1.3665   1.7117

     occupation numbers 
     1.0000   1.0000   1.0000   1.0000   1.0000   1.0000   1.0000   1.0000
     1.0000   1.0000   1.0000   1.0000   1.0000   1.0000   1.0000   1.0000
     1.0000   1.0000   1.0000   1.0000   1.0000   1.0000   1.0000   1.0000
     1.0000   1.0000   1.0000   1.0000   1.0000   1.0000   1.0000   1.0000
     1.0000   1.0000   1.0000   1.0000   1.0000   1.0000   1.0000   1.0000
     1.0000   1.0000   1.0000   1.0000   1.0000   1.0000   1.0000   1.0000
     1.0000   1.0000   1.0000   1.0000   1.0000   1.0000   1.0000   1.0000
     1.0000   1.0000   1.0000   1.0000   1.0000   1.0000   1.0000   1.0000
     1.0000   1.0000   1.0000   1.0000   1.0000   1.0000   1.0000   1.0000
     1.0000   1.0000   1.0000   1.0000   1.0000   1.0000   1.0000   1.0000
     1.0000   1.0000   1.0000   1.0000   1.0000   1.0000   1.0000   1.0000
     1.0000   1.0000   1.0000   1.0000   1.0000   1.0000   1.0000   1.0000
     1.0000   1.0000   1.0000   1.0000   1.0000   1.0000   1.0000   1.0000
     1.0000   1.0000   1.0000   1.0000   1.0000   1.0000   1.0000   1.0000
     1.0000   1.0000   1.0000   1.0000   1.0000   1.0000   1.0000   1.0000
     1.0000   1.0000   1.0000   1.0000   1.0000   1.0000   1.0000   1.0000
     1.0000   1.0000   1.0000   1.0000   1.0000   1.0000   1.0000   1.0000
     1.0000   1.0000   1.0000   1.0000   1.0000   1.0000   1.0000   1.0000
     1.0000   1.0000   1.0000   1.0000   1.0000   1.0000   1.0000   1.0000
     1.0000   1.0000   1.0000   1.0000   1.0000   1.0000   1.0000   1.0000
     1.0000   1.0000   1.0000   1.0000   1.0000   1.0000   1.0000   1.0000
     1.0000   1.0000   1.0000   1.0000   1.0000   1.0000   1.0000   1.0000
     1.0000   1.0000   1.0000   1.0000   1.0000   1.0000   1.0000   1.0000
     1.0000   1.0000   1.0000   1.0000   1.0000   1.0000   1.0000   1.0000
     1.0000   1.0000   1.0000   1.0000   1.0000   1.0000   1.0000   1.0000
     1.0000   1.0000   1.0000   1.0000   1.0000   1.0000   1.0000   1.0000
     1.0000   1.0000   1.0000   1.0000   1.0000   1.0000   1.0000   1.0000
     1.0000   1.0000   1.0000   1.0000   1.0000   1.0000   1.0000   1.0000
     1.0000   1.0000   1.0000   1.0000   1.0000   1.0000   1.0000   1.0000
     1.0000   1.0000   1.0000   1.0000   1.0000   1.0000   1.0000   1.0000
     1.0000   1.0000   0.0000

     highest occupied, lowest unoccupied level (ev):     1.6173    1.6760

!    total energy              =  -16138.55547191 Ry
     total all-electron energy =   -595550.628677 Ry
     estimated scf accuracy    <          8.4E-11 Ry

     The total energy is the sum of the following terms:
     one-electron contribution =  -18311.90082196 Ry
     hartree contribution      =    9259.73756856 Ry
     xc contribution           =    -931.73690677 Ry
     ewald contribution        =    6415.33461212 Ry
     DFT-D3 Dispersion         =      -0.65558534 Ry
     one-center paw contrib.   =  -12569.33433852 Ry
      -> PAW hartree energy AE =      92.00277685 Ry
      -> PAW hartree energy PS =     -91.51072308 Ry
      -> PAW xc energy AE      =    -644.66490759 Ry
      -> PAW xc energy PS      =      38.62150922 Ry
      -> total E_H with PAW    =    9260.22962233 Ry
      -> total E_XC with PAW   =   -1537.78030514 Ry

     total magnetization       =     1.00 Bohr mag/cell
     absolute magnetization    =     1.12 Bohr mag/cell

     convergence has been achieved in  35 iterations

     negative rho (up, down):  4.796E-03 5.164E-03

     Forces acting on atoms (cartesian axes, Ry/au):

     atom    1 type  2   force =    -0.00000374   -0.00008140   -0.00014739
     atom    2 type  2   force =    -0.00019101    0.00001820    0.00012978
     atom    3 type  2   force =    -0.00026148   -0.00016280   -0.00000778
     atom    4 type  2   force =     0.00028395    0.00027606    0.00004687
     atom    5 type  2   force =    -0.00001089   -0.00023331    0.00000801
     atom    6 type  2   force =    -0.00001924    0.00006640   -0.00000916
     atom    7 type  2   force =     0.00006198   -0.00002590    0.00008592
     atom    8 type  2   force =     0.00013473    0.00008029    0.00006848
     atom    9 type  2   force =    -0.00021288   -0.00007406    0.00005594
     atom   10 type  2   force =     0.00009511    0.00010611    0.00008512
     atom   11 type  2   force =    -0.00005671    0.00020323   -0.00000348
     atom   12 type  2   force =    -0.00000917    0.00006965   -0.00013758
     atom   13 type  2   force =    -0.00013691    0.00015761    0.00008095
     atom   14 type  2   force =     0.00011339    0.00001481    0.00000106
     atom   15 type  2   force =     0.00000193   -0.00016951   -0.00006801
     atom   16 type  2   force =    -0.00023941   -0.00016122   -0.00004552
     atom   17 type  1   force =    -0.00008903    0.00017386   -0.00002339
     atom   18 type  1   force =    -0.00005786   -0.00018513   -0.00006638
     atom   19 type  1   force =    -0.00010911    0.00010801   -0.00003118
     atom   20 type  1   force =     0.00012470   -0.00002046   -0.00006584
     atom   21 type  1   force =    -0.00008662    0.00000649    0.00005231
     atom   22 type  1   force =    -0.00003016    0.00000043   -0.00034024
     atom   23 type  1   force =    -0.00006086    0.00002192    0.00003602
     atom   24 type  1   force =     0.00012359    0.00000233    0.00001658
     atom   25 type  1   force =    -0.00002008   -0.00003870    0.00001855
     atom   26 type  1   force =     0.00005157   -0.00007652   -0.00008543
     atom   27 type  1   force =     0.00009763    0.00007269   -0.00002531
     atom   28 type  1   force =    -0.00027966    0.00002947   -0.00036545
     atom   29 type  1   force =    -0.00002083   -0.00012590   -0.00012659
     atom   30 type  1   force =    -0.00007567   -0.00000612    0.00008239
     atom   31 type  1   force =    -0.00021122   -0.00006560   -0.00004076
     atom   32 type  1   force =     0.00025310    0.00007858   -0.00016912
     atom   33 type  1   force =     0.00002549    0.00005117   -0.00015643
     atom   34 type  1   force =     0.00001060    0.00006391    0.00004338
     atom   35 type  1   force =     0.00002246   -0.00000033   -0.00003534
     atom   36 type  1   force =    -0.00003606   -0.00004510    0.00004714
     atom   37 type  1   force =    -0.00011244    0.00001589   -0.00012257
     atom   38 type  1   force =     0.00009034   -0.00016128    0.00001341
     atom   39 type  1   force =     0.00014695    0.00003306    0.00002904
     atom   40 type  1   force =     0.00011109   -0.00003063    0.00007085
     atom   41 type  1   force =    -0.00011740    0.00005080    0.00006658
     atom   42 type  1   force =     0.00004426    0.00005762    0.00000304
     atom   43 type  1   force =    -0.00024986    0.00000802    0.00014932
     atom   44 type  1   force =    -0.00007680    0.00009863   -0.00036920
     atom   45 type  1   force =    -0.00009843   -0.00004373    0.00005331
     atom   46 type  1   force =     0.00000874    0.00003981   -0.00015342
     atom   47 type  1   force =    -0.00004709   -0.00017305   -0.00016067
     atom   48 type  1   force =    -0.00002853    0.00004792    0.00015249
     atom   49 type  3   force =     0.00097587   -0.00000775   -0.00032635
     atom   50 type  3   force =    -0.00033050   -0.00077427    0.00059558
     atom   51 type  3   force =    -0.00035740   -0.00010150   -0.00014665
     atom   52 type  3   force =     0.00045095    0.00034050    0.00051556
     atom   53 type  3   force =    -0.00017282    0.00047573    0.00031118
     atom   54 type  4   force =    -0.00231078    0.00104648    0.00044472
     atom   55 type  5   force =    -0.00162180   -0.00169980   -0.00280646
     atom   56 type  6   force =     0.00470879    0.00062056    0.00124149
     atom   57 type  6   force =    -0.00017757   -0.00027859    0.00050681
     atom   58 type  6   force =    -0.00001718    0.00030639    0.00102382
     The non-local contrib.  to forces
     atom    1 type  2   force =    -0.00047377    0.00023781   -0.00009362
     atom    2 type  2   force =     0.00035546   -0.00015055   -0.00019573
     atom    3 type  2   force =    -0.00390340   -0.00385857    0.00603472
     atom    4 type  2   force =    -0.00236694   -0.00004807    0.00309481
     atom    5 type  2   force =    -0.00054802    0.00926628    0.00836109
     atom    6 type  2   force =     0.00405786   -0.00045126    0.01270288
     atom    7 type  2   force =     0.00359822   -0.00282000    0.00571374
     atom    8 type  2   force =     0.00047972    0.00022489    0.00051729
     atom    9 type  2   force =     0.00018329    0.00103638    0.00331823
     atom   10 type  2   force =    -0.00362660    0.00165979    0.01381736
     atom   11 type  2   force =    -0.00039898   -0.00030866    0.01550738
     atom   12 type  2   force =     0.00589015   -0.00340610    0.00757164
     atom   13 type  2   force =    -0.00013563    0.00028913   -0.00031679
     atom   14 type  2   force =     0.00074308    0.00162038    0.00307807
     atom   15 type  2   force =    -0.00071850   -0.00210089    0.00704336
     atom   16 type  2   force =    -0.00286025   -0.00023692    0.00573608
     atom   17 type  1   force =     0.00084197    0.00126923   -0.27571216
     atom   18 type  1   force =     0.00429091    0.00240505   -0.27657642
     atom   19 type  1   force =     0.00094981    0.00009406   -0.27534253
     atom   20 type  1   force =    -0.00088168   -0.00064041   -0.27641128
     atom   21 type  1   force =    -0.00026991    0.00141450   -0.27545247
     atom   22 type  1   force =     0.01182686    0.02355895   -0.15677944
     atom   23 type  1   force =    -0.00170121   -0.00215231   -0.18676005
     atom   24 type  1   force =     0.00274154   -0.00128754   -0.27539528
     atom   25 type  1   force =     0.00010650   -0.00086361   -0.27674534
     atom   26 type  1   force =     0.00288127    0.00952191   -0.25647999
     atom   27 type  1   force =     0.01820951    0.00622292   -0.22551345
     atom   28 type  1   force =     0.01935703   -0.01743595   -0.19306440
     atom   29 type  1   force =     0.00088889   -0.00184272   -0.27491329
     atom   30 type  1   force =    -0.00195974    0.00125340   -0.27604374
     atom   31 type  1   force =    -0.02393774   -0.01162114   -0.21282053
     atom   32 type  1   force =    -0.00974268   -0.00787281   -0.24421476
     atom   33 type  1   force =    -0.00022803    0.00030991    0.27622735
     atom   34 type  1   force =     0.00171803    0.00243467    0.27673192
     atom   35 type  1   force =     0.00154136   -0.00049434    0.27628034
     atom   36 type  1   force =    -0.00083351   -0.00082637    0.27581393
     atom   37 type  1   force =     0.00033146    0.00196959    0.27561751
     atom   38 type  1   force =     0.00295601    0.00258430    0.27716513
     atom   39 type  1   force =     0.00248405    0.00067189    0.27703060
     atom   40 type  1   force =     0.00205415   -0.00164297    0.27530356
     atom   41 type  1   force =     0.00021956    0.00048381    0.27665059
     atom   42 type  1   force =    -0.00264079    0.00247015    0.27560142
     atom   43 type  1   force =    -0.00192285   -0.00055578    0.27975386
     atom   44 type  1   force =     0.00088775   -0.00429833    0.27701448
     atom   45 type  1   force =    -0.00063607   -0.00172441    0.27610142
     atom   46 type  1   force =    -0.00124768   -0.00047752    0.27628026
     atom   47 type  1   force =    -0.00342175   -0.00008950    0.27526495
     atom   48 type  1   force =    -0.00234740   -0.00163837    0.27540844
     atom   49 type  3   force =    -0.18434646    0.03151392   -0.06009441
     atom   50 type  3   force =    -0.00819152   -0.13031070   -0.07517637
     atom   51 type  3   force =     0.19382534   -0.01619669   -0.09590476
     atom   52 type  3   force =     0.02016842    0.14040666   -0.09315391
     atom   53 type  3   force =     0.02039613    0.02814448    0.14871428
     atom   54 type  4   force =    -0.87664556   -0.28084975    0.92603541
     atom   55 type  5   force =     1.88038883    0.53476896   -1.51510250
     atom   56 type  6   force =    -0.00443389   -0.07254363   -0.06543703
     atom   57 type  6   force =     0.01166784   -0.01485142    0.09894178
     atom   58 type  6   force =    -0.02969289    0.08343249   -0.04089414
     The ionic contribution  to forces
     atom    1 type  2   force =    -0.93929595   -0.19565930   -8.51225090
     atom    2 type  2   force =    -0.97116072   -1.15704483   -8.88004428
     atom    3 type  2   force =     1.92214782    0.65020963   -9.43973949
     atom    4 type  2   force =     1.76653391    1.72473026   -9.24153837
     atom    5 type  2   force =    -0.76025475   -3.39392213  -10.32548589
     atom    6 type  2   force =    -3.93385230   -3.11188438  -14.38142626
     atom    7 type  2   force =    -3.78913230    1.11541252  -12.06318590
     atom    8 type  2   force =    -0.45963857    0.22264910   -8.34413435
     atom    9 type  2   force =     1.12830001   -2.55042686  -10.29916860
     atom   10 type  2   force =     1.18901663   -3.57201231  -19.43160270
     atom   11 type  2   force =    -2.00122283    2.17446696  -20.50215487
     atom   12 type  2   force =    -1.90157418    2.98574806  -10.56669473
     atom   13 type  2   force =     0.52973335    0.57646627   -8.41984930
     atom   14 type  2   force =     3.83219862   -2.05742997  -11.86146124
     atom   15 type  2   force =     3.84718344    1.90213011  -17.31820432
     atom   16 type  2   force =     0.57172336    4.70758586  -12.98738648
     atom   17 type  1   force =    -0.14014147   -0.66149973   32.26074278
     atom   18 type  1   force =    -2.24122517   -1.69658382   31.29316876
     atom   19 type  1   force =    -1.12791007    0.05269845   31.69845957
     atom   20 type  1   force =     1.01144790    0.86396619   32.41886648
     atom   21 type  1   force =     0.17392355   -1.94591929   32.03454560
     atom   22 type  1   force =    -2.23769899   -5.30488549   25.62162483
     atom   23 type  1   force =    -4.76109865    0.06295499   24.69057835
     atom   24 type  1   force =    -2.11323058    1.73124590   31.40495655
     atom   25 type  1   force =    -0.02602816    0.43243576   32.25583631
     atom   26 type  1   force =     2.91762069   -4.06819115   28.41131004
     atom   27 type  1   force =     1.27441909   -0.00849780   20.49381689
     atom   28 type  1   force =    -2.26269157    5.24403457   26.48524164
     atom   29 type  1   force =     0.01963785    1.75651984   32.08043769
     atom   30 type  1   force =     1.12864961   -0.96855689   32.14837267
     atom   31 type  1   force =     4.85875502    0.33658542   28.22803887
     atom   32 type  1   force =     3.17851027    3.98391574   28.83930266
     atom   33 type  1   force =    -0.05127370   -0.12671481  -39.08006984
     atom   34 type  1   force =    -0.56948386   -0.42789417  -39.19373684
     atom   35 type  1   force =    -0.28921816   -0.04256495  -39.24753964
     atom   36 type  1   force =     0.27298359    0.22244372  -39.08995809
     atom   37 type  1   force =    -0.01843887   -0.48724728  -39.20273260
     atom   38 type  1   force =    -0.41729075   -0.93189021  -40.31571477
     atom   39 type  1   force =    -0.90996257   -0.05707887  -40.68653629
     atom   40 type  1   force =    -0.52225597    0.40402096  -39.34399330
     atom   41 type  1   force =     0.05823474    0.12836742  -39.16754291
     atom   42 type  1   force =     0.64042048   -0.72202155  -40.20943443
     atom   43 type  1   force =     0.29420588    0.05132665  -41.17798244
     atom   44 type  1   force =    -0.25861979    0.97340449  -40.32984881
     atom   45 type  1   force =     0.01554542    0.50323286  -39.10191707
     atom   46 type  1   force =     0.32786418   -0.23270987  -39.01141348
     atom   47 type  1   force =     0.87993659   -0.02484548  -39.93818325
     atom   48 type  1   force =     0.55134416    0.76661030  -40.07739290
     atom   49 type  3   force =   -21.26931476    3.68316735   58.89142750
     atom   50 type  3   force =    -1.57914102  -20.68460799   58.08457463
     atom   51 type  3   force =    21.71753314   -2.58722009   61.19835115
     atom   52 type  3   force =     2.76385949   20.98036519   58.84391948
     atom   53 type  3   force =     7.92425687    2.06989920   63.37554758
     atom   54 type  4   force =     4.47037581    0.01328856   20.57364109
     atom   55 type  5   force =   -13.34247213   -2.92314088   24.84628401
     atom   56 type  6   force =     0.49002199    2.66896401    5.39887588
     atom   57 type  6   force =    -2.24585074    0.17361782    1.35128356
     atom   58 type  6   force =     1.38309513   -3.22201403    4.81911980
     The local contribution  to forces
     atom    1 type  2   force =     0.93937227    0.19579919    8.51217625
     atom    2 type  2   force =     0.97065353    1.15669092    8.88012069
     atom    3 type  2   force =    -1.91885623   -0.64715713    9.43446076
     atom    4 type  2   force =    -1.76428071   -1.72428944    9.23880530
     atom    5 type  2   force =     0.76040223    3.38448858   10.31675791
     atom    6 type  2   force =     3.92905662    3.11092481   14.36632441
     atom    7 type  2   force =     3.78425111   -1.11229311   12.05585136
     atom    8 type  2   force =     0.45923776   -0.22288466    8.34408012
     atom    9 type  2   force =    -1.12845439    2.54883856   10.29539768
     atom   10 type  2   force =    -1.18516480    3.57088458   19.41487747
     atom   11 type  2   force =     2.00232214   -2.17377856   20.48174908
     atom   12 type  2   force =     1.89588856   -2.98212908   10.55873144
     atom   13 type  2   force =    -0.52951410   -0.57630728    8.41997925
     atom   14 type  2   force =    -3.83132085    2.05559132   11.85626635
     atom   15 type  2   force =    -3.84589939   -1.90000280   17.30654721
     atom   16 type  2   force =    -0.56920663   -4.70589200   12.97931903
     atom   17 type  1   force =     0.13918289    0.66016709  -31.98643611
     atom   18 type  1   force =     2.23623669    1.69349596  -31.01849028
     atom   19 type  1   force =     1.12655615   -0.05262141  -31.42477243
     atom   20 type  1   force =    -1.01008093   -0.86304164  -32.14391985
     atom   21 type  1   force =    -0.17363721    1.94390261  -31.76050398
     atom   22 type  1   force =     2.22577104    5.28059303  -25.46469172
     atom   23 type  1   force =     4.76135191   -0.06083968  -24.50346299
     atom   24 type  1   force =     2.10991381   -1.72939499  -31.13133112
     atom   25 type  1   force =     0.02579168   -0.43146835  -31.98045811
     atom   26 type  1   force =    -2.92062354    4.05908208  -28.15486310
     atom   27 type  1   force =    -1.29116319    0.00197796  -20.26670138
     atom   28 type  1   force =     2.24357936   -5.22595026  -26.29240309
     atom   29 type  1   force =    -0.02047643   -1.75429126  -31.80707778
     atom   30 type  1   force =    -1.12641431    0.96701351  -31.87370626
     atom   31 type  1   force =    -4.83509468   -0.32546387  -28.01477107
     atom   32 type  1   force =    -3.16927990   -3.97559152  -28.59544743
     atom   33 type  1   force =     0.05149785    0.12644555   38.80465924
     atom   34 type  1   force =     0.56778259    0.42557621   38.91804715
     atom   35 type  1   force =     0.28770398    0.04302227   38.97218605
     atom   36 type  1   force =    -0.27221781   -0.22169728   38.81516737
     atom   37 type  1   force =     0.01800593    0.48537781   38.92795284
     atom   38 type  1   force =     0.41441478    0.92912436   40.03934021
     atom   39 type  1   force =     0.90757813    0.05642684   40.41030477
     atom   40 type  1   force =     0.52040575   -0.40243111   39.06970178
     atom   41 type  1   force =    -0.05853441   -0.12876782   38.89194496
     atom   42 type  1   force =    -0.63770477    0.71962018   39.93464823
     atom   43 type  1   force =    -0.29254274   -0.05076163   40.89915692
     atom   44 type  1   force =     0.25766661   -0.96900497   40.05326214
     atom   45 type  1   force =    -0.01502568   -0.50156246   38.82685376
     atom   46 type  1   force =    -0.32665119    0.23320639   38.73598296
     atom   47 type  1   force =    -0.87660299    0.02472658   39.66355348
     atom   48 type  1   force =    -0.54902026   -0.76491014   39.80291400
     atom   49 type  3   force =    21.45125107   -3.71347603  -58.82069706
     atom   50 type  3   force =     1.59086443   20.81384897  -57.99960827
     atom   51 type  3   force =   -21.90846983    2.60187899  -61.09548416
     atom   52 type  3   force =    -2.78084657  -21.11826770  -58.74189423
     atom   53 type  3   force =    -7.94332467   -2.09660019  -63.51833445
     atom   54 type  4   force =    -3.61410902    0.26382515  -21.48634835
     atom   55 type  5   force =    11.47920206    2.39134410  -23.34494092
     atom   56 type  6   force =    -0.48092853   -2.59592653   -5.33239943
     atom   57 type  6   force =     2.23421942   -0.15890376   -1.44979774
     atom   58 type  6   force =    -1.35353450    3.13910977   -4.77734019
     The core correction contribution to forces
     atom    1 type  2   force =     0.00025945   -0.00048982   -0.00037519
     atom    2 type  2   force =    -0.00015589    0.00035595   -0.00024294
     atom    3 type  2   force =     0.00079715    0.00078240   -0.00149984
     atom    4 type  2   force =     0.00075031    0.00026070   -0.00095110
     atom    5 type  2   force =     0.00021029   -0.00077889   -0.00060693
     atom    6 type  2   force =    -0.00028694    0.00076925   -0.00009495
     atom    7 type  2   force =     0.00050968   -0.00013700    0.00031905
     atom    8 type  2   force =    -0.00002378    0.00012231   -0.00061766
     atom    9 type  2   force =     0.00000882   -0.00005573   -0.00027206
     atom   10 type  2   force =    -0.00007217   -0.00142584    0.00039492
     atom   11 type  2   force =    -0.00121310    0.00051045    0.00110287
     atom   12 type  2   force =    -0.00068054    0.00050200   -0.00079339
     atom   13 type  2   force =    -0.00018220   -0.00017955   -0.00006081
     atom   14 type  2   force =    -0.00063550   -0.00026367    0.00047235
     atom   15 type  2   force =     0.00047369    0.00032336    0.00113475
     atom   16 type  2   force =     0.00025942   -0.00056066    0.00045800
     atom   17 type  1   force =    -0.00005247   -0.00000717    0.00196466
     atom   18 type  1   force =    -0.00015895   -0.00008386    0.00203950
     atom   19 type  1   force =    -0.00004833   -0.00005477    0.00197247
     atom   20 type  1   force =    -0.00000399    0.00000148    0.00199031
     atom   21 type  1   force =    -0.00003853   -0.00003561    0.00197239
     atom   22 type  1   force =    -0.00009308   -0.00041886   -0.00040081
     atom   23 type  1   force =     0.00004778    0.00006951   -0.00004044
     atom   24 type  1   force =    -0.00006726    0.00004272    0.00198178
     atom   25 type  1   force =     0.00005177    0.00002256    0.00198621
     atom   26 type  1   force =    -0.00002197   -0.00024200    0.00142919
     atom   27 type  1   force =    -0.00046103   -0.00005997    0.00111622
     atom   28 type  1   force =    -0.00030232    0.00037795    0.00019971
     atom   29 type  1   force =    -0.00002114    0.00009989    0.00197926
     atom   30 type  1   force =     0.00007972   -0.00003685    0.00200944
     atom   31 type  1   force =     0.00052068    0.00026228    0.00063829
     atom   32 type  1   force =     0.00016331    0.00019634    0.00123028
     atom   33 type  1   force =     0.00001673   -0.00000372   -0.00193204
     atom   34 type  1   force =    -0.00003148   -0.00005387   -0.00198905
     atom   35 type  1   force =     0.00000256    0.00003606   -0.00193385
     atom   36 type  1   force =     0.00001931    0.00002514   -0.00191729
     atom   37 type  1   force =     0.00000514   -0.00004331   -0.00192641
     atom   38 type  1   force =     0.00001033    0.00001100   -0.00197474
     atom   39 type  1   force =     0.00002955    0.00002690   -0.00198059
     atom   40 type  1   force =    -0.00005817    0.00000902   -0.00192223
     atom   41 type  1   force =    -0.00003620   -0.00001292   -0.00194786
     atom   42 type  1   force =    -0.00002449   -0.00003875   -0.00193345
     atom   43 type  1   force =     0.00000261   -0.00001130   -0.00220897
     atom   44 type  1   force =    -0.00002581    0.00001944   -0.00198802
     atom   45 type  1   force =     0.00001194    0.00001599   -0.00195962
     atom   46 type  1   force =     0.00003334    0.00000919   -0.00196698
     atom   47 type  1   force =     0.00004968    0.00003144   -0.00190575
     atom   48 type  1   force =     0.00002351    0.00000564   -0.00189413
     atom   49 type  3   force =     0.00425000   -0.00133227   -0.00310436
     atom   50 type  3   force =    -0.00144889    0.00369973   -0.00371352
     atom   51 type  3   force =    -0.00463906    0.00092623   -0.00153705
     atom   52 type  3   force =    -0.00175288   -0.00488851   -0.00188397
     atom   53 type  3   force =    -0.00268127   -0.00115228   -0.00366209
     atom   54 type  4   force =     0.01796523    0.00470580   -0.01214109
     atom   55 type  5   force =    -0.01844471   -0.00473229    0.01193279
     atom   56 type  6   force =     0.00000000    0.00000000    0.00000000
     atom   57 type  6   force =     0.00000000    0.00000000    0.00000000
     atom   58 type  6   force =     0.00000000    0.00000000    0.00000000
     The Hubbard contrib.    to forces
     atom    1 type  2   force =     0.00000000    0.00000000    0.00000000
     atom    2 type  2   force =     0.00000000    0.00000000    0.00000000
     atom    3 type  2   force =     0.00000000    0.00000000    0.00000000
     atom    4 type  2   force =     0.00000000    0.00000000    0.00000000
     atom    5 type  2   force =     0.00000000    0.00000000    0.00000000
     atom    6 type  2   force =     0.00000000    0.00000000    0.00000000
     atom    7 type  2   force =     0.00000000    0.00000000    0.00000000
     atom    8 type  2   force =     0.00000000    0.00000000    0.00000000
     atom    9 type  2   force =     0.00000000    0.00000000    0.00000000
     atom   10 type  2   force =     0.00000000    0.00000000    0.00000000
     atom   11 type  2   force =     0.00000000    0.00000000    0.00000000
     atom   12 type  2   force =     0.00000000    0.00000000    0.00000000
     atom   13 type  2   force =     0.00000000    0.00000000    0.00000000
     atom   14 type  2   force =     0.00000000    0.00000000    0.00000000
     atom   15 type  2   force =     0.00000000    0.00000000    0.00000000
     atom   16 type  2   force =     0.00000000    0.00000000    0.00000000
     atom   17 type  1   force =     0.00000000    0.00000000    0.00000000
     atom   18 type  1   force =     0.00000000    0.00000000    0.00000000
     atom   19 type  1   force =     0.00000000    0.00000000    0.00000000
     atom   20 type  1   force =     0.00000000    0.00000000    0.00000000
     atom   21 type  1   force =     0.00000000    0.00000000    0.00000000
     atom   22 type  1   force =     0.00000000    0.00000000    0.00000000
     atom   23 type  1   force =     0.00000000    0.00000000    0.00000000
     atom   24 type  1   force =     0.00000000    0.00000000    0.00000000
     atom   25 type  1   force =     0.00000000    0.00000000    0.00000000
     atom   26 type  1   force =     0.00000000    0.00000000    0.00000000
     atom   27 type  1   force =     0.00000000    0.00000000    0.00000000
     atom   28 type  1   force =     0.00000000    0.00000000    0.00000000
     atom   29 type  1   force =     0.00000000    0.00000000    0.00000000
     atom   30 type  1   force =     0.00000000    0.00000000    0.00000000
     atom   31 type  1   force =     0.00000000    0.00000000    0.00000000
     atom   32 type  1   force =     0.00000000    0.00000000    0.00000000
     atom   33 type  1   force =     0.00000000    0.00000000    0.00000000
     atom   34 type  1   force =     0.00000000    0.00000000    0.00000000
     atom   35 type  1   force =     0.00000000    0.00000000    0.00000000
     atom   36 type  1   force =     0.00000000    0.00000000    0.00000000
     atom   37 type  1   force =     0.00000000    0.00000000    0.00000000
     atom   38 type  1   force =     0.00000000    0.00000000    0.00000000
     atom   39 type  1   force =     0.00000000    0.00000000    0.00000000
     atom   40 type  1   force =     0.00000000    0.00000000    0.00000000
     atom   41 type  1   force =     0.00000000    0.00000000    0.00000000
     atom   42 type  1   force =     0.00000000    0.00000000    0.00000000
     atom   43 type  1   force =     0.00000000    0.00000000    0.00000000
     atom   44 type  1   force =     0.00000000    0.00000000    0.00000000
     atom   45 type  1   force =     0.00000000    0.00000000    0.00000000
     atom   46 type  1   force =     0.00000000    0.00000000    0.00000000
     atom   47 type  1   force =     0.00000000    0.00000000    0.00000000
     atom   48 type  1   force =     0.00000000    0.00000000    0.00000000
     atom   49 type  3   force =     0.00000000    0.00000000    0.00000000
     atom   50 type  3   force =     0.00000000    0.00000000    0.00000000
     atom   51 type  3   force =     0.00000000    0.00000000    0.00000000
     atom   52 type  3   force =     0.00000000    0.00000000    0.00000000
     atom   53 type  3   force =     0.00000000    0.00000000    0.00000000
     atom   54 type  4   force =     0.00000000    0.00000000    0.00000000
     atom   55 type  5   force =     0.00000000    0.00000000    0.00000000
     atom   56 type  6   force =     0.00000000    0.00000000    0.00000000
     atom   57 type  6   force =     0.00000000    0.00000000    0.00000000
     atom   58 type  6   force =     0.00000000    0.00000000    0.00000000
     The SCF correction term to forces
     atom    1 type  2   force =    -0.00000624    0.00000024   -0.00000106
     atom    2 type  2   force =     0.00000383   -0.00000184   -0.00000096
     atom    3 type  2   force =     0.00001075    0.00000221   -0.00000044
     atom    4 type  2   force =     0.00000016    0.00000465   -0.00000100
     atom    5 type  2   force =    -0.00000538   -0.00000537   -0.00000086
     atom    6 type  2   force =    -0.00001102    0.00000085   -0.00000010
     atom    7 type  2   force =    -0.00000193    0.00000255   -0.00000033
     atom    8 type  2   force =     0.00000489   -0.00000568   -0.00000088
     atom    9 type  2   force =     0.00000574   -0.00000973   -0.00000083
     atom   10 type  2   force =    -0.00000298   -0.00000288   -0.00000018
     atom   11 type  2   force =    -0.00001097    0.00000669    0.00000077
     atom   12 type  2   force =    -0.00000230    0.00000015   -0.00000045
     atom   13 type  2   force =     0.00000487   -0.00000273   -0.00000054
     atom   14 type  2   force =     0.00001023   -0.00000560   -0.00000075
     atom   15 type  2   force =     0.00000278    0.00000705   -0.00000013
     atom   16 type  2   force =    -0.00000285    0.00001062   -0.00000072
     atom   17 type  1   force =    -0.00000292   -0.00000049   -0.00000199
     atom   18 type  1   force =    -0.00000223   -0.00000082   -0.00000319
     atom   19 type  1   force =     0.00000244    0.00000009   -0.00000342
     atom   20 type  1   force =     0.00000182    0.00000068   -0.00000227
     atom   21 type  1   force =     0.00000124   -0.00000333   -0.00000061
     atom   22 type  1   force =    -0.00000277   -0.00000033    0.00000129
     atom   23 type  1   force =    -0.00000399    0.00000149   -0.00000166
     atom   24 type  1   force =     0.00000062   -0.00000057   -0.00000434
     atom   25 type  1   force =     0.00000185   -0.00000229   -0.00000303
     atom   26 type  1   force =     0.00000143   -0.00000262    0.00000142
     atom   27 type  1   force =    -0.00000230    0.00000095    0.00000247
     atom   28 type  1   force =    -0.00000258    0.00000317   -0.00000192
     atom   29 type  1   force =    -0.00000016    0.00000133   -0.00000398
     atom   30 type  1   force =     0.00000350   -0.00000206   -0.00000214
     atom   31 type  1   force =     0.00000365    0.00000053    0.00000128
     atom   32 type  1   force =     0.00000009    0.00000436   -0.00000027
     atom   33 type  1   force =    -0.00000295   -0.00000050    0.00000155
     atom   34 type  1   force =    -0.00000228   -0.00000098    0.00000281
     atom   35 type  1   force =     0.00000234    0.00000012    0.00000305
     atom   36 type  1   force =     0.00000185    0.00000071    0.00000184
     atom   37 type  1   force =     0.00000122   -0.00000331    0.00000020
     atom   38 type  1   force =    -0.00000274   -0.00000058   -0.00000175
     atom   39 type  1   force =    -0.00000399    0.00000143    0.00000134
     atom   40 type  1   force =     0.00000047   -0.00000049    0.00000405
     atom   41 type  1   force =     0.00000180   -0.00000214    0.00000268
     atom   42 type  1   force =     0.00000154   -0.00000262   -0.00000208
     atom   43 type  1   force =    -0.00000194    0.00000090   -0.00000320
     atom   44 type  1   force =    -0.00000240    0.00000323    0.00000155
     atom   45 type  1   force =    -0.00000012    0.00000137    0.00000356
     atom   46 type  1   force =     0.00000343   -0.00000209    0.00000172
     atom   47 type  1   force =     0.00000371    0.00000043   -0.00000198
     atom   48 type  1   force =     0.00000016    0.00000440   -0.00000023
     atom   49 type  3   force =    -0.00000270    0.00000065   -0.00000303
     atom   50 type  3   force =    -0.00000216   -0.00000094    0.00000025
     atom   51 type  3   force =     0.00000092    0.00000039    0.00000033
     atom   52 type  3   force =    -0.00000159    0.00000248   -0.00000071
     atom   53 type  3   force =    -0.00000065    0.00000030    0.00000107
     atom   54 type  4   force =    -0.00000024   -0.00000011    0.00000082
     atom   55 type  5   force =    -0.00000049   -0.00000020    0.00000080
     atom   56 type  6   force =    -0.00000003    0.00000004    0.00000014
     atom   57 type  6   force =    -0.00000014   -0.00000003    0.00000005
     atom   58 type  6   force =    -0.00000002   -0.00000007    0.00000013

     DFT-D3 dispersion contribution to forces:
     atom    1 type  2   force =     0.00014031    0.00003169    0.00039726
     atom    2 type  2   force =     0.00011259    0.00016976    0.00049312
     atom    3 type  2   force =    -0.00045774   -0.00014014    0.00073665
     atom    4 type  2   force =    -0.00035297   -0.00038083    0.00063735
     atom    5 type  2   force =     0.00018456    0.00071942    0.00098282
     atom    6 type  2   force =     0.00101636    0.00070834    0.00248498
     atom    7 type  2   force =     0.00083703   -0.00018965    0.00138813
     atom    8 type  2   force =     0.00007452   -0.00002447    0.00022410
     atom    9 type  2   force =    -0.00025652    0.00054451    0.00078166
     atom   10 type  2   force =    -0.00005515    0.00100397    0.00259839
     atom   11 type  2   force =     0.00046686   -0.00069245    0.00379143
     atom   12 type  2   force =     0.00046895   -0.00064418    0.00104804
     atom   13 type  2   force =    -0.00004338   -0.00010703    0.00032927
     atom   14 type  2   force =    -0.00088237    0.00050355    0.00164641
     atom   15 type  2   force =    -0.00104027   -0.00052512    0.00341125
     atom   16 type  2   force =    -0.00015262   -0.00106691    0.00182870
     atom   17 type  1   force =     0.00008280    0.00024614   -0.00058045
     atom   18 type  1   force =     0.00080072    0.00058357   -0.00020462
     atom   19 type  1   force =     0.00034071   -0.00000721   -0.00034472
     atom   20 type  1   force =    -0.00035859   -0.00030555   -0.00058909
     atom   21 type  1   force =    -0.00006592    0.00064881   -0.00050850
     atom   22 type  1   force =     0.00016662    0.00115435   -0.00009426
     atom   23 type  1   force =     0.00134311   -0.00001088   -0.00027706
     atom   24 type  1   force =     0.00076529   -0.00060198   -0.00019088
     atom   25 type  1   force =     0.00005611   -0.00016156   -0.00059737
     atom   26 type  1   force =     0.00019349   -0.00024354   -0.00148286
     atom   27 type  1   force =    -0.00090463    0.00042984   -0.00274593
     atom   28 type  1   force =    -0.00021977   -0.00099880   -0.00033727
     atom   29 type  1   force =    -0.00005000   -0.00061177   -0.00054837
     atom   30 type  1   force =    -0.00043462    0.00032398   -0.00054745
     atom   31 type  1   force =    -0.00045834    0.00017238   -0.00112747
     atom   32 type  1   force =     0.00060185   -0.00057233   -0.00103947
     atom   33 type  1   force =     0.00001542    0.00001594    0.00095744
     atom   34 type  1   force =     0.00002742    0.00000324    0.00098753
     atom   35 type  1   force =    -0.00000980    0.00000171    0.00096885
     atom   36 type  1   force =     0.00001033    0.00001019    0.00093951
     atom   37 type  1   force =    -0.00001751   -0.00003640    0.00096603
     atom   38 type  1   force =     0.00000252    0.00001106    0.00119946
     atom   39 type  1   force =     0.00002160   -0.00001393    0.00120935
     atom   40 type  1   force =    -0.00003531    0.00001516    0.00097712
     atom   41 type  1   force =    -0.00000308   -0.00001634    0.00095927
     atom   42 type  1   force =    -0.00000789    0.00003142    0.00112347
     atom   43 type  1   force =     0.00000900    0.00001039    0.00143329
     atom   44 type  1   force =     0.00001666   -0.00002404    0.00118959
     atom   45 type  1   force =     0.00000591   -0.00000586    0.00097140
     atom   46 type  1   force =     0.00000648    0.00001492    0.00096223
     atom   47 type  1   force =    -0.00001250    0.00000469    0.00111202
     atom   48 type  1   force =    -0.00002887   -0.00002271    0.00111744
     atom   49 type  3   force =    -0.00086145    0.00011983   -0.00785485
     atom   50 type  3   force =    -0.00241152   -0.00340215   -0.00548102
     atom   51 type  3   force =     0.00139192    0.00051087   -0.00557204
     atom   52 type  3   force =    -0.00097608    0.00272359   -0.00647097
     atom   53 type  3   force =     0.00118059    0.00018542   -0.00195507
     atom   54 type  4   force =     0.00010283    0.00007804   -0.00074303
     atom   55 type  5   force =    -0.00029553    0.00006171   -0.00098051
     atom   56 type  6   force =     0.00004907    0.00012788    0.00020205
     atom   57 type  6   force =    -0.00021413   -0.00013999    0.00007930
     atom   58 type  6   force =     0.00011492   -0.00022056    0.00013835

     Total force =     0.007132     Total SCF correction =     0.000041

     DFT-D3 dispersion Force =     0.017431


     Computing stress (Cartesian axis) and pressure


     negative rho (up, down):  4.796E-03 5.164E-03
          total   stress  (Ry/bohr**3)                   (kbar)     P=       -1.47
  -0.00001009  -0.00000055   0.00000096           -1.48       -0.08        0.14
  -0.00000055  -0.00000938   0.00000018           -0.08       -1.38        0.03
   0.00000096   0.00000018  -0.00001043            0.14        0.03       -1.53

     kinetic stress (kbar)   7256.42     -0.95     -9.19
                               -0.95   7272.93     -0.32
                               -9.19     -0.32   7301.48

     local   stress (kbar)-135461.35    -63.23    519.83
                              -63.23-134008.16    219.82
                              519.83    219.82 134099.41

     nonloc. stress (kbar)  -1419.20     -0.12      0.32
                               -0.12  -1420.42      0.32
                                0.32      0.32  -1427.27

     hartree stress (kbar)  68217.33     29.33   -249.39
                               29.33  67561.39   -102.81
                             -249.39   -102.81 -63300.85

     exc-cor stress (kbar)   2000.76      0.00     -0.00
                                0.00   2000.34     -0.04
                               -0.00     -0.04   2000.29

     corecor stress (kbar)  -3626.55      0.04      0.05
                                0.04  -3626.83      0.01
                                0.05      0.01  -3627.24

     ewald   stress (kbar)  63035.37     34.83   -261.44
                               34.83  62223.59   -116.96
                             -261.44   -116.96 -75044.81

     hubbard stress (kbar)      0.00      0.00      0.00
                                0.00      0.00      0.00
                                0.00      0.00      0.00

     DFT-D   stress (kbar)     -4.26      0.02     -0.04
                                0.02     -4.22      0.01
                               -0.04      0.01     -2.55

     XDM     stress (kbar)      0.00      0.00      0.00
                                0.00      0.00      0.00
                                0.00      0.00      0.00

     dft-nl  stress (kbar)      0.00      0.00      0.00
                                0.00      0.00      0.00
                                0.00      0.00      0.00

     TS-vdW  stress (kbar)      0.00      0.00      0.00
                                0.00      0.00      0.00
                                0.00      0.00      0.00

     MDB     stress (kbar)      0.00      0.00      0.00
                                0.00      0.00      0.00
                                0.00      0.00      0.00

     3D-RISM stress (kbar)      0.00      0.00      0.00
                                0.00      0.00      0.00
                                0.00      0.00      0.00


     Writing all to output data dir ./Ag-WS2-H2NOH.save/ :
     XML data file, charge density, pseudopotentials, collected wavefunctions

     init_run     :    185.39s CPU    189.90s WALL (       1 calls)
     electrons    :  13231.83s CPU  13502.89s WALL (       1 calls)
     forces       :     47.61s CPU     49.33s WALL (       1 calls)
     force_dftd3  :      0.14s CPU      0.16s WALL (       1 calls)
     stress       :    166.27s CPU    171.47s WALL (       1 calls)
     stres_dftd3  :      0.15s CPU      0.18s WALL (       1 calls)

     Called by init_run:
     wfcinit      :    176.83s CPU    180.68s WALL (       1 calls)
     wfcinit:atom :      0.63s CPU      0.65s WALL (      26 calls)
     wfcinit:wfcr :    172.62s CPU    176.32s WALL (      26 calls)
     potinit      :      2.95s CPU      3.10s WALL (       1 calls)
     hinit0       :      1.56s CPU      1.65s WALL (       1 calls)

     Called by electrons:
     c_bands      :  11406.78s CPU  11621.16s WALL (      36 calls)
     sum_band     :   1697.80s CPU   1740.25s WALL (      36 calls)
     v_of_rho     :     21.58s CPU     22.82s WALL (      36 calls)
     v_h          :      0.99s CPU      1.11s WALL (      36 calls)
     v_xc         :     21.67s CPU     22.86s WALL (      38 calls)
     newd         :     59.96s CPU     71.70s WALL (      36 calls)
     PAW_pot      :     40.46s CPU     41.01s WALL (      36 calls)
     mix_rho      :      5.44s CPU      5.83s WALL (      36 calls)
     energy_dftd3 :      0.06s CPU      0.06s WALL (       1 calls)

     Called by c_bands:
     init_us_2    :    131.15s CPU    135.37s WALL (    1950 calls)
     cegterg      :  11234.05s CPU  11444.37s WALL (     936 calls)

     Called by sum_band:
     sum_band:wei :      0.01s CPU      0.01s WALL (      36 calls)
     sum_band:loo :   1586.69s CPU   1613.88s WALL (      36 calls)
     sum_band:buf :     11.55s CPU     11.88s WALL (     936 calls)
     sum_band:ini :     63.52s CPU     65.51s WALL (     936 calls)
     sum_band:cal :    325.92s CPU    335.65s WALL (     936 calls)
     sum_band:bec :      3.76s CPU      3.84s WALL (     936 calls)
     addusdens    :    105.50s CPU    120.52s WALL (      36 calls)
                                        0.00s GPU  (      36 calls)
     addusd:skk   :      1.56s CPU      1.68s WALL (     216 calls)
                                        0.00s GPU  (     216 calls)

     Called by *egterg:
     cdiaghg      :    565.10s CPU    587.12s WALL (    6471 calls)
     cegterg:over :    592.59s CPU    607.36s WALL (    5561 calls)
     cegterg:upda :    282.11s CPU    287.53s WALL (    5561 calls)
     cegterg:last :    550.40s CPU    560.95s WALL (    1956 calls)
     cdiaghg:chol :     47.41s CPU     47.88s WALL (    6471 calls)
     cdiaghg:inve :      8.15s CPU      8.26s WALL (    6471 calls)
     cdiaghg:para :    159.60s CPU    172.13s WALL (   12942 calls)
     h_psi        :   8473.16s CPU   8611.98s WALL (    6523 calls)
     s_psi        :    729.83s CPU    739.53s WALL (    6523 calls)
     g_psi        :     10.61s CPU     11.02s WALL (    5561 calls)

     Called by h_psi:
     h_psi:calbec :    994.04s CPU   1023.17s WALL (    6523 calls)
     vloc_psi     :   6688.38s CPU   6784.57s WALL (    6523 calls)
     add_vuspsi   :    761.58s CPU    772.70s WALL (    6523 calls)

     General routines
     calbec       :   1473.65s CPU   1517.18s WALL (    7901 calls)
     fft          :     24.87s CPU     26.71s WALL (     940 calls)
     ffts         :      1.92s CPU      2.05s WALL (     144 calls)
     fftw         :   7314.44s CPU   7408.54s WALL ( 1377162 calls)
     interpolate  :      2.99s CPU      3.18s WALL (      72 calls)

     Parallel routines

     PAW routines
     PAW_pot      :     40.46s CPU     41.01s WALL (      36 calls)

     PWSCF        :  13642.70s CPU  13965.70s WALL


   This run was terminated on:  13:11:36   1Aug2026            

=------------------------------------------------------------------------------=
   JOB DONE.
=------------------------------------------------------------------------------=
