
     Program PWSCF v.7.4.1 starts on  1Aug2026 at  5:48:53 

     This program is part of the open-source Quantum ESPRESSO suite
     for quantum simulation of materials; please cite
         "P. Giannozzi et al., J. Phys.:Condens. Matter 21 395502 (2009);
         "P. Giannozzi et al., J. Phys.:Condens. Matter 29 465901 (2017);
         "P. Giannozzi et al., J. Chem. Phys. 152 154105 (2020);
          URL http://www.quantum-espresso.org", 
     in publications or presentations arising from this work. More details at
     http://www.quantum-espresso.org/quote

     Parallel version (MPI & OpenMP), running on      64 processor cores
     Number of MPI processes:                64
     Threads/MPI process:                     1

     MPI processes distributed on     1 nodes
     97050 MiB available memory on the printing compute node when the environment starts

     Reading input from disp_011_atom55_+1z.in

     Current dimensions of program PWSCF are:
     Max number of different atomic species (ntypx) = 10
     Max number of k-points (npk) =  40000
     Max angular momentum in pseudopotentials (lmaxx) =  4
     file S.pbe-n-kjpaw_psl.1.0.0.UPF: wavefunction(s)  3S 3P renormalized
     file W.pbe-spn-kjpaw_psl.1.0.0.UPF: wavefunction(s)  6S 5P 5D renormalized
     file Ag.pbe-n-kjpaw_psl.1.0.0.UPF: wavefunction(s)  5S 5P renormalized
     file N.pbe-n-kjpaw_psl.1.0.0.UPF: wavefunction(s)  2S renormalized
     file O.pbe-n-kjpaw_psl.1.0.0.UPF: wavefunction(s)  2S 2P renormalized
     file H.pbe-kjpaw_psl.1.0.0.UPF: wavefunction(s)  1S renormalized
     Message from routine setup:
     the system is metallic, specify occupations

     R & G space division:  proc/nbgrp/npool/nimage =      64
     Subspace diagonalization in iterative solution of the eigenvalue problem:
     one sub-group per band group will be used
     ELPA distributed-memory algorithm (size of sub-group:  2*  2 procs)


     Parallelization info
     --------------------
     sticks:   dense  smooth     PW     G-vecs:    dense   smooth      PW
     Min         247     123     32                39673    14017    1874
     Max         248     124     33                39680    14030    1885
     Sum       15841    7909   2065              2539249   897387  120111

     Using Slab Decomposition



     bravais-lattice index     =            0
     lattice parameter (alat)  =      23.9624  a.u.
     unit-cell volume          =   18794.0729 (a.u.)^3
     number of atoms/cell      =           58
     number of atomic types    =            6
     number of electrons       =       485.00 (up: 243.00, down: 242.00)
     number of Kohn-Sham states=          243
     kinetic-energy cutoff     =      50.0000  Ry
     charge density cutoff     =     400.0000  Ry
     scf convergence threshold =      1.0E-10
     mixing beta               =       0.4000
     number of iterations used =            8  plain     mixing
     Exchange-correlation= SLA  PW   PBX  PBC
                           (   1   4   3   4   0   0   0)

     celldm(1)=  23.962422  celldm(2)=   0.000000  celldm(3)=   0.000000
     celldm(4)=   0.000000  celldm(5)=   0.000000  celldm(6)=   0.000000

     crystal axes: (cart. coord. in units of alat)
               a(1) = (   1.000000   0.000000   0.000000 )  
               a(2) = (  -0.500000   0.866025   0.000000 )  
               a(3) = (   0.000000   0.000000   1.577241 )  

     reciprocal axes: (cart. coord. in units 2 pi/alat)
               b(1) = (  1.000000  0.577350 -0.000000 )  
               b(2) = (  0.000000  1.154701  0.000000 )  
               b(3) = (  0.000000 -0.000000  0.634018 )  


     PseudoPot. # 1 for S  read from file:
     /share/work_r640/fmigm008/pseudo/S.pbe-n-kjpaw_psl.1.0.0.UPF
     MD5 check sum: fb45dfebcf3e72a4e1bd4a866ec2e262
     Pseudo is Projector augmented-wave + core cor, Zval =  6.0
     Generated using &quot;atomic&quot; code by A. Dal Corso  v.6.3
     Shape of augmentation charge: PSQ
     Using radial grid of 1151 points,  6 beta functions with: 
                l(1) =   0
                l(2) =   0
                l(3) =   1
                l(4) =   1
                l(5) =   2
                l(6) =   2
     Q(r) pseudized with 0 coefficients 


     PseudoPot. # 2 for W  read from file:
     /share/work_r640/fmigm008/pseudo/W.pbe-spn-kjpaw_psl.1.0.0.UPF
     MD5 check sum: 03c3df5b60893f488392c7401945500a
     Pseudo is Projector augmented-wave + core cor, Zval = 14.0
     Generated using &quot;atomic&quot; code by A. Dal Corso  v.6.2.2
     Shape of augmentation charge: PSQ
     Using radial grid of 1273 points,  6 beta functions with: 
                l(1) =   0
                l(2) =   0
                l(3) =   1
                l(4) =   1
                l(5) =   2
                l(6) =   2
     Q(r) pseudized with 0 coefficients 


     PseudoPot. # 3 for Ag read from file:
     /share/work_r640/fmigm008/pseudo/Ag.pbe-n-kjpaw_psl.1.0.0.UPF
     MD5 check sum: 51099775af2a3182a6a1caffb86952a3
     Pseudo is Projector augmented-wave + core cor, Zval = 11.0
     Generated using &quot;atomic&quot; code by A. Dal Corso  v.6.2.2
     Shape of augmentation charge: PSQ
     Using radial grid of 1237 points,  6 beta functions with: 
                l(1) =   0
                l(2) =   0
                l(3) =   1
                l(4) =   1
                l(5) =   2
                l(6) =   2
     Q(r) pseudized with 0 coefficients 


     PseudoPot. # 4 for N  read from file:
     /share/work_r640/fmigm008/pseudo/N.pbe-n-kjpaw_psl.1.0.0.UPF
     MD5 check sum: 14c48229446f9f2d411169a3abcbc3fa
     Pseudo is Projector augmented-wave + core cor, Zval =  5.0
     Generated using &quot;atomic&quot; code by A. Dal Corso  v.6.3
     Shape of augmentation charge: PSQ
     Using radial grid of 1085 points,  4 beta functions with: 
                l(1) =   0
                l(2) =   0
                l(3) =   1
                l(4) =   1
     Q(r) pseudized with 0 coefficients 


     PseudoPot. # 5 for O  read from file:
     /share/work_r640/fmigm008/pseudo/O.pbe-n-kjpaw_psl.1.0.0.UPF
     MD5 check sum: e99d9cef9b487d1ca56f5b95ecd0fd7a
     Pseudo is Projector augmented-wave + core cor, Zval =  6.0
     Generated using &quot;atomic&quot; code by A. Dal Corso  v.6.3
     Shape of augmentation charge: PSQ
     Using radial grid of 1095 points,  4 beta functions with: 
                l(1) =   0
                l(2) =   0
                l(3) =   1
                l(4) =   1
     Q(r) pseudized with 0 coefficients 


     PseudoPot. # 6 for H  read from file:
     /share/work_r640/fmigm008/pseudo/H.pbe-kjpaw_psl.1.0.0.UPF
     MD5 check sum: d81a744832360e4a8af0b0b5b123bc2a
     Pseudo is Projector augmented-wave, Zval =  1.0
     Generated using &quot;atomic&quot; code by A. Dal Corso  v.6.3MaX
     Shape of augmentation charge: PSQ
     Using radial grid of  929 points,  2 beta functions with: 
                l(1) =   0
                l(2) =   0
     Q(r) pseudized with 0 coefficients 


     atomic species   valence    mass     pseudopotential
     S                 6.00    32.06500     S ( 1.00)
     W                14.00   183.84000     W ( 1.00)
     Ag               11.00   107.87000     Ag( 1.00)
     N                 5.00    14.00700     N ( 1.00)
     O                 6.00    15.99900     O ( 1.00)
     H                 1.00     1.00800     H ( 1.00)

     Starting magnetic structure 
     atomic species   magnetization
     S               0.000
     W               0.000
     Ag              0.000
     N               0.000
     O               0.000
     H               0.000

     No symmetry found


                                    s                        frac. trans.

      isym =  1     identity                                     

 cryst.   s( 1) = (     1          0          0      )
                  (     0          1          0      )
                  (     0          0          1      )

 cart.    s( 1) = (  1.0000000  0.0000000  0.0000000 )
                  (  0.0000000  1.0000000  0.0000000 )
                  (  0.0000000  0.0000000  1.0000000 )


   Cartesian axes

     site n.     atom                  positions (alat units)
         1        W      tau(   1) = (  -0.0028587   0.1395947   0.2444812  )
         2        W      tau(   2) = (  -0.1282026   0.3564836   0.2443568  )
         3        W      tau(   3) = (  -0.2537731   0.5727289   0.2442261  )
         4        W      tau(   4) = (  -0.3783723   0.7888166   0.2441498  )
         5        W      tau(   5) = (   0.2469096   0.1395426   0.2440120  )
         6        W      tau(   6) = (   0.1225026   0.3570726   0.2432304  )
         7        W      tau(   7) = (  -0.0034888   0.5727502   0.2429844  )
         8        W      tau(   8) = (  -0.1283671   0.7891505   0.2439766  )
         9        W      tau(   9) = (   0.4969194   0.1397378   0.2430413  )
        10        W      tau(  10) = (   0.3721499   0.3552416   0.2405337  )
        11        W      tau(  11) = (   0.2452295   0.5727639   0.2402480  )
        12        W      tau(  12) = (   0.1220165   0.7890246   0.2436243  )
        13        W      tau(  13) = (   0.7467445   0.1394449   0.2440642  )
        14        W      tau(  14) = (   0.6211264   0.3563823   0.2436826  )
        15        W      tau(  15) = (   0.4971469   0.5732720   0.2421413  )
        16        W      tau(  16) = (   0.3721785   0.7886524   0.2428338  )
        17        S      tau(  17) = (   0.1219502   0.0672380   0.3684592  )
        18        S      tau(  18) = (  -0.0024014   0.2846735   0.3681910  )
        19        S      tau(  19) = (  -0.1281525   0.5008469   0.3682441  )
        20        S      tau(  20) = (  -0.2533258   0.7170167   0.3685687  )
        21        S      tau(  21) = (   0.3722606   0.0676427   0.3679766  )
        22        S      tau(  22) = (   0.2484890   0.2849851   0.3676532  )
        23        S      tau(  23) = (   0.1218721   0.5017515   0.3660861  )
        24        S      tau(  24) = (  -0.0030403   0.7167922   0.3679041  )
        25        S      tau(  25) = (   0.6215745   0.0674060   0.3678624  )
        26        S      tau(  26) = (   0.4959803   0.2843589   0.3667029  )
        27        S      tau(  27) = (   0.3710177   0.5007270   0.3638206  )
        28        S      tau(  28) = (   0.2481984   0.7153351   0.3669892  )
        29        S      tau(  29) = (   0.8717811   0.0668114   0.3679626  )
        30        S      tau(  30) = (   0.7463862   0.2840842   0.3681041  )
        31        S      tau(  31) = (   0.6195449   0.5004430   0.3687043  )
        32        S      tau(  32) = (   0.4956231   0.7159829   0.3681683  )
        33        S      tau(  33) = (   0.1218639   0.0672424   0.1203644  )
        34        S      tau(  34) = (  -0.0031686   0.2839920   0.1203246  )
        35        S      tau(  35) = (  -0.1290559   0.5005458   0.1199474  )
        36        S      tau(  36) = (  -0.2533637   0.7168463   0.1201865  )
        37        S      tau(  37) = (   0.3715067   0.0672515   0.1197328  )
        38        S      tau(  38) = (   0.2459712   0.2831895   0.1185177  )
        39        S      tau(  39) = (   0.1200987   0.4999851   0.1172124  )
        40        S      tau(  40) = (  -0.0034124   0.7174366   0.1195727  )
        41        S      tau(  41) = (   0.6220409   0.0671938   0.1195919  )
        42        S      tau(  42) = (   0.4978914   0.2834015   0.1177695  )
        43        S      tau(  43) = (   0.3720771   0.5008174   0.1169455  )
        44        S      tau(  44) = (   0.2466393   0.7180153   0.1180007  )
        45        S      tau(  45) = (   0.8722199   0.0680125   0.1199081  )
        46        S      tau(  46) = (   0.7469729   0.2840633   0.1202901  )
        47        S      tau(  47) = (   0.6222799   0.5003741   0.1191499  )
        48        S      tau(  48) = (   0.4972527   0.7176301   0.1185580  )
        49        Ag     tau(  49) = (   0.1547683   0.5150674   0.5753024  )
        50        Ag     tau(  50) = (   0.3069329   0.3595674   0.5464056  )
        51        Ag     tau(  51) = (   0.5024756   0.4743393   0.5615070  )
        52        Ag     tau(  52) = (   0.3399570   0.6321033   0.5430870  )
        53        Ag     tau(  53) = (   0.3428646   0.4953663   0.7084671  )
        54        N      tau(  54) = (   0.2596825   0.4648737   0.8674395  )
        55        O      tau(  55) = (   0.1477385   0.4509631   0.8515873  )
        56        H      tau(  56) = (   0.2650389   0.5234661   0.9229976  )
        57        H      tau(  57) = (   0.1408570   0.4629232   0.7729758  )
        58        H      tau(  58) = (   0.2837088   0.3964009   0.9032094  )

     --------------------------------------------
     DFT-D3 Dispersion Correction (3-body terms):
     --------------------------------------------
       Reference C6 values for interpolation: 

         atom   Coordination number   C6
         H          0.912             6.05
         H          0.000            15.18
         N          0.000            50.54
         N          0.994            44.25
         N          2.014            39.35
         N          2.990            31.16
         O          0.000            31.01
         O          0.993            25.63
         O          1.989            20.74
         S          0.000           268.01
         S          0.995           261.99
         S          1.990           251.62
         Ag         0.000           853.49
         Ag         0.968           537.23
         W          0.000          1628.72
         W          1.929          1086.81
         W         10.915           796.19

       Values used:

         atom   Coordination number  R0_AB[au]  C6      C8
         W          9.805            3.766    796.19 128250.55
         W          9.806            3.766    796.19 128250.55
         W          9.854            3.766    796.19 128250.55
         W          9.866            3.766    796.19 128250.55
         W          9.842            3.766    796.19 128250.55
         W          9.851            3.766    796.19 128250.55
         W          9.870            3.766    796.19 128250.55
         W          9.833            3.766    796.19 128250.55
         W          9.854            3.766    796.19 128250.55
         W          9.880            3.766    796.19 128250.55
         W          9.879            3.766    796.19 128250.55
         W          9.846            3.766    796.19 128250.55
         W          9.811            3.766    796.19 128250.55
         W          9.849            3.766    796.19 128250.55
         W          9.870            3.766    796.19 128250.55
         W          9.855            3.766    796.19 128250.55
         S          3.670            3.128    251.62  12327.25
         S          3.672            3.128    251.62  12327.25
         S          3.679            3.128    251.62  12327.25
         S          3.675            3.128    251.62  12327.25
         S          3.690            3.128    251.62  12327.25
         S          4.579            3.128    251.62  12327.25
         S          4.512            3.128    251.62  12327.25
         S          3.693            3.128    251.62  12327.25
         S          3.676            3.128    251.62  12327.25
         S          3.843            3.128    251.62  12327.25
         S          4.976            3.128    251.62  12327.25
         S          4.443            3.128    251.62  12327.25
         S          3.677            3.128    251.62  12327.25
         S          3.672            3.128    251.62  12327.25
         S          4.198            3.128    251.62  12327.25
         S          3.918            3.128    251.62  12327.25
         S          3.700            3.128    251.62  12327.25
         S          3.699            3.128    251.62  12327.25
         S          3.697            3.128    251.62  12327.25
         S          3.697            3.128    251.62  12327.25
         S          3.689            3.128    251.62  12327.25
         S          3.673            3.128    251.62  12327.25
         S          3.669            3.128    251.62  12327.25
         S          3.689            3.128    251.62  12327.25
         S          3.693            3.128    251.62  12327.25
         S          3.672            3.128    251.62  12327.25
         S          3.662            3.128    251.62  12327.25
         S          3.672            3.128    251.62  12327.25
         S          3.693            3.128    251.62  12327.25
         S          3.697            3.128    251.62  12327.25
         S          3.686            3.128    251.62  12327.25
         S          3.680            3.128    251.62  12327.25
         Ag         3.221            3.147    537.23  47741.54
         Ag         3.973            3.147    537.23  47741.54
         Ag         3.317            3.147    537.23  47741.54
         Ag         4.158            3.147    537.23  47741.54
         Ag         4.122            3.147    537.23  47741.54
         N          3.753            2.478     31.16    687.50
         O          1.995            2.345     20.82    420.19
         H          1.006            2.062      6.18     74.66
         H          1.025            2.062      6.16     74.47
         H          1.007            2.062      6.18     74.65

         Molecular C6 ( Ry / a.u.^6 ) =   1190034.43


   Crystallographic axes

     site n.     atom                  positions (cryst. coord.)
         1        W      tau(   1) = (  0.0777364  0.1611901  0.1550056  )
         2        W      tau(   2) = (  0.0776133  0.4116318  0.1549267  )
         3        W      tau(   3) = (  0.0768921  0.6613303  0.1548438  )
         4        W      tau(   4) = (  0.0770512  0.9108469  0.1547955  )
         5        W      tau(   5) = (  0.3274746  0.1611299  0.1547081  )
         6        W      tau(   6) = (  0.3286586  0.4123119  0.1542125  )
         7        W      tau(   7) = (  0.3271886  0.6613549  0.1540566  )
         8        W      tau(   8) = (  0.3272492  0.9112326  0.1546856  )
         9        W      tau(   9) = (  0.5775970  0.1613553  0.1540926  )
        10        W      tau(  10) = (  0.5772488  0.4101977  0.1525028  )
        11        W      tau(  11) = (  0.5759149  0.6613708  0.1523217  )
        12        W      tau(  12) = (  0.5775601  0.9110871  0.1544623  )
        13        W      tau(  13) = (  0.8272530  0.1610171  0.1547412  )
        14        W      tau(  14) = (  0.8268839  0.4115149  0.1544993  )
        15        W      tau(  15) = (  0.8281256  0.6619575  0.1535220  )
        16        W      tau(  16) = (  0.8275072  0.9106573  0.1539611  )
        17        S      tau(  17) = (  0.1607701  0.0776397  0.2336099  )
        18        S      tau(  18) = (  0.1619549  0.3287126  0.2334399  )
        19        S      tau(  19) = (  0.1610116  0.5783281  0.2334735  )
        20        S      tau(  20) = (  0.1606439  0.8279395  0.2336794  )
        21        S      tau(  21) = (  0.4113141  0.0781070  0.2333040  )
        22        S      tau(  22) = (  0.4130252  0.3290725  0.2330989  )
        23        S      tau(  23) = (  0.4115585  0.5793727  0.2321053  )
        24        S      tau(  24) = (  0.4107998  0.8276803  0.2332579  )
        25        S      tau(  25) = (  0.6604913  0.0778337  0.2332315  )
        26        S      tau(  26) = (  0.6601550  0.3283494  0.2324963  )
        27        S      tau(  27) = (  0.6601125  0.5781897  0.2306689  )
        28        S      tau(  28) = (  0.6611973  0.8259978  0.2326779  )
        29        S      tau(  29) = (  0.9103547  0.0771472  0.2332950  )
        30        S      tau(  30) = (  0.9104023  0.3280322  0.2333848  )
        31        S      tau(  31) = (  0.9084758  0.5778618  0.2337653  )
        32        S      tau(  32) = (  0.9089960  0.8267459  0.2334255  )
        33        S      tau(  33) = (  0.1606863  0.0776448  0.0763132  )
        34        S      tau(  34) = (  0.1607942  0.3279257  0.0762880  )
        35        S      tau(  35) = (  0.1599344  0.5779805  0.0760488  )
        36        S      tau(  36) = (  0.1605077  0.8277428  0.0762004  )
        37        S      tau(  37) = (  0.4103343  0.0776554  0.0759128  )
        38        S      tau(  38) = (  0.4094707  0.3269991  0.0751424  )
        39        S      tau(  39) = (  0.4087652  0.5773330  0.0743148  )
        40        S      tau(  40) = (  0.4107999  0.8284245  0.0758113  )
        41        S      tau(  41) = (  0.6608352  0.0775887  0.0758235  )
        42        S      tau(  42) = (  0.6615133  0.3272438  0.0746680  )
        43        S      tau(  43) = (  0.6612241  0.5782941  0.0741456  )
        44        S      tau(  44) = (  0.6611856  0.8290927  0.0748146  )
        45        S      tau(  45) = (  0.9114869  0.0785340  0.0760239  )
        46        S      tau(  46) = (  0.9109769  0.3280081  0.0762661  )
        47        S      tau(  47) = (  0.9111710  0.5777822  0.0755432  )
        48        S      tau(  48) = (  0.9115766  0.8286478  0.0751680  )
        49        Ag     tau(  49) = (  0.4521427  0.5947486  0.3647523  )
        50        Ag     tau(  50) = (  0.5145293  0.4151927  0.3464312  )
        51        Ag     tau(  51) = (  0.7763355  0.5477198  0.3560058  )
        52        Ag     tau(  52) = (  0.7049020  0.7298900  0.3443271  )
        53        Ag     tau(  53) = (  0.6288645  0.5719998  0.4491812  )
        54        N      tau(  54) = (  0.5280775  0.5367899  0.5499726  )
        55        O      tau(  55) = (  0.4081021  0.5207274  0.5399220  )
        56        H      tau(  56) = (  0.5672622  0.6044466  0.5851974  )
        57        H      tau(  57) = (  0.4081259  0.5345377  0.4900809  )
        58        H      tau(  58) = (  0.5125710  0.4577243  0.5726514  )

     number of k points=    13
                       cart. coord. in units 2pi/alat
        k(    1) = (   0.0000000   0.0000000   0.0000000), wk =   0.0400000
        k(    2) = (   0.0000000   0.2309401   0.0000000), wk =   0.0800000
        k(    3) = (   0.0000000   0.4618802   0.0000000), wk =   0.0800000
        k(    4) = (   0.2000000   0.3464102   0.0000000), wk =   0.0800000
        k(    5) = (   0.2000000   0.5773503   0.0000000), wk =   0.0800000
        k(    6) = (  -0.2000000   0.1154701   0.0000000), wk =   0.0800000
        k(    7) = (   0.2000000   0.1154701   0.0000000), wk =   0.0800000
        k(    8) = (  -0.4000000   0.2309401   0.0000000), wk =   0.0800000
        k(    9) = (   0.4000000   0.2309401   0.0000000), wk =   0.0800000
        k(   10) = (  -0.2000000   0.3464102   0.0000000), wk =   0.0800000
        k(   11) = (   0.4000000  -0.0000000   0.0000000), wk =   0.0800000
        k(   12) = (  -0.4000000   0.4618802   0.0000000), wk =   0.0800000
        k(   13) = (   0.6000000   0.1154701   0.0000000), wk =   0.0800000

                       cryst. coord.
        k(    1) = (   0.0000000   0.0000000   0.0000000), wk =   0.0400000
        k(    2) = (   0.0000000   0.2000000   0.0000000), wk =   0.0800000
        k(    3) = (   0.0000000   0.4000000   0.0000000), wk =   0.0800000
        k(    4) = (   0.2000000   0.2000000   0.0000000), wk =   0.0800000
        k(    5) = (   0.2000000   0.4000000   0.0000000), wk =   0.0800000
        k(    6) = (  -0.2000000   0.2000000   0.0000000), wk =   0.0800000
        k(    7) = (   0.2000000   0.0000000   0.0000000), wk =   0.0800000
        k(    8) = (  -0.4000000   0.4000000   0.0000000), wk =   0.0800000
        k(    9) = (   0.4000000   0.0000000   0.0000000), wk =   0.0800000
        k(   10) = (  -0.2000000   0.4000000   0.0000000), wk =   0.0800000
        k(   11) = (   0.4000000  -0.2000000   0.0000000), wk =   0.0800000
        k(   12) = (  -0.4000000   0.6000000   0.0000000), wk =   0.0800000
        k(   13) = (   0.6000000  -0.2000000   0.0000000), wk =   0.0800000

     Dense  grid:  2539249 G-vectors     FFT dimensions: ( 160, 160, 243)

     Smooth grid:   897387 G-vectors     FFT dimensions: ( 108, 108, 180)

     Dynamical RAM for                 wfc:       6.50 MB

     Dynamical RAM for     wfc (w. buffer):     175.50 MB

     Dynamical RAM for           str. fact:       3.63 MB

     Dynamical RAM for           local pot:       0.00 MB

     Dynamical RAM for          nlocal pot:      26.11 MB

     Dynamical RAM for                qrad:       9.63 MB

     Dynamical RAM for          rho,v,vnew:       8.32 MB

     Dynamical RAM for               rhoin:       2.77 MB

     Dynamical RAM for            rho*nmix:      19.38 MB

     Dynamical RAM for           G-vectors:       2.38 MB

     Dynamical RAM for          h,s,v(r/c):       2.70 MB

     Dynamical RAM for          <psi|beta>:       3.62 MB

     Dynamical RAM for                 psi:      13.00 MB

     Dynamical RAM for                hpsi:      13.00 MB

     Dynamical RAM for                spsi:      13.00 MB

     Dynamical RAM for      wfcinit/wfcrot:      14.35 MB

     Dynamical RAM for           addusdens:     132.60 MB

     Dynamical RAM for          addusforce:     170.39 MB

     Dynamical RAM for         addusstress:     122.61 MB

     Estimated static dynamical RAM per process >     237.27 MB

     Estimated max dynamical RAM per process >     427.03 MB

     Estimated total dynamical RAM >      26.69 GB
     Generating pointlists ...
     new r_m :   0.0782 (alat units)  1.8731 (a.u.) for type    1
     new r_m :   0.0782 (alat units)  1.8731 (a.u.) for type    2
     new r_m :   0.0751 (alat units)  1.7989 (a.u.) for type    3
     new r_m :   0.0334 (alat units)  0.7997 (a.u.) for type    4
     new r_m :   0.0329 (alat units)  0.7889 (a.u.) for type    5
     new r_m :   0.0329 (alat units)  0.7889 (a.u.) for type    6

     Initial potential from superposition of free atoms

     starting charge     484.9880, renormalised to     485.0000

     negative rho (up, down):  1.010E-03 1.010E-03
     Starting wfcs are  392 randomized atomic wfcs
     Checking if some PAW data can be deallocated... 
       PAW data deallocated on   32 nodes for type:  1
       PAW data deallocated on   42 nodes for type:  2
       PAW data deallocated on   59 nodes for type:  3
       PAW data deallocated on   63 nodes for type:  4
       PAW data deallocated on   63 nodes for type:  5
       PAW data deallocated on   61 nodes for type:  6

     total cpu time spent up to now is      188.7 secs

     per-process dynamical memory:   309.2 Mb

     Self-consistent Calculation

     iteration #  1     ecut=    50.00 Ry     beta= 0.40
     Davidson diagonalization with overlap

---- Real-time Memory Report at c_bands before calling an iterative solver
           369 MiB given to the printing process from OS
           301 MiB allocation reported by mallinfo(arena+hblkhd)
         78591 MiB available memory on the node where the printing process lives
------------------
     ethr =  1.00E-02,  avg # of iterations =  2.0

     Threshold (ethr) on eigenvalues was too large:
     Diagonalizing with lowered threshold

     Davidson diagonalization with overlap

---- Real-time Memory Report at c_bands before calling an iterative solver
           474 MiB given to the printing process from OS
           305 MiB allocation reported by mallinfo(arena+hblkhd)
         77131 MiB available memory on the node where the printing process lives
------------------
     ethr =  4.33E-04,  avg # of iterations =  4.8

     negative rho (up, down):  1.027E-02 6.722E-03

     total cpu time spent up to now is      939.2 secs

     total energy              =  -16138.22446461 Ry
     estimated scf accuracy    <       2.43768417 Ry

     total magnetization       =     1.00 Bohr mag/cell
     absolute magnetization    =     4.14 Bohr mag/cell

     iteration #  2     ecut=    50.00 Ry     beta= 0.40
     Davidson diagonalization with overlap

---- Real-time Memory Report at c_bands before calling an iterative solver
           480 MiB given to the printing process from OS
           311 MiB allocation reported by mallinfo(arena+hblkhd)
         75147 MiB available memory on the node where the printing process lives
------------------
     ethr =  5.03E-04,  avg # of iterations =  7.4

     negative rho (up, down):  3.201E-02 2.290E-02

     total cpu time spent up to now is     1332.8 secs

     total energy              =  -16138.44501222 Ry
     estimated scf accuracy    <       0.41445589 Ry

     total magnetization       =     1.00 Bohr mag/cell
     absolute magnetization    =     3.05 Bohr mag/cell

     iteration #  3     ecut=    50.00 Ry     beta= 0.40
     Davidson diagonalization with overlap

---- Real-time Memory Report at c_bands before calling an iterative solver
           483 MiB given to the printing process from OS
           313 MiB allocation reported by mallinfo(arena+hblkhd)
         75144 MiB available memory on the node where the printing process lives
------------------
     ethr =  8.55E-05,  avg # of iterations =  8.4

     negative rho (up, down):  3.689E-02 2.759E-02

     total cpu time spent up to now is     1744.4 secs

     total energy              =  -16138.51283832 Ry
     estimated scf accuracy    <       0.22857644 Ry

     total magnetization       =     1.00 Bohr mag/cell
     absolute magnetization    =     2.37 Bohr mag/cell

     iteration #  4     ecut=    50.00 Ry     beta= 0.40
     Davidson diagonalization with overlap

---- Real-time Memory Report at c_bands before calling an iterative solver
           485 MiB given to the printing process from OS
           314 MiB allocation reported by mallinfo(arena+hblkhd)
         75088 MiB available memory on the node where the printing process lives
------------------
     ethr =  4.71E-05,  avg # of iterations =  9.8

     negative rho (up, down):  3.082E-02 2.399E-02

     total cpu time spent up to now is     2124.4 secs

     total energy              =  -16138.54432142 Ry
     estimated scf accuracy    <       0.05165195 Ry

     total magnetization       =     1.00 Bohr mag/cell
     absolute magnetization    =     1.99 Bohr mag/cell

     iteration #  5     ecut=    50.00 Ry     beta= 0.40
     Davidson diagonalization with overlap

---- Real-time Memory Report at c_bands before calling an iterative solver
           515 MiB given to the printing process from OS
           346 MiB allocation reported by mallinfo(arena+hblkhd)
         74279 MiB available memory on the node where the printing process lives
------------------
     ethr =  1.06E-05,  avg # of iterations =  7.1

     negative rho (up, down):  2.146E-02 1.710E-02

     total cpu time spent up to now is     2524.4 secs

     total energy              =  -16138.54939995 Ry
     estimated scf accuracy    <       0.03198615 Ry

     total magnetization       =     1.00 Bohr mag/cell
     absolute magnetization    =     1.71 Bohr mag/cell

     iteration #  6     ecut=    50.00 Ry     beta= 0.40
     Davidson diagonalization with overlap

---- Real-time Memory Report at c_bands before calling an iterative solver
           518 MiB given to the printing process from OS
           348 MiB allocation reported by mallinfo(arena+hblkhd)
         80766 MiB available memory on the node where the printing process lives
------------------
     ethr =  6.60E-06,  avg # of iterations =  7.3

     negative rho (up, down):  1.389E-02 1.147E-02

     total cpu time spent up to now is     2882.6 secs

     total energy              =  -16138.55263535 Ry
     estimated scf accuracy    <       0.01665753 Ry

     total magnetization       =     1.00 Bohr mag/cell
     absolute magnetization    =     1.49 Bohr mag/cell

     iteration #  7     ecut=    50.00 Ry     beta= 0.40
     Davidson diagonalization with overlap

---- Real-time Memory Report at c_bands before calling an iterative solver
           519 MiB given to the printing process from OS
           349 MiB allocation reported by mallinfo(arena+hblkhd)
         77312 MiB available memory on the node where the printing process lives
------------------
     ethr =  3.43E-06,  avg # of iterations =  5.6

     negative rho (up, down):  1.993E-02 2.047E-02

     total cpu time spent up to now is     3221.4 secs

     total energy              =  -16138.55128882 Ry
     estimated scf accuracy    <       0.00837416 Ry

     total magnetization       =     1.00 Bohr mag/cell
     absolute magnetization    =     1.34 Bohr mag/cell

     iteration #  8     ecut=    50.00 Ry     beta= 0.40
     Davidson diagonalization with overlap

---- Real-time Memory Report at c_bands before calling an iterative solver
           520 MiB given to the printing process from OS
           350 MiB allocation reported by mallinfo(arena+hblkhd)
         75995 MiB available memory on the node where the printing process lives
------------------
     ethr =  1.73E-06,  avg # of iterations =  8.1

     negative rho (up, down):  2.088E-02 2.202E-02

     total cpu time spent up to now is     3563.1 secs

     total energy              =  -16138.55093788 Ry
     estimated scf accuracy    <       0.00217803 Ry

     total magnetization       =     1.00 Bohr mag/cell
     absolute magnetization    =     1.22 Bohr mag/cell

     iteration #  9     ecut=    50.00 Ry     beta= 0.40
     Davidson diagonalization with overlap

---- Real-time Memory Report at c_bands before calling an iterative solver
           521 MiB given to the printing process from OS
           351 MiB allocation reported by mallinfo(arena+hblkhd)
         75117 MiB available memory on the node where the printing process lives
------------------
     ethr =  4.49E-07,  avg # of iterations =  8.1

     negative rho (up, down):  1.519E-02 1.613E-02

     total cpu time spent up to now is     3962.0 secs

     total energy              =  -16138.55283016 Ry
     estimated scf accuracy    <       0.00048688 Ry

     total magnetization       =     1.00 Bohr mag/cell
     absolute magnetization    =     1.17 Bohr mag/cell

     iteration # 10     ecut=    50.00 Ry     beta= 0.40
     Davidson diagonalization with overlap

---- Real-time Memory Report at c_bands before calling an iterative solver
           522 MiB given to the printing process from OS
           353 MiB allocation reported by mallinfo(arena+hblkhd)
         75038 MiB available memory on the node where the printing process lives
------------------
     ethr =  1.00E-07,  avg # of iterations =  7.2

     negative rho (up, down):  1.097E-02 1.173E-02

     total cpu time spent up to now is     4360.8 secs

     total energy              =  -16138.55389343 Ry
     estimated scf accuracy    <       0.00016673 Ry

     total magnetization       =     1.00 Bohr mag/cell
     absolute magnetization    =     1.15 Bohr mag/cell

     iteration # 11     ecut=    50.00 Ry     beta= 0.40
     Davidson diagonalization with overlap

---- Real-time Memory Report at c_bands before calling an iterative solver
           531 MiB given to the printing process from OS
           354 MiB allocation reported by mallinfo(arena+hblkhd)
         74681 MiB available memory on the node where the printing process lives
------------------
     ethr =  3.44E-08,  avg # of iterations =  8.0

     negative rho (up, down):  7.897E-03 8.494E-03

     total cpu time spent up to now is     4799.9 secs

     total energy              =  -16138.55449481 Ry
     estimated scf accuracy    <       0.00009669 Ry

     total magnetization       =     1.00 Bohr mag/cell
     absolute magnetization    =     1.14 Bohr mag/cell

     iteration # 12     ecut=    50.00 Ry     beta= 0.40
     Davidson diagonalization with overlap

---- Real-time Memory Report at c_bands before calling an iterative solver
           531 MiB given to the printing process from OS
           354 MiB allocation reported by mallinfo(arena+hblkhd)
         73912 MiB available memory on the node where the printing process lives
------------------
     ethr =  1.99E-08,  avg # of iterations =  6.6

     negative rho (up, down):  6.030E-03 6.493E-03

     total cpu time spent up to now is     5202.5 secs

     total energy              =  -16138.55476132 Ry
     estimated scf accuracy    <       0.00003061 Ry

     total magnetization       =     1.00 Bohr mag/cell
     absolute magnetization    =     1.13 Bohr mag/cell

     iteration # 13     ecut=    50.00 Ry     beta= 0.40
     Davidson diagonalization with overlap

---- Real-time Memory Report at c_bands before calling an iterative solver
           531 MiB given to the printing process from OS
           354 MiB allocation reported by mallinfo(arena+hblkhd)
         74105 MiB available memory on the node where the printing process lives
------------------
     ethr =  6.31E-09,  avg # of iterations =  7.0

     negative rho (up, down):  5.223E-03 5.629E-03

     total cpu time spent up to now is     5629.0 secs

     total energy              =  -16138.55485375 Ry
     estimated scf accuracy    <       0.00001400 Ry

     total magnetization       =     1.00 Bohr mag/cell
     absolute magnetization    =     1.12 Bohr mag/cell

     iteration # 14     ecut=    50.00 Ry     beta= 0.40
     Davidson diagonalization with overlap

---- Real-time Memory Report at c_bands before calling an iterative solver
           531 MiB given to the printing process from OS
           354 MiB allocation reported by mallinfo(arena+hblkhd)
         73909 MiB available memory on the node where the printing process lives
------------------
     ethr =  2.89E-09,  avg # of iterations =  2.1

     negative rho (up, down):  4.888E-03 5.269E-03

     total cpu time spent up to now is     5958.3 secs

     total energy              =  -16138.55489106 Ry
     estimated scf accuracy    <       0.00000954 Ry

     total magnetization       =     1.00 Bohr mag/cell
     absolute magnetization    =     1.12 Bohr mag/cell

     iteration # 15     ecut=    50.00 Ry     beta= 0.40
     Davidson diagonalization with overlap

---- Real-time Memory Report at c_bands before calling an iterative solver
           531 MiB given to the printing process from OS
           354 MiB allocation reported by mallinfo(arena+hblkhd)
         74047 MiB available memory on the node where the printing process lives
------------------
     ethr =  1.97E-09,  avg # of iterations =  2.0

     negative rho (up, down):  4.820E-03 5.195E-03

     total cpu time spent up to now is     6256.7 secs

     total energy              =  -16138.55490009 Ry
     estimated scf accuracy    <       0.00000799 Ry

     total magnetization       =     1.00 Bohr mag/cell
     absolute magnetization    =     1.12 Bohr mag/cell

     iteration # 16     ecut=    50.00 Ry     beta= 0.40
     Davidson diagonalization with overlap

---- Real-time Memory Report at c_bands before calling an iterative solver
           531 MiB given to the printing process from OS
           354 MiB allocation reported by mallinfo(arena+hblkhd)
         73964 MiB available memory on the node where the printing process lives
------------------
     ethr =  1.65E-09,  avg # of iterations =  1.5

     negative rho (up, down):  5.889E-03 6.324E-03

     total cpu time spent up to now is     6542.4 secs

     total energy              =  -16138.55479011 Ry
     estimated scf accuracy    <       0.00000701 Ry

     total magnetization       =     1.00 Bohr mag/cell
     absolute magnetization    =     1.12 Bohr mag/cell

     iteration # 17     ecut=    50.00 Ry     beta= 0.40
     Davidson diagonalization with overlap

---- Real-time Memory Report at c_bands before calling an iterative solver
           531 MiB given to the printing process from OS
           354 MiB allocation reported by mallinfo(arena+hblkhd)
         74078 MiB available memory on the node where the printing process lives
------------------
     ethr =  1.45E-09,  avg # of iterations =  8.0

     negative rho (up, down):  5.229E-03 5.627E-03

     total cpu time spent up to now is     6993.7 secs

     total energy              =  -16138.55485394 Ry
     estimated scf accuracy    <       0.00002550 Ry

     total magnetization       =     1.00 Bohr mag/cell
     absolute magnetization    =     1.12 Bohr mag/cell

     iteration # 18     ecut=    50.00 Ry     beta= 0.40
     Davidson diagonalization with overlap

---- Real-time Memory Report at c_bands before calling an iterative solver
           532 MiB given to the printing process from OS
           355 MiB allocation reported by mallinfo(arena+hblkhd)
         73896 MiB available memory on the node where the printing process lives
------------------
     ethr =  1.45E-09,  avg # of iterations =  7.9

     negative rho (up, down):  4.906E-03 5.285E-03

     total cpu time spent up to now is     7452.9 secs

     total energy              =  -16138.55488886 Ry
     estimated scf accuracy    <       0.00000625 Ry

     total magnetization       =     1.00 Bohr mag/cell
     absolute magnetization    =     1.12 Bohr mag/cell

     iteration # 19     ecut=    50.00 Ry     beta= 0.40
     Davidson diagonalization with overlap

---- Real-time Memory Report at c_bands before calling an iterative solver
           532 MiB given to the printing process from OS
           355 MiB allocation reported by mallinfo(arena+hblkhd)
         73703 MiB available memory on the node where the printing process lives
------------------
     ethr =  1.29E-09,  avg # of iterations =  2.0

     negative rho (up, down):  4.816E-03 5.185E-03

     total cpu time spent up to now is     7749.0 secs

     total energy              =  -16138.55489912 Ry
     estimated scf accuracy    <       0.00000256 Ry

     total magnetization       =     1.00 Bohr mag/cell
     absolute magnetization    =     1.12 Bohr mag/cell

     iteration # 20     ecut=    50.00 Ry     beta= 0.40
     Davidson diagonalization with overlap

---- Real-time Memory Report at c_bands before calling an iterative solver
           532 MiB given to the printing process from OS
           355 MiB allocation reported by mallinfo(arena+hblkhd)
         73765 MiB available memory on the node where the printing process lives
------------------
     ethr =  5.28E-10,  avg # of iterations =  8.1

     negative rho (up, down):  4.802E-03 5.168E-03

     total cpu time spent up to now is     8203.9 secs

     total energy              =  -16138.55490153 Ry
     estimated scf accuracy    <       0.00000264 Ry

     total magnetization       =     1.00 Bohr mag/cell
     absolute magnetization    =     1.12 Bohr mag/cell

     iteration # 21     ecut=    50.00 Ry     beta= 0.40
     Davidson diagonalization with overlap

---- Real-time Memory Report at c_bands before calling an iterative solver
           532 MiB given to the printing process from OS
           355 MiB allocation reported by mallinfo(arena+hblkhd)
         73817 MiB available memory on the node where the printing process lives
------------------
     ethr =  5.28E-10,  avg # of iterations =  2.0

     negative rho (up, down):  4.800E-03 5.167E-03

     total cpu time spent up to now is     8511.0 secs

     total energy              =  -16138.55490151 Ry
     estimated scf accuracy    <       0.00000200 Ry

     total magnetization       =     1.00 Bohr mag/cell
     absolute magnetization    =     1.12 Bohr mag/cell

     iteration # 22     ecut=    50.00 Ry     beta= 0.40
     Davidson diagonalization with overlap

---- Real-time Memory Report at c_bands before calling an iterative solver
           532 MiB given to the printing process from OS
           355 MiB allocation reported by mallinfo(arena+hblkhd)
         73702 MiB available memory on the node where the printing process lives
------------------
     ethr =  4.12E-10,  avg # of iterations =  2.0

     negative rho (up, down):  4.798E-03 5.164E-03

     total cpu time spent up to now is     8809.3 secs

     total energy              =  -16138.55490152 Ry
     estimated scf accuracy    <       0.00000091 Ry

     total magnetization       =     1.00 Bohr mag/cell
     absolute magnetization    =     1.12 Bohr mag/cell

     iteration # 23     ecut=    50.00 Ry     beta= 0.40
     Davidson diagonalization with overlap

---- Real-time Memory Report at c_bands before calling an iterative solver
           532 MiB given to the printing process from OS
           355 MiB allocation reported by mallinfo(arena+hblkhd)
         73836 MiB available memory on the node where the printing process lives
------------------
     ethr =  1.87E-10,  avg # of iterations =  7.8

     negative rho (up, down):  4.798E-03 5.164E-03

     total cpu time spent up to now is     9250.6 secs

     total energy              =  -16138.55490171 Ry
     estimated scf accuracy    <       0.00000066 Ry

     total magnetization       =     1.00 Bohr mag/cell
     absolute magnetization    =     1.12 Bohr mag/cell

     iteration # 24     ecut=    50.00 Ry     beta= 0.40
     Davidson diagonalization with overlap

---- Real-time Memory Report at c_bands before calling an iterative solver
           532 MiB given to the printing process from OS
           355 MiB allocation reported by mallinfo(arena+hblkhd)
         73831 MiB available memory on the node where the printing process lives
------------------
     ethr =  1.36E-10,  avg # of iterations =  2.0

     negative rho (up, down):  4.797E-03 5.164E-03

     total cpu time spent up to now is     9545.5 secs

     total energy              =  -16138.55490168 Ry
     estimated scf accuracy    <       0.00000046 Ry

     total magnetization       =     1.00 Bohr mag/cell
     absolute magnetization    =     1.12 Bohr mag/cell

     iteration # 25     ecut=    50.00 Ry     beta= 0.40
     Davidson diagonalization with overlap

---- Real-time Memory Report at c_bands before calling an iterative solver
           532 MiB given to the printing process from OS
           355 MiB allocation reported by mallinfo(arena+hblkhd)
         73860 MiB available memory on the node where the printing process lives
------------------
     ethr =  9.45E-11,  avg # of iterations =  6.9

     negative rho (up, down):  4.796E-03 5.163E-03

     total cpu time spent up to now is     9919.1 secs

     total energy              =  -16138.55490175 Ry
     estimated scf accuracy    <       0.00000005 Ry

     total magnetization       =     1.00 Bohr mag/cell
     absolute magnetization    =     1.12 Bohr mag/cell

     iteration # 26     ecut=    50.00 Ry     beta= 0.40
     Davidson diagonalization with overlap

---- Real-time Memory Report at c_bands before calling an iterative solver
           532 MiB given to the printing process from OS
           355 MiB allocation reported by mallinfo(arena+hblkhd)
         73666 MiB available memory on the node where the printing process lives
------------------
     ethr =  1.08E-11,  avg # of iterations =  6.1

     negative rho (up, down):  4.795E-03 5.163E-03

     total cpu time spent up to now is    10272.5 secs

     total energy              =  -16138.55490175 Ry
     estimated scf accuracy    <       0.00000001 Ry

     total magnetization       =     1.00 Bohr mag/cell
     absolute magnetization    =     1.12 Bohr mag/cell

     iteration # 27     ecut=    50.00 Ry     beta= 0.40
     Davidson diagonalization with overlap

---- Real-time Memory Report at c_bands before calling an iterative solver
           532 MiB given to the printing process from OS
           355 MiB allocation reported by mallinfo(arena+hblkhd)
         73824 MiB available memory on the node where the printing process lives
------------------
     ethr =  3.05E-12,  avg # of iterations =  9.0

     negative rho (up, down):  4.795E-03 5.163E-03

     total cpu time spent up to now is    10778.7 secs

     total energy              =  -16138.55490176 Ry
     estimated scf accuracy    <       0.00000004 Ry

     total magnetization       =     1.00 Bohr mag/cell
     absolute magnetization    =     1.12 Bohr mag/cell

     iteration # 28     ecut=    50.00 Ry     beta= 0.40
     Davidson diagonalization with overlap

---- Real-time Memory Report at c_bands before calling an iterative solver
           532 MiB given to the printing process from OS
           355 MiB allocation reported by mallinfo(arena+hblkhd)
         73678 MiB available memory on the node where the printing process lives
------------------
     ethr =  3.05E-12,  avg # of iterations =  7.0

     negative rho (up, down):  4.795E-03 5.163E-03

     total cpu time spent up to now is    11208.2 secs

     total energy              =  -16138.55490176 Ry
     estimated scf accuracy    <          5.6E-09 Ry

     total magnetization       =     1.00 Bohr mag/cell
     absolute magnetization    =     1.12 Bohr mag/cell

     iteration # 29     ecut=    50.00 Ry     beta= 0.40
     Davidson diagonalization with overlap

---- Real-time Memory Report at c_bands before calling an iterative solver
           532 MiB given to the printing process from OS
           355 MiB allocation reported by mallinfo(arena+hblkhd)
         73650 MiB available memory on the node where the printing process lives
------------------
     ethr =  1.16E-12,  avg # of iterations =  5.9

     negative rho (up, down):  4.795E-03 5.163E-03

     total cpu time spent up to now is    11633.7 secs

     total energy              =  -16138.55490176 Ry
     estimated scf accuracy    <          9.5E-09 Ry

     total magnetization       =     1.00 Bohr mag/cell
     absolute magnetization    =     1.12 Bohr mag/cell

     iteration # 30     ecut=    50.00 Ry     beta= 0.40
     Davidson diagonalization with overlap

---- Real-time Memory Report at c_bands before calling an iterative solver
           532 MiB given to the printing process from OS
           355 MiB allocation reported by mallinfo(arena+hblkhd)
         73664 MiB available memory on the node where the printing process lives
------------------
     ethr =  1.16E-12,  avg # of iterations =  2.0

     negative rho (up, down):  4.795E-03 5.163E-03

     total cpu time spent up to now is    11934.6 secs

     total energy              =  -16138.55490176 Ry
     estimated scf accuracy    <          4.8E-09 Ry

     total magnetization       =     1.00 Bohr mag/cell
     absolute magnetization    =     1.12 Bohr mag/cell

     iteration # 31     ecut=    50.00 Ry     beta= 0.40
     Davidson diagonalization with overlap

---- Real-time Memory Report at c_bands before calling an iterative solver
           532 MiB given to the printing process from OS
           355 MiB allocation reported by mallinfo(arena+hblkhd)
         73715 MiB available memory on the node where the printing process lives
------------------
     ethr =  9.88E-13,  avg # of iterations =  7.0

     negative rho (up, down):  4.795E-03 5.163E-03

     Magnetic moment per site  (integrated on atomic sphere of radius R)
     atom   1 (R=0.078)  charge= 10.3731  magn=  0.0015
     atom   2 (R=0.078)  charge= 10.3731  magn=  0.0080
     atom   3 (R=0.078)  charge= 10.3740  magn= -0.0007
     atom   4 (R=0.078)  charge= 10.3743  magn=  0.0148
     atom   5 (R=0.078)  charge= 10.3763  magn=  0.0111
     atom   6 (R=0.078)  charge= 10.3757  magn=  0.0063
     atom   7 (R=0.078)  charge= 10.3783  magn=  0.0051
     atom   8 (R=0.078)  charge= 10.3749  magn=  0.0108
     atom   9 (R=0.078)  charge= 10.3753  magn=  0.0034
     atom  10 (R=0.078)  charge= 10.3820  magn=  0.0365
     atom  11 (R=0.078)  charge= 10.3836  magn=  0.0168
     atom  12 (R=0.078)  charge= 10.3743  magn=  0.0165
     atom  13 (R=0.078)  charge= 10.3731  magn=  0.0029
     atom  14 (R=0.078)  charge= 10.3740  magn= -0.0006
     atom  15 (R=0.078)  charge= 10.3816  magn=  0.0171
     atom  16 (R=0.078)  charge= 10.3760  magn=  0.0042
     atom  17 (R=0.078)  charge=  4.1591  magn=  0.0027
     atom  18 (R=0.078)  charge=  4.1558  magn=  0.0017
     atom  19 (R=0.078)  charge=  4.1586  magn= -0.0000
     atom  20 (R=0.078)  charge=  4.1590  magn=  0.0028
     atom  21 (R=0.078)  charge=  4.1594  magn=  0.0025
     atom  22 (R=0.078)  charge=  4.1750  magn=  0.0122
     atom  23 (R=0.078)  charge=  4.1788  magn=  0.0050
     atom  24 (R=0.078)  charge=  4.1586  magn=  0.0036
     atom  25 (R=0.078)  charge=  4.1591  magn=  0.0022
     atom  26 (R=0.078)  charge=  4.1626  magn=  0.0026
     atom  27 (R=0.078)  charge=  4.1805  magn=  0.0068
     atom  28 (R=0.078)  charge=  4.1668  magn=  0.0125
     atom  29 (R=0.078)  charge=  4.1578  magn=  0.0030
     atom  30 (R=0.078)  charge=  4.1574  magn=  0.0007
     atom  31 (R=0.078)  charge=  4.1566  magn=  0.0017
     atom  32 (R=0.078)  charge=  4.1575  magn=  0.0062
     atom  33 (R=0.078)  charge=  4.1609  magn=  0.0008
     atom  34 (R=0.078)  charge=  4.1591  magn=  0.0008
     atom  35 (R=0.078)  charge=  4.1606  magn= -0.0002
     atom  36 (R=0.078)  charge=  4.1609  magn=  0.0001
     atom  37 (R=0.078)  charge=  4.1601  magn=  0.0005
     atom  38 (R=0.078)  charge=  4.1589  magn=  0.0036
     atom  39 (R=0.078)  charge=  4.1568  magn=  0.0010
     atom  40 (R=0.078)  charge=  4.1595  magn= -0.0001
     atom  41 (R=0.078)  charge=  4.1602  magn=  0.0005
     atom  42 (R=0.078)  charge=  4.1579  magn=  0.0018
     atom  43 (R=0.078)  charge=  4.1526  magn=  0.0025
     atom  44 (R=0.078)  charge=  4.1584  magn=  0.0032
     atom  45 (R=0.078)  charge=  4.1594  magn=  0.0015
     atom  46 (R=0.078)  charge=  4.1597  magn=  0.0002
     atom  47 (R=0.078)  charge=  4.1603  magn=  0.0006
     atom  48 (R=0.078)  charge=  4.1598  magn=  0.0022
     atom  49 (R=0.075)  charge=  8.3759  magn=  0.0117
     atom  50 (R=0.075)  charge=  8.3724  magn=  0.0309
     atom  51 (R=0.075)  charge=  8.3760  magn=  0.0134
     atom  52 (R=0.075)  charge=  8.3726  magn=  0.0331
     atom  53 (R=0.075)  charge=  8.3615  magn=  0.0186
     atom  54 (R=0.033)  charge=  1.3266  magn= -0.0002
     atom  55 (R=0.033)  charge=  2.1049  magn=  0.0004
     atom  56 (R=0.033)  charge=  0.4359  magn=  0.0002
     atom  57 (R=0.033)  charge=  0.4038  magn=  0.0001
     atom  58 (R=0.033)  charge=  0.4361  magn=  0.0001

     total cpu time spent up to now is    12305.4 secs

     End of self-consistent calculation

 ------ SPIN UP ------------


          k = 0.0000 0.0000 0.0000 (112117 PWs)   bands (ev):

   -73.8214 -73.8179 -73.8149 -73.8124 -73.8104 -73.8095 -73.8069 -73.8049
   -73.8001 -73.7982 -73.7954 -73.7934 -73.7916 -73.7588 -73.7541 -73.7447
   -38.2293 -38.2243 -38.2232 -38.1683 -38.1675 -38.1626 -38.1622 -38.1558
   -38.1480 -38.0642 -38.0613 -38.0587 -38.0581 -38.0530 -38.0509 -38.0491
   -38.0356 -38.0339 -38.0313 -38.0307 -38.0269 -38.0262 -38.0239 -38.0218
   -38.0212 -38.0184 -38.0167 -38.0089 -38.0000 -37.9970 -37.9957 -37.9926
   -37.9911 -37.9869 -37.9732 -37.9630 -37.9617 -37.9588 -37.9563 -37.9510
   -37.9297 -37.9228 -37.9183 -37.9177 -37.9139 -37.9090 -37.8747 -37.8714
   -21.4636 -15.3230 -14.6033 -13.7167 -13.7035 -13.6794 -13.6489 -13.6357
   -13.6254 -12.9879 -12.7183 -12.6828 -12.6603 -12.6445 -12.6080 -12.5862
   -12.5449 -12.5122 -12.4780 -12.4617 -12.4505 -12.4484 -12.4271 -12.4258
   -12.4209 -12.2286 -12.2065 -12.1952 -12.1795 -12.1625 -12.1586 -12.1549
   -12.1517 -12.1492  -7.9082  -7.4465  -6.3482  -6.3326  -6.3145  -6.2895
    -6.1673  -5.6205  -5.5792  -5.5571  -5.5388  -5.5336  -5.4998  -5.4512
    -5.4205  -5.3978  -5.3200  -5.2899  -5.2678  -5.1121  -5.1000  -5.0706
    -5.0656  -5.0611  -5.0600  -5.0055  -5.0041  -4.9952  -4.5307  -4.4478
    -4.4086  -4.3535  -4.3004  -4.2906  -4.2746  -4.2536  -4.2393  -4.1891
    -4.0870  -4.0170  -3.9851  -3.9689  -3.9428  -3.8019  -3.7669  -3.7649
    -3.7097  -3.6846  -3.6810  -3.6174  -3.5216  -3.4808  -3.4138  -3.4093
    -3.3799  -3.3725  -3.3044  -3.2321  -3.2035  -3.1896  -3.1708  -3.1497
    -3.1400  -3.1320  -3.1180  -3.1146  -3.0692  -2.9674  -2.8278  -2.7746
    -2.7294  -2.6839  -2.6554  -2.5985  -2.5899  -2.5273  -2.5189  -2.4725
    -2.4676  -2.4408  -2.4395  -2.4336  -2.4065  -2.3483  -2.2994  -2.2156
    -2.1384  -2.0915  -1.9861  -1.9835  -1.9610  -1.9392  -1.8765  -1.8417
    -1.8210  -1.7889  -1.7754  -1.7709  -1.7581  -1.7571  -1.7498  -1.7442
    -1.7335  -1.7155  -1.6766  -1.6717  -1.6654  -1.6519  -1.6421  -1.6163
    -1.5872  -1.5382  -1.5302  -1.5124  -1.4596  -1.4245  -1.3800  -1.3636
    -1.3173  -1.2811  -1.2094  -1.1043  -1.0594  -1.0363  -1.0209  -1.0019
    -0.7347  -0.6999  -0.6956  -0.6935  -0.6842  -0.6803  -0.6551  -0.6521
    -0.6358  -0.4030  -0.3944  -0.3828  -0.3678  -0.3555  -0.3473  -0.3283
     0.1914   1.2485   1.5302

     occupation numbers 
     1.0000   1.0000   1.0000   1.0000   1.0000   1.0000   1.0000   1.0000
     1.0000   1.0000   1.0000   1.0000   1.0000   1.0000   1.0000   1.0000
     1.0000   1.0000   1.0000   1.0000   1.0000   1.0000   1.0000   1.0000
     1.0000   1.0000   1.0000   1.0000   1.0000   1.0000   1.0000   1.0000
     1.0000   1.0000   1.0000   1.0000   1.0000   1.0000   1.0000   1.0000
     1.0000   1.0000   1.0000   1.0000   1.0000   1.0000   1.0000   1.0000
     1.0000   1.0000   1.0000   1.0000   1.0000   1.0000   1.0000   1.0000
     1.0000   1.0000   1.0000   1.0000   1.0000   1.0000   1.0000   1.0000
     1.0000   1.0000   1.0000   1.0000   1.0000   1.0000   1.0000   1.0000
     1.0000   1.0000   1.0000   1.0000   1.0000   1.0000   1.0000   1.0000
     1.0000   1.0000   1.0000   1.0000   1.0000   1.0000   1.0000   1.0000
     1.0000   1.0000   1.0000   1.0000   1.0000   1.0000   1.0000   1.0000
     1.0000   1.0000   1.0000   1.0000   1.0000   1.0000   1.0000   1.0000
     1.0000   1.0000   1.0000   1.0000   1.0000   1.0000   1.0000   1.0000
     1.0000   1.0000   1.0000   1.0000   1.0000   1.0000   1.0000   1.0000
     1.0000   1.0000   1.0000   1.0000   1.0000   1.0000   1.0000   1.0000
     1.0000   1.0000   1.0000   1.0000   1.0000   1.0000   1.0000   1.0000
     1.0000   1.0000   1.0000   1.0000   1.0000   1.0000   1.0000   1.0000
     1.0000   1.0000   1.0000   1.0000   1.0000   1.0000   1.0000   1.0000
     1.0000   1.0000   1.0000   1.0000   1.0000   1.0000   1.0000   1.0000
     1.0000   1.0000   1.0000   1.0000   1.0000   1.0000   1.0000   1.0000
     1.0000   1.0000   1.0000   1.0000   1.0000   1.0000   1.0000   1.0000
     1.0000   1.0000   1.0000   1.0000   1.0000   1.0000   1.0000   1.0000
     1.0000   1.0000   1.0000   1.0000   1.0000   1.0000   1.0000   1.0000
     1.0000   1.0000   1.0000   1.0000   1.0000   1.0000   1.0000   1.0000
     1.0000   1.0000   1.0000   1.0000   1.0000   1.0000   1.0000   1.0000
     1.0000   1.0000   1.0000   1.0000   1.0000   1.0000   1.0000   1.0000
     1.0000   1.0000   1.0000   1.0000   1.0000   1.0000   1.0000   1.0000
     1.0000   1.0000   1.0000   1.0000   1.0000   1.0000   1.0000   1.0000
     1.0000   1.0000   1.0000   1.0000   1.0000   1.0000   1.0000   1.0000
     1.0000   1.0000   1.0000

          k = 0.0000 0.2309 0.0000 (112171 PWs)   bands (ev):

   -73.8212 -73.8181 -73.8149 -73.8126 -73.8101 -73.8095 -73.8069 -73.8048
   -73.8003 -73.7982 -73.7953 -73.7935 -73.7916 -73.7588 -73.7541 -73.7447
   -38.2240 -38.2191 -38.2169 -38.1747 -38.1701 -38.1668 -38.1599 -38.1523
   -38.1453 -38.1081 -38.0833 -38.0812 -38.0572 -38.0535 -38.0500 -38.0371
   -38.0336 -38.0309 -38.0286 -38.0260 -38.0228 -38.0207 -38.0178 -38.0159
   -38.0089 -38.0035 -38.0017 -38.0003 -37.9984 -37.9965 -37.9930 -37.9916
   -37.9901 -37.9868 -37.9735 -37.9663 -37.9641 -37.9592 -37.9562 -37.9511
   -37.9370 -37.9273 -37.9264 -37.9159 -37.9127 -37.9054 -37.8822 -37.8730
   -21.4636 -15.3230 -14.5617 -13.9821 -13.8073 -13.7902 -13.4992 -13.4662
   -13.3294 -12.9719 -12.8119 -12.7402 -12.7024 -12.6924 -12.6599 -12.5925
   -12.5599 -12.5479 -12.4992 -12.4816 -12.4619 -12.4421 -12.4282 -12.3217
   -12.2899 -12.2681 -12.2489 -12.2190 -12.1901 -12.1792 -12.1728 -12.1573
   -12.1000 -12.0848  -7.9082  -7.4465  -6.2867  -6.2753  -6.2432  -6.2415
    -6.1656  -5.6759  -5.6526  -5.6354  -5.5649  -5.5238  -5.4945  -5.4764
    -5.4353  -5.4232  -5.4011  -5.3262  -5.3220  -5.2926  -5.2754  -5.0786
    -5.0715  -5.0233  -5.0073  -4.9614  -4.7447  -4.7394  -4.5971  -4.4906
    -4.4593  -4.3914  -4.3283  -4.2940  -4.2153  -4.1665  -4.1521  -4.1257
    -4.1050  -4.0680  -4.0488  -4.0065  -3.9903  -3.9181  -3.9149  -3.9064
    -3.6778  -3.5803  -3.5480  -3.5143  -3.4746  -3.4486  -3.4438  -3.3892
    -3.3693  -3.3206  -3.3025  -3.2855  -3.2811  -3.2145  -3.2001  -3.1547
    -3.1089  -3.0023  -2.9703  -2.9399  -2.8641  -2.7987  -2.7819  -2.7542
    -2.7298  -2.7233  -2.7048  -2.6921  -2.6640  -2.6406  -2.6157  -2.5502
    -2.5259  -2.5100  -2.4829  -2.4470  -2.3683  -2.3212  -2.2098  -2.1697
    -2.1297  -2.0923  -2.0234  -2.0092  -1.9903  -1.9740  -1.9428  -1.9162
    -1.8966  -1.8688  -1.8581  -1.8227  -1.7948  -1.7687  -1.7506  -1.7351
    -1.7143  -1.7016  -1.6772  -1.6707  -1.6559  -1.6147  -1.5911  -1.5572
    -1.5413  -1.5007  -1.4899  -1.4666  -1.4392  -1.3782  -1.3422  -1.3324
    -1.3024  -1.2869  -1.2523  -1.2308  -1.1713  -1.0774  -1.0517  -1.0299
    -0.9023  -0.7853  -0.7679  -0.7554  -0.5781  -0.5702  -0.5582  -0.5400
    -0.5270  -0.5172  -0.4183  -0.3827  -0.3713  -0.2718  -0.1760  -0.1510
     0.1724   1.2549   1.5616

     occupation numbers 
     1.0000   1.0000   1.0000   1.0000   1.0000   1.0000   1.0000   1.0000
     1.0000   1.0000   1.0000   1.0000   1.0000   1.0000   1.0000   1.0000
     1.0000   1.0000   1.0000   1.0000   1.0000   1.0000   1.0000   1.0000
     1.0000   1.0000   1.0000   1.0000   1.0000   1.0000   1.0000   1.0000
     1.0000   1.0000   1.0000   1.0000   1.0000   1.0000   1.0000   1.0000
     1.0000   1.0000   1.0000   1.0000   1.0000   1.0000   1.0000   1.0000
     1.0000   1.0000   1.0000   1.0000   1.0000   1.0000   1.0000   1.0000
     1.0000   1.0000   1.0000   1.0000   1.0000   1.0000   1.0000   1.0000
     1.0000   1.0000   1.0000   1.0000   1.0000   1.0000   1.0000   1.0000
     1.0000   1.0000   1.0000   1.0000   1.0000   1.0000   1.0000   1.0000
     1.0000   1.0000   1.0000   1.0000   1.0000   1.0000   1.0000   1.0000
     1.0000   1.0000   1.0000   1.0000   1.0000   1.0000   1.0000   1.0000
     1.0000   1.0000   1.0000   1.0000   1.0000   1.0000   1.0000   1.0000
     1.0000   1.0000   1.0000   1.0000   1.0000   1.0000   1.0000   1.0000
     1.0000   1.0000   1.0000   1.0000   1.0000   1.0000   1.0000   1.0000
     1.0000   1.0000   1.0000   1.0000   1.0000   1.0000   1.0000   1.0000
     1.0000   1.0000   1.0000   1.0000   1.0000   1.0000   1.0000   1.0000
     1.0000   1.0000   1.0000   1.0000   1.0000   1.0000   1.0000   1.0000
     1.0000   1.0000   1.0000   1.0000   1.0000   1.0000   1.0000   1.0000
     1.0000   1.0000   1.0000   1.0000   1.0000   1.0000   1.0000   1.0000
     1.0000   1.0000   1.0000   1.0000   1.0000   1.0000   1.0000   1.0000
     1.0000   1.0000   1.0000   1.0000   1.0000   1.0000   1.0000   1.0000
     1.0000   1.0000   1.0000   1.0000   1.0000   1.0000   1.0000   1.0000
     1.0000   1.0000   1.0000   1.0000   1.0000   1.0000   1.0000   1.0000
     1.0000   1.0000   1.0000   1.0000   1.0000   1.0000   1.0000   1.0000
     1.0000   1.0000   1.0000   1.0000   1.0000   1.0000   1.0000   1.0000
     1.0000   1.0000   1.0000   1.0000   1.0000   1.0000   1.0000   1.0000
     1.0000   1.0000   1.0000   1.0000   1.0000   1.0000   1.0000   1.0000
     1.0000   1.0000   1.0000   1.0000   1.0000   1.0000   1.0000   1.0000
     1.0000   1.0000   1.0000   1.0000   1.0000   1.0000   1.0000   1.0000
     1.0000   1.0000   1.0000

          k = 0.0000 0.4619 0.0000 (112236 PWs)   bands (ev):

   -73.8209 -73.8185 -73.8150 -73.8128 -73.8099 -73.8094 -73.8069 -73.8047
   -73.8005 -73.7982 -73.7951 -73.7937 -73.7916 -73.7588 -73.7541 -73.7447
   -38.2108 -38.2083 -38.1949 -38.1923 -38.1804 -38.1707 -38.1644 -38.1514
   -38.1354 -38.1306 -38.1100 -38.1055 -38.0682 -38.0629 -38.0517 -38.0429
   -38.0357 -38.0249 -38.0213 -38.0170 -38.0137 -38.0110 -38.0073 -38.0050
   -38.0031 -38.0017 -38.0012 -37.9956 -37.9928 -37.9899 -37.9867 -37.9831
   -37.9780 -37.9745 -37.9713 -37.9699 -37.9576 -37.9559 -37.9538 -37.9522
   -37.9474 -37.9408 -37.9360 -37.9204 -37.9155 -37.8996 -37.8980 -37.8759
   -21.4636 -15.3230 -14.4401 -14.2386 -13.8770 -13.8582 -13.2702 -13.2349
   -13.0252 -13.0044 -12.9750 -12.9222 -12.8377 -12.7358 -12.7094 -12.6937
   -12.5266 -12.5194 -12.4677 -12.4545 -12.4416 -12.4293 -12.3871 -12.3738
   -12.3552 -12.2889 -12.2212 -12.2065 -12.1819 -12.1637 -12.1617 -12.1573
   -12.0608 -12.0440  -7.9082  -7.4465  -6.1792  -6.1313  -6.1187  -6.0966
    -6.0322  -5.8782  -5.8659  -5.8434  -5.7196  -5.5397  -5.5051  -5.4936
    -5.4654  -5.4509  -5.4425  -5.3988  -5.3790  -5.3313  -5.3068  -5.0719
    -5.0686  -5.0357  -5.0142  -4.8161  -4.6377  -4.5347  -4.4921  -4.4456
    -4.3996  -4.3807  -4.3545  -4.3189  -4.2503  -4.2372  -4.1967  -4.1658
    -4.1348  -4.1241  -4.1082  -4.0820  -4.0706  -4.0573  -4.0477  -3.7008
    -3.5802  -3.5163  -3.4876  -3.4490  -3.4260  -3.3975  -3.3754  -3.3159
    -3.3019  -3.2875  -3.2681  -3.2455  -3.2264  -3.1940  -3.1693  -3.1130
    -3.0721  -3.0664  -3.0155  -2.9768  -2.9586  -2.9212  -2.8697  -2.7810
    -2.7578  -2.7136  -2.6737  -2.6449  -2.6165  -2.5778  -2.5434  -2.5007
    -2.4566  -2.4379  -2.4028  -2.3247  -2.2848  -2.2605  -2.2475  -2.1920
    -2.1329  -2.1027  -2.0511  -2.0254  -2.0159  -2.0056  -1.9882  -1.9598
    -1.9379  -1.9141  -1.8858  -1.8791  -1.8612  -1.8490  -1.8445  -1.8328
    -1.7782  -1.7623  -1.7266  -1.7114  -1.6794  -1.6733  -1.6389  -1.6252
    -1.5993  -1.5601  -1.5388  -1.5095  -1.4392  -1.3954  -1.3073  -1.2949
    -1.2418  -1.2088  -1.1964  -1.1551  -1.1250  -1.1032  -1.0544  -1.0109
    -0.9828  -0.8996  -0.7392  -0.7281  -0.6466  -0.6304  -0.5002  -0.4628
    -0.4492  -0.4389  -0.4035  -0.3860  -0.3188  -0.0997  -0.0036   0.0196
     0.1227   1.2646   1.6141

     occupation numbers 
     1.0000   1.0000   1.0000   1.0000   1.0000   1.0000   1.0000   1.0000
     1.0000   1.0000   1.0000   1.0000   1.0000   1.0000   1.0000   1.0000
     1.0000   1.0000   1.0000   1.0000   1.0000   1.0000   1.0000   1.0000
     1.0000   1.0000   1.0000   1.0000   1.0000   1.0000   1.0000   1.0000
     1.0000   1.0000   1.0000   1.0000   1.0000   1.0000   1.0000   1.0000
     1.0000   1.0000   1.0000   1.0000   1.0000   1.0000   1.0000   1.0000
     1.0000   1.0000   1.0000   1.0000   1.0000   1.0000   1.0000   1.0000
     1.0000   1.0000   1.0000   1.0000   1.0000   1.0000   1.0000   1.0000
     1.0000   1.0000   1.0000   1.0000   1.0000   1.0000   1.0000   1.0000
     1.0000   1.0000   1.0000   1.0000   1.0000   1.0000   1.0000   1.0000
     1.0000   1.0000   1.0000   1.0000   1.0000   1.0000   1.0000   1.0000
     1.0000   1.0000   1.0000   1.0000   1.0000   1.0000   1.0000   1.0000
     1.0000   1.0000   1.0000   1.0000   1.0000   1.0000   1.0000   1.0000
     1.0000   1.0000   1.0000   1.0000   1.0000   1.0000   1.0000   1.0000
     1.0000   1.0000   1.0000   1.0000   1.0000   1.0000   1.0000   1.0000
     1.0000   1.0000   1.0000   1.0000   1.0000   1.0000   1.0000   1.0000
     1.0000   1.0000   1.0000   1.0000   1.0000   1.0000   1.0000   1.0000
     1.0000   1.0000   1.0000   1.0000   1.0000   1.0000   1.0000   1.0000
     1.0000   1.0000   1.0000   1.0000   1.0000   1.0000   1.0000   1.0000
     1.0000   1.0000   1.0000   1.0000   1.0000   1.0000   1.0000   1.0000
     1.0000   1.0000   1.0000   1.0000   1.0000   1.0000   1.0000   1.0000
     1.0000   1.0000   1.0000   1.0000   1.0000   1.0000   1.0000   1.0000
     1.0000   1.0000   1.0000   1.0000   1.0000   1.0000   1.0000   1.0000
     1.0000   1.0000   1.0000   1.0000   1.0000   1.0000   1.0000   1.0000
     1.0000   1.0000   1.0000   1.0000   1.0000   1.0000   1.0000   1.0000
     1.0000   1.0000   1.0000   1.0000   1.0000   1.0000   1.0000   1.0000
     1.0000   1.0000   1.0000   1.0000   1.0000   1.0000   1.0000   1.0000
     1.0000   1.0000   1.0000   1.0000   1.0000   1.0000   1.0000   1.0000
     1.0000   1.0000   1.0000   1.0000   1.0000   1.0000   1.0000   1.0000
     1.0000   1.0000   1.0000   1.0000   1.0000   1.0000   1.0000   1.0000
     1.0000   1.0000   1.0000

          k = 0.2000 0.3464 0.0000 (112231 PWs)   bands (ev):

   -73.8209 -73.8186 -73.8149 -73.8126 -73.8101 -73.8092 -73.8070 -73.8048
   -73.8002 -73.7983 -73.7951 -73.7937 -73.7916 -73.7588 -73.7541 -73.7447
   -38.2163 -38.2076 -38.2043 -38.1835 -38.1805 -38.1687 -38.1600 -38.1525
   -38.1366 -38.1281 -38.1208 -38.0820 -38.0640 -38.0603 -38.0519 -38.0416
   -38.0365 -38.0334 -38.0296 -38.0240 -38.0203 -38.0138 -38.0074 -38.0044
   -37.9998 -37.9970 -37.9953 -37.9935 -37.9911 -37.9885 -37.9870 -37.9857
   -37.9806 -37.9771 -37.9735 -37.9702 -37.9634 -37.9594 -37.9563 -37.9517
   -37.9455 -37.9364 -37.9305 -37.9255 -37.9093 -37.9043 -37.8910 -37.8765
   -21.4636 -15.3230 -14.4799 -14.1083 -14.0636 -13.5718 -13.5690 -13.1796
   -13.1231 -13.0143 -12.9401 -12.8148 -12.7945 -12.7153 -12.6761 -12.6103
   -12.5998 -12.5812 -12.5762 -12.4623 -12.4294 -12.3959 -12.3815 -12.3180
   -12.2948 -12.2777 -12.2567 -12.2369 -12.2251 -12.1595 -12.1549 -12.1124
   -12.0997 -12.0402  -7.9082  -7.4465  -6.1899  -6.1792  -6.1507  -6.1324
    -6.1100  -5.7712  -5.7421  -5.7259  -5.6862  -5.6490  -5.6066  -5.5714
    -5.5101  -5.4785  -5.3604  -5.3394  -5.2891  -5.2808  -5.2481  -5.2335
    -5.1001  -4.9103  -4.8948  -4.8208  -4.7559  -4.6114  -4.4965  -4.4755
    -4.4031  -4.3720  -4.3427  -4.3093  -4.2808  -4.2679  -4.2396  -4.2316
    -4.1778  -4.1275  -4.1122  -4.0969  -4.0602  -3.7707  -3.7413  -3.7315
    -3.7236  -3.6986  -3.6157  -3.5029  -3.4359  -3.4061  -3.3569  -3.3275
    -3.3032  -3.2510  -3.2311  -3.2117  -3.1741  -3.1554  -3.1130  -3.0963
    -3.0463  -3.0203  -2.9951  -2.9565  -2.9488  -2.9310  -2.9208  -2.9054
    -2.8232  -2.7475  -2.7271  -2.6585  -2.6405  -2.5663  -2.5258  -2.4838
    -2.4703  -2.4435  -2.3920  -2.3671  -2.3204  -2.2256  -2.1897  -2.1698
    -2.1364  -2.1298  -2.1009  -2.0927  -2.0224  -2.0039  -1.9861  -1.9564
    -1.9332  -1.9111  -1.8883  -1.8620  -1.8426  -1.8327  -1.8027  -1.7493
    -1.7356  -1.7237  -1.6923  -1.6794  -1.6699  -1.6275  -1.6000  -1.5801
    -1.5712  -1.5463  -1.5421  -1.5133  -1.4327  -1.3978  -1.3857  -1.3708
    -1.2963  -1.2308  -1.2123  -1.1901  -1.1611  -1.1226  -1.0375  -1.0186
    -0.8795  -0.8531  -0.6863  -0.6771  -0.6436  -0.6363  -0.6208  -0.5466
    -0.5377  -0.4434  -0.3808  -0.2604  -0.2160  -0.2048  -0.1640   0.0666
     0.1355   1.2775   1.5862

     occupation numbers 
     1.0000   1.0000   1.0000   1.0000   1.0000   1.0000   1.0000   1.0000
     1.0000   1.0000   1.0000   1.0000   1.0000   1.0000   1.0000   1.0000
     1.0000   1.0000   1.0000   1.0000   1.0000   1.0000   1.0000   1.0000
     1.0000   1.0000   1.0000   1.0000   1.0000   1.0000   1.0000   1.0000
     1.0000   1.0000   1.0000   1.0000   1.0000   1.0000   1.0000   1.0000
     1.0000   1.0000   1.0000   1.0000   1.0000   1.0000   1.0000   1.0000
     1.0000   1.0000   1.0000   1.0000   1.0000   1.0000   1.0000   1.0000
     1.0000   1.0000   1.0000   1.0000   1.0000   1.0000   1.0000   1.0000
     1.0000   1.0000   1.0000   1.0000   1.0000   1.0000   1.0000   1.0000
     1.0000   1.0000   1.0000   1.0000   1.0000   1.0000   1.0000   1.0000
     1.0000   1.0000   1.0000   1.0000   1.0000   1.0000   1.0000   1.0000
     1.0000   1.0000   1.0000   1.0000   1.0000   1.0000   1.0000   1.0000
     1.0000   1.0000   1.0000   1.0000   1.0000   1.0000   1.0000   1.0000
     1.0000   1.0000   1.0000   1.0000   1.0000   1.0000   1.0000   1.0000
     1.0000   1.0000   1.0000   1.0000   1.0000   1.0000   1.0000   1.0000
     1.0000   1.0000   1.0000   1.0000   1.0000   1.0000   1.0000   1.0000
     1.0000   1.0000   1.0000   1.0000   1.0000   1.0000   1.0000   1.0000
     1.0000   1.0000   1.0000   1.0000   1.0000   1.0000   1.0000   1.0000
     1.0000   1.0000   1.0000   1.0000   1.0000   1.0000   1.0000   1.0000
     1.0000   1.0000   1.0000   1.0000   1.0000   1.0000   1.0000   1.0000
     1.0000   1.0000   1.0000   1.0000   1.0000   1.0000   1.0000   1.0000
     1.0000   1.0000   1.0000   1.0000   1.0000   1.0000   1.0000   1.0000
     1.0000   1.0000   1.0000   1.0000   1.0000   1.0000   1.0000   1.0000
     1.0000   1.0000   1.0000   1.0000   1.0000   1.0000   1.0000   1.0000
     1.0000   1.0000   1.0000   1.0000   1.0000   1.0000   1.0000   1.0000
     1.0000   1.0000   1.0000   1.0000   1.0000   1.0000   1.0000   1.0000
     1.0000   1.0000   1.0000   1.0000   1.0000   1.0000   1.0000   1.0000
     1.0000   1.0000   1.0000   1.0000   1.0000   1.0000   1.0000   1.0000
     1.0000   1.0000   1.0000   1.0000   1.0000   1.0000   1.0000   1.0000
     1.0000   1.0000   1.0000   1.0000   1.0000   1.0000   1.0000   1.0000
     1.0000   1.0000   1.0000

          k = 0.2000 0.5774 0.0000 (112237 PWs)   bands (ev):

   -73.8208 -73.8187 -73.8150 -73.8128 -73.8099 -73.8091 -73.8070 -73.8047
   -73.8004 -73.7983 -73.7951 -73.7937 -73.7916 -73.7588 -73.7541 -73.7447
   -38.2052 -38.2013 -38.1911 -38.1878 -38.1810 -38.1756 -38.1697 -38.1549
   -38.1516 -38.1372 -38.0970 -38.0956 -38.0914 -38.0553 -38.0498 -38.0443
   -38.0381 -38.0349 -38.0219 -38.0215 -38.0118 -38.0093 -38.0070 -38.0053
   -38.0042 -38.0015 -37.9965 -37.9928 -37.9901 -37.9865 -37.9794 -37.9750
   -37.9736 -37.9710 -37.9661 -37.9634 -37.9606 -37.9574 -37.9548 -37.9505
   -37.9469 -37.9421 -37.9363 -37.9334 -37.9220 -37.9018 -37.8928 -37.8796
   -21.4636 -15.3230 -14.3410 -14.2975 -14.1192 -13.6001 -13.3065 -13.2982
   -12.9589 -12.9533 -12.8932 -12.8581 -12.8464 -12.8066 -12.7973 -12.6629
   -12.6355 -12.6077 -12.4968 -12.4889 -12.3887 -12.3769 -12.3635 -12.3280
   -12.3140 -12.3014 -12.2633 -12.2378 -12.2367 -12.1352 -12.1250 -12.1228
   -12.0831 -12.0207  -7.9082  -7.4465  -6.1747  -6.0628  -6.0141  -5.9910
    -5.9260  -5.9009  -5.8807  -5.8546  -5.8139  -5.7481  -5.6917  -5.6289
    -5.6177  -5.5455  -5.3683  -5.2714  -5.2597  -5.2241  -5.2089  -5.1756
    -5.1595  -4.8610  -4.8367  -4.7584  -4.6387  -4.5833  -4.5528  -4.5262
    -4.4793  -4.4231  -4.4036  -4.3239  -4.3166  -4.2438  -4.2373  -4.2173
    -4.1935  -4.1697  -4.1269  -4.0999  -3.9583  -3.9547  -3.7970  -3.6677
    -3.6546  -3.5711  -3.4466  -3.3978  -3.3662  -3.3339  -3.3137  -3.2909
    -3.2775  -3.2662  -3.2493  -3.2390  -3.2204  -3.2056  -3.1482  -3.1297
    -3.1065  -3.0851  -3.0667  -3.0398  -3.0124  -2.9632  -2.8835  -2.8352
    -2.7580  -2.7313  -2.7025  -2.6766  -2.6374  -2.5586  -2.5227  -2.4615
    -2.4027  -2.3380  -2.3248  -2.3129  -2.2593  -2.2109  -2.1843  -2.1394
    -2.1249  -2.1143  -2.0840  -2.0662  -2.0221  -1.9912  -1.9714  -1.9603
    -1.9433  -1.9227  -1.9019  -1.8852  -1.8744  -1.8609  -1.8480  -1.8399
    -1.8281  -1.7862  -1.7591  -1.7339  -1.7009  -1.6854  -1.6725  -1.6553
    -1.6224  -1.5768  -1.5655  -1.5123  -1.4831  -1.4710  -1.4185  -1.3381
    -1.2892  -1.2001  -1.1645  -1.1484  -1.1009  -1.0856  -1.0119  -1.0004
    -0.8185  -0.8037  -0.7068  -0.6959  -0.6647  -0.6502  -0.5974  -0.5877
    -0.5710  -0.4194  -0.2837  -0.2750  -0.1935  -0.1299  -0.0714   0.0855
     0.1836   1.2866   1.6025

     occupation numbers 
     1.0000   1.0000   1.0000   1.0000   1.0000   1.0000   1.0000   1.0000
     1.0000   1.0000   1.0000   1.0000   1.0000   1.0000   1.0000   1.0000
     1.0000   1.0000   1.0000   1.0000   1.0000   1.0000   1.0000   1.0000
     1.0000   1.0000   1.0000   1.0000   1.0000   1.0000   1.0000   1.0000
     1.0000   1.0000   1.0000   1.0000   1.0000   1.0000   1.0000   1.0000
     1.0000   1.0000   1.0000   1.0000   1.0000   1.0000   1.0000   1.0000
     1.0000   1.0000   1.0000   1.0000   1.0000   1.0000   1.0000   1.0000
     1.0000   1.0000   1.0000   1.0000   1.0000   1.0000   1.0000   1.0000
     1.0000   1.0000   1.0000   1.0000   1.0000   1.0000   1.0000   1.0000
     1.0000   1.0000   1.0000   1.0000   1.0000   1.0000   1.0000   1.0000
     1.0000   1.0000   1.0000   1.0000   1.0000   1.0000   1.0000   1.0000
     1.0000   1.0000   1.0000   1.0000   1.0000   1.0000   1.0000   1.0000
     1.0000   1.0000   1.0000   1.0000   1.0000   1.0000   1.0000   1.0000
     1.0000   1.0000   1.0000   1.0000   1.0000   1.0000   1.0000   1.0000
     1.0000   1.0000   1.0000   1.0000   1.0000   1.0000   1.0000   1.0000
     1.0000   1.0000   1.0000   1.0000   1.0000   1.0000   1.0000   1.0000
     1.0000   1.0000   1.0000   1.0000   1.0000   1.0000   1.0000   1.0000
     1.0000   1.0000   1.0000   1.0000   1.0000   1.0000   1.0000   1.0000
     1.0000   1.0000   1.0000   1.0000   1.0000   1.0000   1.0000   1.0000
     1.0000   1.0000   1.0000   1.0000   1.0000   1.0000   1.0000   1.0000
     1.0000   1.0000   1.0000   1.0000   1.0000   1.0000   1.0000   1.0000
     1.0000   1.0000   1.0000   1.0000   1.0000   1.0000   1.0000   1.0000
     1.0000   1.0000   1.0000   1.0000   1.0000   1.0000   1.0000   1.0000
     1.0000   1.0000   1.0000   1.0000   1.0000   1.0000   1.0000   1.0000
     1.0000   1.0000   1.0000   1.0000   1.0000   1.0000   1.0000   1.0000
     1.0000   1.0000   1.0000   1.0000   1.0000   1.0000   1.0000   1.0000
     1.0000   1.0000   1.0000   1.0000   1.0000   1.0000   1.0000   1.0000
     1.0000   1.0000   1.0000   1.0000   1.0000   1.0000   1.0000   1.0000
     1.0000   1.0000   1.0000   1.0000   1.0000   1.0000   1.0000   1.0000
     1.0000   1.0000   1.0000   1.0000   1.0000   1.0000   1.0000   1.0000
     1.0000   1.0000   1.0000

          k =-0.2000 0.1155 0.0000 (112171 PWs)   bands (ev):

   -73.8212 -73.8180 -73.8149 -73.8128 -73.8102 -73.8092 -73.8070 -73.8048
   -73.8001 -73.7983 -73.7954 -73.7934 -73.7916 -73.7588 -73.7541 -73.7447
   -38.2241 -38.2193 -38.2165 -38.1732 -38.1695 -38.1683 -38.1633 -38.1507
   -38.1442 -38.1074 -38.0846 -38.0805 -38.0556 -38.0530 -38.0490 -38.0388
   -38.0326 -38.0321 -38.0294 -38.0282 -38.0212 -38.0203 -38.0181 -38.0167
   -38.0085 -38.0051 -38.0020 -38.0006 -37.9978 -37.9962 -37.9926 -37.9907
   -37.9899 -37.9867 -37.9734 -37.9667 -37.9642 -37.9586 -37.9563 -37.9511
   -37.9372 -37.9291 -37.9252 -37.9150 -37.9129 -37.9048 -37.8793 -37.8761
   -21.4636 -15.3230 -14.5618 -13.9809 -13.8073 -13.7929 -13.4841 -13.4793
   -13.3301 -12.9723 -12.7970 -12.7642 -12.6968 -12.6870 -12.6622 -12.5922
   -12.5699 -12.5264 -12.5026 -12.4836 -12.4748 -12.4372 -12.4265 -12.3129
   -12.2994 -12.2664 -12.2490 -12.2182 -12.1915 -12.1804 -12.1724 -12.1552
   -12.0997 -12.0856  -7.9082  -7.4465  -6.2907  -6.2699  -6.2495  -6.2366
    -6.1656  -5.6841  -5.6449  -5.6304  -5.5547  -5.5370  -5.4978  -5.4742
    -5.4440  -5.4254  -5.3892  -5.3334  -5.3159  -5.2876  -5.2817  -5.0872
    -5.0680  -5.0210  -5.0048  -4.9568  -4.7456  -4.7406  -4.5789  -4.5207
    -4.4559  -4.3778  -4.3456  -4.2857  -4.2135  -4.1674  -4.1529  -4.1280
    -4.1051  -4.0714  -4.0455  -4.0015  -3.9891  -3.9206  -3.9108  -3.9022
    -3.6725  -3.5954  -3.5412  -3.5085  -3.4839  -3.4660  -3.4503  -3.3805
    -3.3714  -3.3239  -3.3007  -3.2844  -3.2704  -3.2116  -3.2001  -3.1601
    -3.1082  -2.9914  -2.9703  -2.9354  -2.8394  -2.8075  -2.7820  -2.7554
    -2.7363  -2.7200  -2.7039  -2.6958  -2.6812  -2.6580  -2.6116  -2.5525
    -2.5239  -2.4892  -2.4753  -2.4508  -2.3748  -2.3182  -2.2027  -2.1812
    -2.1391  -2.0941  -2.0271  -2.0106  -1.9849  -1.9715  -1.9503  -1.9131
    -1.8908  -1.8718  -1.8467  -1.8250  -1.8093  -1.7781  -1.7441  -1.7225
    -1.7125  -1.6960  -1.6789  -1.6678  -1.6580  -1.6139  -1.5819  -1.5606
    -1.5336  -1.5109  -1.5010  -1.4410  -1.4320  -1.3787  -1.3571  -1.3352
    -1.3191  -1.2817  -1.2617  -1.2288  -1.1686  -1.0861  -1.0500  -1.0186
    -0.9056  -0.7814  -0.7644  -0.7461  -0.5909  -0.5745  -0.5579  -0.5388
    -0.5242  -0.5158  -0.4204  -0.3886  -0.3645  -0.2698  -0.1777  -0.1508
     0.1712   1.2766   1.5377

     occupation numbers 
     1.0000   1.0000   1.0000   1.0000   1.0000   1.0000   1.0000   1.0000
     1.0000   1.0000   1.0000   1.0000   1.0000   1.0000   1.0000   1.0000
     1.0000   1.0000   1.0000   1.0000   1.0000   1.0000   1.0000   1.0000
     1.0000   1.0000   1.0000   1.0000   1.0000   1.0000   1.0000   1.0000
     1.0000   1.0000   1.0000   1.0000   1.0000   1.0000   1.0000   1.0000
     1.0000   1.0000   1.0000   1.0000   1.0000   1.0000   1.0000   1.0000
     1.0000   1.0000   1.0000   1.0000   1.0000   1.0000   1.0000   1.0000
     1.0000   1.0000   1.0000   1.0000   1.0000   1.0000   1.0000   1.0000
     1.0000   1.0000   1.0000   1.0000   1.0000   1.0000   1.0000   1.0000
     1.0000   1.0000   1.0000   1.0000   1.0000   1.0000   1.0000   1.0000
     1.0000   1.0000   1.0000   1.0000   1.0000   1.0000   1.0000   1.0000
     1.0000   1.0000   1.0000   1.0000   1.0000   1.0000   1.0000   1.0000
     1.0000   1.0000   1.0000   1.0000   1.0000   1.0000   1.0000   1.0000
     1.0000   1.0000   1.0000   1.0000   1.0000   1.0000   1.0000   1.0000
     1.0000   1.0000   1.0000   1.0000   1.0000   1.0000   1.0000   1.0000
     1.0000   1.0000   1.0000   1.0000   1.0000   1.0000   1.0000   1.0000
     1.0000   1.0000   1.0000   1.0000   1.0000   1.0000   1.0000   1.0000
     1.0000   1.0000   1.0000   1.0000   1.0000   1.0000   1.0000   1.0000
     1.0000   1.0000   1.0000   1.0000   1.0000   1.0000   1.0000   1.0000
     1.0000   1.0000   1.0000   1.0000   1.0000   1.0000   1.0000   1.0000
     1.0000   1.0000   1.0000   1.0000   1.0000   1.0000   1.0000   1.0000
     1.0000   1.0000   1.0000   1.0000   1.0000   1.0000   1.0000   1.0000
     1.0000   1.0000   1.0000   1.0000   1.0000   1.0000   1.0000   1.0000
     1.0000   1.0000   1.0000   1.0000   1.0000   1.0000   1.0000   1.0000
     1.0000   1.0000   1.0000   1.0000   1.0000   1.0000   1.0000   1.0000
     1.0000   1.0000   1.0000   1.0000   1.0000   1.0000   1.0000   1.0000
     1.0000   1.0000   1.0000   1.0000   1.0000   1.0000   1.0000   1.0000
     1.0000   1.0000   1.0000   1.0000   1.0000   1.0000   1.0000   1.0000
     1.0000   1.0000   1.0000   1.0000   1.0000   1.0000   1.0000   1.0000
     1.0000   1.0000   1.0000   1.0000   1.0000   1.0000   1.0000   1.0000
     1.0000   1.0000   1.0000

          k = 0.2000 0.1155 0.0000 (112171 PWs)   bands (ev):

   -73.8212 -73.8182 -73.8149 -73.8125 -73.8103 -73.8093 -73.8070 -73.8049
   -73.8000 -73.7983 -73.7953 -73.7935 -73.7916 -73.7588 -73.7541 -73.7447
   -38.2238 -38.2199 -38.2162 -38.1741 -38.1704 -38.1672 -38.1622 -38.1509
   -38.1443 -38.1076 -38.0844 -38.0808 -38.0558 -38.0533 -38.0496 -38.0388
   -38.0327 -38.0307 -38.0297 -38.0278 -38.0214 -38.0194 -38.0185 -38.0169
   -38.0088 -38.0042 -38.0020 -38.0006 -37.9980 -37.9958 -37.9938 -37.9908
   -37.9898 -37.9866 -37.9733 -37.9660 -37.9649 -37.9588 -37.9562 -37.9510
   -37.9372 -37.9284 -37.9247 -37.9170 -37.9122 -37.9050 -37.8808 -37.8744
   -21.4636 -15.3230 -14.5617 -13.9811 -13.8064 -13.7934 -13.4832 -13.4810
   -13.3292 -12.9724 -12.7971 -12.7636 -12.6963 -12.6881 -12.6625 -12.5922
   -12.5711 -12.5248 -12.5004 -12.4856 -12.4743 -12.4395 -12.4258 -12.3083
   -12.2992 -12.2694 -12.2520 -12.2133 -12.1971 -12.1773 -12.1755 -12.1527
   -12.0969 -12.0881  -7.9082  -7.4465  -6.2853  -6.2716  -6.2523  -6.2381
    -6.1656  -5.6780  -5.6483  -5.6280  -5.5558  -5.5414  -5.4949  -5.4768
    -5.4497  -5.4292  -5.3762  -5.3328  -5.3193  -5.2883  -5.2806  -5.0830
    -5.0759  -5.0189  -5.0085  -4.9513  -4.7465  -4.7413  -4.5745  -4.5166
    -4.4531  -4.3995  -4.3446  -4.2793  -4.2127  -4.1680  -4.1548  -4.1282
    -4.1047  -4.0616  -4.0455  -4.0086  -3.9874  -3.9181  -3.9150  -3.9046
    -3.6648  -3.5759  -3.5563  -3.5156  -3.4739  -3.4627  -3.4463  -3.3893
    -3.3774  -3.3167  -3.3069  -3.2879  -3.2646  -3.2186  -3.2021  -3.1527
    -3.1145  -3.0073  -2.9652  -2.9180  -2.8356  -2.8137  -2.7887  -2.7580
    -2.7436  -2.7176  -2.7040  -2.6978  -2.6731  -2.6436  -2.6048  -2.5557
    -2.5376  -2.5056  -2.4792  -2.4353  -2.3714  -2.3118  -2.2081  -2.1866
    -2.1282  -2.0961  -2.0248  -2.0052  -1.9778  -1.9741  -1.9361  -1.9138
    -1.9062  -1.8831  -1.8438  -1.8289  -1.8128  -1.7862  -1.7477  -1.7288
    -1.7035  -1.6895  -1.6788  -1.6619  -1.6450  -1.6306  -1.5956  -1.5499
    -1.5379  -1.5103  -1.4652  -1.4508  -1.4304  -1.4100  -1.3620  -1.3166
    -1.3109  -1.3021  -1.2561  -1.2158  -1.1747  -1.0688  -1.0504  -1.0320
    -0.9045  -0.7717  -0.7632  -0.7604  -0.6026  -0.5675  -0.5535  -0.5382
    -0.5265  -0.5208  -0.4157  -0.3893  -0.3608  -0.2705  -0.1739  -0.1548
     0.1718   1.2713   1.5441

     occupation numbers 
     1.0000   1.0000   1.0000   1.0000   1.0000   1.0000   1.0000   1.0000
     1.0000   1.0000   1.0000   1.0000   1.0000   1.0000   1.0000   1.0000
     1.0000   1.0000   1.0000   1.0000   1.0000   1.0000   1.0000   1.0000
     1.0000   1.0000   1.0000   1.0000   1.0000   1.0000   1.0000   1.0000
     1.0000   1.0000   1.0000   1.0000   1.0000   1.0000   1.0000   1.0000
     1.0000   1.0000   1.0000   1.0000   1.0000   1.0000   1.0000   1.0000
     1.0000   1.0000   1.0000   1.0000   1.0000   1.0000   1.0000   1.0000
     1.0000   1.0000   1.0000   1.0000   1.0000   1.0000   1.0000   1.0000
     1.0000   1.0000   1.0000   1.0000   1.0000   1.0000   1.0000   1.0000
     1.0000   1.0000   1.0000   1.0000   1.0000   1.0000   1.0000   1.0000
     1.0000   1.0000   1.0000   1.0000   1.0000   1.0000   1.0000   1.0000
     1.0000   1.0000   1.0000   1.0000   1.0000   1.0000   1.0000   1.0000
     1.0000   1.0000   1.0000   1.0000   1.0000   1.0000   1.0000   1.0000
     1.0000   1.0000   1.0000   1.0000   1.0000   1.0000   1.0000   1.0000
     1.0000   1.0000   1.0000   1.0000   1.0000   1.0000   1.0000   1.0000
     1.0000   1.0000   1.0000   1.0000   1.0000   1.0000   1.0000   1.0000
     1.0000   1.0000   1.0000   1.0000   1.0000   1.0000   1.0000   1.0000
     1.0000   1.0000   1.0000   1.0000   1.0000   1.0000   1.0000   1.0000
     1.0000   1.0000   1.0000   1.0000   1.0000   1.0000   1.0000   1.0000
     1.0000   1.0000   1.0000   1.0000   1.0000   1.0000   1.0000   1.0000
     1.0000   1.0000   1.0000   1.0000   1.0000   1.0000   1.0000   1.0000
     1.0000   1.0000   1.0000   1.0000   1.0000   1.0000   1.0000   1.0000
     1.0000   1.0000   1.0000   1.0000   1.0000   1.0000   1.0000   1.0000
     1.0000   1.0000   1.0000   1.0000   1.0000   1.0000   1.0000   1.0000
     1.0000   1.0000   1.0000   1.0000   1.0000   1.0000   1.0000   1.0000
     1.0000   1.0000   1.0000   1.0000   1.0000   1.0000   1.0000   1.0000
     1.0000   1.0000   1.0000   1.0000   1.0000   1.0000   1.0000   1.0000
     1.0000   1.0000   1.0000   1.0000   1.0000   1.0000   1.0000   1.0000
     1.0000   1.0000   1.0000   1.0000   1.0000   1.0000   1.0000   1.0000
     1.0000   1.0000   1.0000   1.0000   1.0000   1.0000   1.0000   1.0000
     1.0000   1.0000   1.0000

          k =-0.4000 0.2309 0.0000 (112236 PWs)   bands (ev):

   -73.8210 -73.8183 -73.8150 -73.8132 -73.8100 -73.8086 -73.8072 -73.8048
   -73.8001 -73.7984 -73.7954 -73.7934 -73.7916 -73.7588 -73.7541 -73.7447
   -38.2120 -38.2063 -38.1948 -38.1885 -38.1875 -38.1687 -38.1656 -38.1515
   -38.1348 -38.1284 -38.1103 -38.1054 -38.0675 -38.0624 -38.0515 -38.0443
   -38.0336 -38.0291 -38.0189 -38.0166 -38.0139 -38.0126 -38.0086 -38.0041
   -38.0030 -38.0018 -37.9997 -37.9971 -37.9920 -37.9903 -37.9867 -37.9838
   -37.9796 -37.9739 -37.9705 -37.9697 -37.9578 -37.9557 -37.9539 -37.9513
   -37.9491 -37.9427 -37.9343 -37.9215 -37.9136 -37.8966 -37.8950 -37.8806
   -21.4636 -15.3230 -14.4405 -14.2374 -13.8744 -13.8625 -13.2543 -13.2486
   -13.0297 -13.0024 -12.9799 -12.9155 -12.8371 -12.7379 -12.7085 -12.6897
   -12.5413 -12.5141 -12.4664 -12.4576 -12.4352 -12.4278 -12.3911 -12.3680
   -12.3575 -12.2867 -12.2268 -12.2048 -12.1804 -12.1660 -12.1593 -12.1567
   -12.0608 -12.0446  -7.9082  -7.4465  -6.1788  -6.1376  -6.1190  -6.0941
    -6.0277  -5.8815  -5.8612  -5.8444  -5.7165  -5.5393  -5.5161  -5.4949
    -5.4592  -5.4516  -5.4424  -5.3939  -5.3845  -5.3222  -5.3147  -5.0873
    -5.0630  -5.0287  -5.0105  -4.8098  -4.6145  -4.5620  -4.4873  -4.4472
    -4.4189  -4.3785  -4.3573  -4.3163  -4.2514  -4.2275  -4.2006  -4.1667
    -4.1273  -4.1190  -4.1067  -4.0799  -4.0737  -4.0591  -4.0478  -3.6948
    -3.5762  -3.5295  -3.4838  -3.4645  -3.4310  -3.4040  -3.3639  -3.3239
    -3.3064  -3.2860  -3.2656  -3.2474  -3.2203  -3.2045  -3.1557  -3.1211
    -3.0783  -3.0534  -3.0199  -2.9777  -2.9436  -2.9118  -2.8458  -2.7864
    -2.7485  -2.7199  -2.6714  -2.6385  -2.6204  -2.5925  -2.5608  -2.5037
    -2.4377  -2.4322  -2.4053  -2.3421  -2.2909  -2.2595  -2.2504  -2.1823
    -2.1319  -2.1231  -2.0656  -2.0373  -2.0235  -1.9999  -1.9701  -1.9418
    -1.9233  -1.9063  -1.8957  -1.8754  -1.8703  -1.8574  -1.8441  -1.8294
    -1.7898  -1.7603  -1.7107  -1.7025  -1.6777  -1.6744  -1.6575  -1.6200
    -1.5979  -1.5691  -1.5107  -1.4829  -1.4576  -1.3652  -1.3380  -1.3075
    -1.2716  -1.2265  -1.1791  -1.1343  -1.1262  -1.1079  -1.0821  -0.9938
    -0.9751  -0.8851  -0.7413  -0.7257  -0.6467  -0.6295  -0.5153  -0.4615
    -0.4557  -0.4304  -0.4096  -0.3828  -0.3095  -0.1068  -0.0047   0.0256
     0.1173   1.3225   1.5497

     occupation numbers 
     1.0000   1.0000   1.0000   1.0000   1.0000   1.0000   1.0000   1.0000
     1.0000   1.0000   1.0000   1.0000   1.0000   1.0000   1.0000   1.0000
     1.0000   1.0000   1.0000   1.0000   1.0000   1.0000   1.0000   1.0000
     1.0000   1.0000   1.0000   1.0000   1.0000   1.0000   1.0000   1.0000
     1.0000   1.0000   1.0000   1.0000   1.0000   1.0000   1.0000   1.0000
     1.0000   1.0000   1.0000   1.0000   1.0000   1.0000   1.0000   1.0000
     1.0000   1.0000   1.0000   1.0000   1.0000   1.0000   1.0000   1.0000
     1.0000   1.0000   1.0000   1.0000   1.0000   1.0000   1.0000   1.0000
     1.0000   1.0000   1.0000   1.0000   1.0000   1.0000   1.0000   1.0000
     1.0000   1.0000   1.0000   1.0000   1.0000   1.0000   1.0000   1.0000
     1.0000   1.0000   1.0000   1.0000   1.0000   1.0000   1.0000   1.0000
     1.0000   1.0000   1.0000   1.0000   1.0000   1.0000   1.0000   1.0000
     1.0000   1.0000   1.0000   1.0000   1.0000   1.0000   1.0000   1.0000
     1.0000   1.0000   1.0000   1.0000   1.0000   1.0000   1.0000   1.0000
     1.0000   1.0000   1.0000   1.0000   1.0000   1.0000   1.0000   1.0000
     1.0000   1.0000   1.0000   1.0000   1.0000   1.0000   1.0000   1.0000
     1.0000   1.0000   1.0000   1.0000   1.0000   1.0000   1.0000   1.0000
     1.0000   1.0000   1.0000   1.0000   1.0000   1.0000   1.0000   1.0000
     1.0000   1.0000   1.0000   1.0000   1.0000   1.0000   1.0000   1.0000
     1.0000   1.0000   1.0000   1.0000   1.0000   1.0000   1.0000   1.0000
     1.0000   1.0000   1.0000   1.0000   1.0000   1.0000   1.0000   1.0000
     1.0000   1.0000   1.0000   1.0000   1.0000   1.0000   1.0000   1.0000
     1.0000   1.0000   1.0000   1.0000   1.0000   1.0000   1.0000   1.0000
     1.0000   1.0000   1.0000   1.0000   1.0000   1.0000   1.0000   1.0000
     1.0000   1.0000   1.0000   1.0000   1.0000   1.0000   1.0000   1.0000
     1.0000   1.0000   1.0000   1.0000   1.0000   1.0000   1.0000   1.0000
     1.0000   1.0000   1.0000   1.0000   1.0000   1.0000   1.0000   1.0000
     1.0000   1.0000   1.0000   1.0000   1.0000   1.0000   1.0000   1.0000
     1.0000   1.0000   1.0000   1.0000   1.0000   1.0000   1.0000   1.0000
     1.0000   1.0000   1.0000   1.0000   1.0000   1.0000   1.0000   1.0000
     1.0000   1.0000   1.0000

          k = 0.4000 0.2309 0.0000 (112236 PWs)   bands (ev):

   -73.8207 -73.8188 -73.8149 -73.8126 -73.8101 -73.8089 -73.8073 -73.8049
   -73.7998 -73.7986 -73.7951 -73.7937 -73.7915 -73.7588 -73.7541 -73.7447
   -38.2104 -38.2083 -38.1945 -38.1912 -38.1848 -38.1676 -38.1660 -38.1514
   -38.1343 -38.1289 -38.1110 -38.1058 -38.0670 -38.0634 -38.0513 -38.0445
   -38.0328 -38.0292 -38.0182 -38.0158 -38.0150 -38.0138 -38.0087 -38.0044
   -38.0022 -38.0009 -37.9992 -37.9959 -37.9939 -37.9904 -37.9864 -37.9837
   -37.9810 -37.9737 -37.9711 -37.9686 -37.9572 -37.9548 -37.9543 -37.9510
   -37.9491 -37.9418 -37.9344 -37.9223 -37.9140 -37.8985 -37.8961 -37.8783
   -21.4636 -15.3230 -14.4404 -14.2377 -13.8737 -13.8631 -13.2542 -13.2497
   -13.0264 -13.0024 -12.9819 -12.9147 -12.8380 -12.7356 -12.7104 -12.6905
   -12.5482 -12.5068 -12.4706 -12.4552 -12.4341 -12.4280 -12.3914 -12.3666
   -12.3551 -12.2866 -12.2335 -12.2027 -12.1823 -12.1650 -12.1598 -12.1542
   -12.0578 -12.0472  -7.9082  -7.4465  -6.1786  -6.1296  -6.1193  -6.0940
    -6.0415  -5.8742  -5.8608  -5.8411  -5.7214  -5.5405  -5.5146  -5.4978
    -5.4538  -5.4531  -5.4450  -5.3934  -5.3879  -5.3200  -5.3138  -5.0786
    -5.0746  -5.0269  -5.0152  -4.7819  -4.6278  -4.5661  -4.4957  -4.4575
    -4.4250  -4.3774  -4.3554  -4.3103  -4.2457  -4.2318  -4.1964  -4.1642
    -4.1307  -4.1205  -4.1079  -4.0817  -4.0686  -4.0567  -4.0484  -3.6817
    -3.5690  -3.5308  -3.4743  -3.4569  -3.4368  -3.4076  -3.3665  -3.3333
    -3.2970  -3.2896  -3.2606  -3.2457  -3.2248  -3.2106  -3.1451  -3.1241
    -3.0962  -3.0626  -3.0263  -2.9761  -2.9457  -2.9115  -2.8571  -2.7863
    -2.7520  -2.6971  -2.6628  -2.6382  -2.6259  -2.6097  -2.5261  -2.5085
    -2.4676  -2.4376  -2.3817  -2.3404  -2.2832  -2.2654  -2.2514  -2.1664
    -2.1307  -2.1240  -2.0505  -2.0219  -2.0162  -1.9923  -1.9854  -1.9696
    -1.9457  -1.9109  -1.9002  -1.8745  -1.8622  -1.8530  -1.8442  -1.8286
    -1.8107  -1.7415  -1.7370  -1.7042  -1.6815  -1.6530  -1.6409  -1.6317
    -1.6046  -1.5620  -1.5186  -1.5052  -1.4313  -1.3689  -1.3194  -1.3002
    -1.2669  -1.2431  -1.1983  -1.1404  -1.1243  -1.0707  -1.0588  -1.0081
    -0.9827  -0.8959  -0.7365  -0.7320  -0.6453  -0.6358  -0.5252  -0.4651
    -0.4544  -0.4286  -0.4105  -0.3729  -0.3031  -0.1084  -0.0034   0.0215
     0.1204   1.3059   1.5701

     occupation numbers 
     1.0000   1.0000   1.0000   1.0000   1.0000   1.0000   1.0000   1.0000
     1.0000   1.0000   1.0000   1.0000   1.0000   1.0000   1.0000   1.0000
     1.0000   1.0000   1.0000   1.0000   1.0000   1.0000   1.0000   1.0000
     1.0000   1.0000   1.0000   1.0000   1.0000   1.0000   1.0000   1.0000
     1.0000   1.0000   1.0000   1.0000   1.0000   1.0000   1.0000   1.0000
     1.0000   1.0000   1.0000   1.0000   1.0000   1.0000   1.0000   1.0000
     1.0000   1.0000   1.0000   1.0000   1.0000   1.0000   1.0000   1.0000
     1.0000   1.0000   1.0000   1.0000   1.0000   1.0000   1.0000   1.0000
     1.0000   1.0000   1.0000   1.0000   1.0000   1.0000   1.0000   1.0000
     1.0000   1.0000   1.0000   1.0000   1.0000   1.0000   1.0000   1.0000
     1.0000   1.0000   1.0000   1.0000   1.0000   1.0000   1.0000   1.0000
     1.0000   1.0000   1.0000   1.0000   1.0000   1.0000   1.0000   1.0000
     1.0000   1.0000   1.0000   1.0000   1.0000   1.0000   1.0000   1.0000
     1.0000   1.0000   1.0000   1.0000   1.0000   1.0000   1.0000   1.0000
     1.0000   1.0000   1.0000   1.0000   1.0000   1.0000   1.0000   1.0000
     1.0000   1.0000   1.0000   1.0000   1.0000   1.0000   1.0000   1.0000
     1.0000   1.0000   1.0000   1.0000   1.0000   1.0000   1.0000   1.0000
     1.0000   1.0000   1.0000   1.0000   1.0000   1.0000   1.0000   1.0000
     1.0000   1.0000   1.0000   1.0000   1.0000   1.0000   1.0000   1.0000
     1.0000   1.0000   1.0000   1.0000   1.0000   1.0000   1.0000   1.0000
     1.0000   1.0000   1.0000   1.0000   1.0000   1.0000   1.0000   1.0000
     1.0000   1.0000   1.0000   1.0000   1.0000   1.0000   1.0000   1.0000
     1.0000   1.0000   1.0000   1.0000   1.0000   1.0000   1.0000   1.0000
     1.0000   1.0000   1.0000   1.0000   1.0000   1.0000   1.0000   1.0000
     1.0000   1.0000   1.0000   1.0000   1.0000   1.0000   1.0000   1.0000
     1.0000   1.0000   1.0000   1.0000   1.0000   1.0000   1.0000   1.0000
     1.0000   1.0000   1.0000   1.0000   1.0000   1.0000   1.0000   1.0000
     1.0000   1.0000   1.0000   1.0000   1.0000   1.0000   1.0000   1.0000
     1.0000   1.0000   1.0000   1.0000   1.0000   1.0000   1.0000   1.0000
     1.0000   1.0000   1.0000   1.0000   1.0000   1.0000   1.0000   1.0000
     1.0000   1.0000   1.0000

          k =-0.2000 0.3464 0.0000 (112231 PWs)   bands (ev):

   -73.8210 -73.8183 -73.8150 -73.8130 -73.8100 -73.8091 -73.8070 -73.8047
   -73.8003 -73.7982 -73.7953 -73.7935 -73.7916 -73.7588 -73.7541 -73.7447
   -38.2166 -38.2065 -38.2050 -38.1836 -38.1800 -38.1687 -38.1599 -38.1537
   -38.1372 -38.1299 -38.1174 -38.0814 -38.0653 -38.0599 -38.0523 -38.0416
   -38.0365 -38.0329 -38.0295 -38.0247 -38.0204 -38.0125 -38.0079 -38.0040
   -38.0006 -37.9976 -37.9956 -37.9928 -37.9907 -37.9884 -37.9866 -37.9854
   -37.9810 -37.9780 -37.9739 -37.9695 -37.9627 -37.9597 -37.9562 -37.9516
   -37.9460 -37.9368 -37.9311 -37.9259 -37.9078 -37.9030 -37.8911 -37.8776
   -21.4636 -15.3230 -14.4800 -14.1075 -14.0644 -13.5786 -13.5616 -13.1803
   -13.1237 -13.0142 -12.9399 -12.8131 -12.7960 -12.7111 -12.6772 -12.6246
   -12.5898 -12.5814 -12.5734 -12.4597 -12.4307 -12.3984 -12.3840 -12.3149
   -12.2964 -12.2786 -12.2560 -12.2312 -12.2274 -12.1612 -12.1544 -12.1130
   -12.1000 -12.0400  -7.9082  -7.4465  -6.1974  -6.1806  -6.1475  -6.1265
    -6.1081  -5.7739  -5.7429  -5.7218  -5.7045  -5.6312  -5.6072  -5.5689
    -5.5126  -5.4810  -5.3613  -5.3361  -5.3051  -5.2703  -5.2470  -5.2261
    -5.1026  -4.9190  -4.8996  -4.8017  -4.7608  -4.6141  -4.5226  -4.4532
    -4.4006  -4.3496  -4.3403  -4.3145  -4.2855  -4.2657  -4.2506  -4.2325
    -4.1692  -4.1351  -4.1162  -4.0981  -4.0590  -3.7794  -3.7452  -3.7339
    -3.7138  -3.6971  -3.6174  -3.5132  -3.4285  -3.3880  -3.3791  -3.3140
    -3.2994  -3.2480  -3.2383  -3.2091  -3.1719  -3.1525  -3.1324  -3.0890
    -3.0682  -3.0177  -2.9794  -2.9508  -2.9387  -2.9321  -2.9287  -2.9070
    -2.8031  -2.7480  -2.7269  -2.6819  -2.6356  -2.5678  -2.5359  -2.4827
    -2.4685  -2.4149  -2.3955  -2.3699  -2.3278  -2.2266  -2.2031  -2.1629
    -2.1428  -2.1288  -2.1134  -2.0876  -2.0429  -1.9953  -1.9885  -1.9490
    -1.9254  -1.9068  -1.8741  -1.8602  -1.8313  -1.8230  -1.8020  -1.7716
    -1.7476  -1.7096  -1.6904  -1.6772  -1.6569  -1.6437  -1.5941  -1.5888
    -1.5665  -1.5535  -1.5363  -1.5163  -1.4480  -1.4025  -1.3906  -1.3516
    -1.2952  -1.2536  -1.2018  -1.1785  -1.1635  -1.1254  -1.0519  -1.0062
    -0.8816  -0.8429  -0.6927  -0.6766  -0.6433  -0.6333  -0.6156  -0.5484
    -0.5416  -0.4334  -0.3909  -0.2630  -0.2117  -0.2044  -0.1663   0.0673
     0.1339   1.2854   1.5763

     occupation numbers 
     1.0000   1.0000   1.0000   1.0000   1.0000   1.0000   1.0000   1.0000
     1.0000   1.0000   1.0000   1.0000   1.0000   1.0000   1.0000   1.0000
     1.0000   1.0000   1.0000   1.0000   1.0000   1.0000   1.0000   1.0000
     1.0000   1.0000   1.0000   1.0000   1.0000   1.0000   1.0000   1.0000
     1.0000   1.0000   1.0000   1.0000   1.0000   1.0000   1.0000   1.0000
     1.0000   1.0000   1.0000   1.0000   1.0000   1.0000   1.0000   1.0000
     1.0000   1.0000   1.0000   1.0000   1.0000   1.0000   1.0000   1.0000
     1.0000   1.0000   1.0000   1.0000   1.0000   1.0000   1.0000   1.0000
     1.0000   1.0000   1.0000   1.0000   1.0000   1.0000   1.0000   1.0000
     1.0000   1.0000   1.0000   1.0000   1.0000   1.0000   1.0000   1.0000
     1.0000   1.0000   1.0000   1.0000   1.0000   1.0000   1.0000   1.0000
     1.0000   1.0000   1.0000   1.0000   1.0000   1.0000   1.0000   1.0000
     1.0000   1.0000   1.0000   1.0000   1.0000   1.0000   1.0000   1.0000
     1.0000   1.0000   1.0000   1.0000   1.0000   1.0000   1.0000   1.0000
     1.0000   1.0000   1.0000   1.0000   1.0000   1.0000   1.0000   1.0000
     1.0000   1.0000   1.0000   1.0000   1.0000   1.0000   1.0000   1.0000
     1.0000   1.0000   1.0000   1.0000   1.0000   1.0000   1.0000   1.0000
     1.0000   1.0000   1.0000   1.0000   1.0000   1.0000   1.0000   1.0000
     1.0000   1.0000   1.0000   1.0000   1.0000   1.0000   1.0000   1.0000
     1.0000   1.0000   1.0000   1.0000   1.0000   1.0000   1.0000   1.0000
     1.0000   1.0000   1.0000   1.0000   1.0000   1.0000   1.0000   1.0000
     1.0000   1.0000   1.0000   1.0000   1.0000   1.0000   1.0000   1.0000
     1.0000   1.0000   1.0000   1.0000   1.0000   1.0000   1.0000   1.0000
     1.0000   1.0000   1.0000   1.0000   1.0000   1.0000   1.0000   1.0000
     1.0000   1.0000   1.0000   1.0000   1.0000   1.0000   1.0000   1.0000
     1.0000   1.0000   1.0000   1.0000   1.0000   1.0000   1.0000   1.0000
     1.0000   1.0000   1.0000   1.0000   1.0000   1.0000   1.0000   1.0000
     1.0000   1.0000   1.0000   1.0000   1.0000   1.0000   1.0000   1.0000
     1.0000   1.0000   1.0000   1.0000   1.0000   1.0000   1.0000   1.0000
     1.0000   1.0000   1.0000   1.0000   1.0000   1.0000   1.0000   1.0000
     1.0000   1.0000   1.0000

          k = 0.4000-0.0000 0.0000 (112231 PWs)   bands (ev):

   -73.8209 -73.8185 -73.8150 -73.8128 -73.8101 -73.8088 -73.8072 -73.8049
   -73.7999 -73.7985 -73.7953 -73.7935 -73.7916 -73.7588 -73.7541 -73.7447
   -38.2166 -38.2072 -38.2040 -38.1834 -38.1802 -38.1699 -38.1605 -38.1538
   -38.1364 -38.1284 -38.1170 -38.0812 -38.0661 -38.0605 -38.0521 -38.0422
   -38.0351 -38.0331 -38.0297 -38.0262 -38.0184 -38.0136 -38.0083 -38.0029
   -38.0004 -37.9978 -37.9956 -37.9933 -37.9921 -37.9895 -37.9864 -37.9844
   -37.9795 -37.9790 -37.9737 -37.9698 -37.9627 -37.9593 -37.9560 -37.9514
   -37.9465 -37.9362 -37.9322 -37.9265 -37.9060 -37.9026 -37.8900 -37.8795
   -21.4636 -15.3230 -14.4801 -14.1040 -14.0679 -13.5731 -13.5679 -13.1753
   -13.1271 -13.0182 -12.9337 -12.8091 -12.8001 -12.7158 -12.6863 -12.6069
   -12.6039 -12.5785 -12.5654 -12.4613 -12.4280 -12.4173 -12.3692 -12.3120
   -12.2975 -12.2755 -12.2587 -12.2391 -12.2245 -12.1620 -12.1519 -12.1108
   -12.1014 -12.0404  -7.9082  -7.4465  -6.1879  -6.1859  -6.1513  -6.1240
    -6.1132  -5.7634  -5.7477  -5.7258  -5.6928  -5.6416  -5.6136  -5.5664
    -5.5106  -5.4782  -5.3568  -5.3400  -5.2976  -5.2767  -5.2494  -5.2343
    -5.1022  -4.9068  -4.8915  -4.8152  -4.7610  -4.5773  -4.5442  -4.4711
    -4.4148  -4.3518  -4.3429  -4.3183  -4.2805  -4.2693  -4.2485  -4.2157
    -4.1801  -4.1225  -4.1151  -4.0948  -4.0591  -3.7684  -3.7398  -3.7327
    -3.7130  -3.7037  -3.6295  -3.4906  -3.4359  -3.4078  -3.3775  -3.3315
    -3.2925  -3.2515  -3.2415  -3.2078  -3.1823  -3.1499  -3.1322  -3.0874
    -3.0485  -3.0108  -2.9745  -2.9571  -2.9462  -2.9287  -2.9130  -2.9053
    -2.7945  -2.7619  -2.7278  -2.6667  -2.6379  -2.5871  -2.5517  -2.4758
    -2.4722  -2.4259  -2.3929  -2.3518  -2.3258  -2.2320  -2.1859  -2.1671
    -2.1370  -2.1297  -2.1123  -2.1062  -2.0181  -1.9995  -1.9816  -1.9556
    -1.9321  -1.9059  -1.8878  -1.8701  -1.8571  -1.8267  -1.7949  -1.7716
    -1.7259  -1.7061  -1.6857  -1.6768  -1.6634  -1.6331  -1.6003  -1.5779
    -1.5619  -1.5525  -1.5379  -1.5107  -1.4549  -1.4179  -1.3749  -1.3454
    -1.2930  -1.2722  -1.2069  -1.1839  -1.1566  -1.1144  -1.0540  -1.0046
    -0.8728  -0.8550  -0.6871  -0.6799  -0.6443  -0.6282  -0.6200  -0.5465
    -0.5407  -0.4478  -0.3884  -0.2577  -0.2125  -0.1993  -0.1679   0.0646
     0.1339   1.3151   1.5452

     occupation numbers 
     1.0000   1.0000   1.0000   1.0000   1.0000   1.0000   1.0000   1.0000
     1.0000   1.0000   1.0000   1.0000   1.0000   1.0000   1.0000   1.0000
     1.0000   1.0000   1.0000   1.0000   1.0000   1.0000   1.0000   1.0000
     1.0000   1.0000   1.0000   1.0000   1.0000   1.0000   1.0000   1.0000
     1.0000   1.0000   1.0000   1.0000   1.0000   1.0000   1.0000   1.0000
     1.0000   1.0000   1.0000   1.0000   1.0000   1.0000   1.0000   1.0000
     1.0000   1.0000   1.0000   1.0000   1.0000   1.0000   1.0000   1.0000
     1.0000   1.0000   1.0000   1.0000   1.0000   1.0000   1.0000   1.0000
     1.0000   1.0000   1.0000   1.0000   1.0000   1.0000   1.0000   1.0000
     1.0000   1.0000   1.0000   1.0000   1.0000   1.0000   1.0000   1.0000
     1.0000   1.0000   1.0000   1.0000   1.0000   1.0000   1.0000   1.0000
     1.0000   1.0000   1.0000   1.0000   1.0000   1.0000   1.0000   1.0000
     1.0000   1.0000   1.0000   1.0000   1.0000   1.0000   1.0000   1.0000
     1.0000   1.0000   1.0000   1.0000   1.0000   1.0000   1.0000   1.0000
     1.0000   1.0000   1.0000   1.0000   1.0000   1.0000   1.0000   1.0000
     1.0000   1.0000   1.0000   1.0000   1.0000   1.0000   1.0000   1.0000
     1.0000   1.0000   1.0000   1.0000   1.0000   1.0000   1.0000   1.0000
     1.0000   1.0000   1.0000   1.0000   1.0000   1.0000   1.0000   1.0000
     1.0000   1.0000   1.0000   1.0000   1.0000   1.0000   1.0000   1.0000
     1.0000   1.0000   1.0000   1.0000   1.0000   1.0000   1.0000   1.0000
     1.0000   1.0000   1.0000   1.0000   1.0000   1.0000   1.0000   1.0000
     1.0000   1.0000   1.0000   1.0000   1.0000   1.0000   1.0000   1.0000
     1.0000   1.0000   1.0000   1.0000   1.0000   1.0000   1.0000   1.0000
     1.0000   1.0000   1.0000   1.0000   1.0000   1.0000   1.0000   1.0000
     1.0000   1.0000   1.0000   1.0000   1.0000   1.0000   1.0000   1.0000
     1.0000   1.0000   1.0000   1.0000   1.0000   1.0000   1.0000   1.0000
     1.0000   1.0000   1.0000   1.0000   1.0000   1.0000   1.0000   1.0000
     1.0000   1.0000   1.0000   1.0000   1.0000   1.0000   1.0000   1.0000
     1.0000   1.0000   1.0000   1.0000   1.0000   1.0000   1.0000   1.0000
     1.0000   1.0000   1.0000   1.0000   1.0000   1.0000   1.0000   1.0000
     1.0000   1.0000   1.0000

          k =-0.4000 0.4619 0.0000 (112237 PWs)   bands (ev):

   -73.8208 -73.8185 -73.8150 -73.8131 -73.8100 -73.8086 -73.8072 -73.8048
   -73.8001 -73.7984 -73.7953 -73.7935 -73.7916 -73.7588 -73.7541 -73.7447
   -38.2062 -38.1994 -38.1900 -38.1866 -38.1840 -38.1777 -38.1703 -38.1534
   -38.1507 -38.1371 -38.0987 -38.0945 -38.0893 -38.0564 -38.0491 -38.0455
   -38.0374 -38.0356 -38.0254 -38.0172 -38.0126 -38.0096 -38.0079 -38.0045
   -38.0034 -38.0006 -37.9979 -37.9924 -37.9902 -37.9865 -37.9791 -37.9760
   -37.9739 -37.9723 -37.9655 -37.9621 -37.9590 -37.9573 -37.9543 -37.9522
   -37.9500 -37.9425 -37.9383 -37.9313 -37.9192 -37.9004 -37.8898 -37.8839
   -21.4636 -15.3230 -14.3438 -14.2937 -14.1202 -13.6011 -13.3029 -13.2994
   -12.9661 -12.9542 -12.8912 -12.8612 -12.8321 -12.8056 -12.8008 -12.6702
   -12.6388 -12.6006 -12.4986 -12.4881 -12.3925 -12.3800 -12.3526 -12.3305
   -12.3139 -12.3016 -12.2655 -12.2392 -12.2339 -12.1383 -12.1243 -12.1193
   -12.0843 -12.0208  -7.9082  -7.4465  -6.1746  -6.0644  -6.0296  -5.9741
    -5.9197  -5.8950  -5.8820  -5.8642  -5.8126  -5.7493  -5.6938  -5.6305
    -5.6149  -5.5458  -5.3624  -5.2912  -5.2523  -5.2214  -5.2064  -5.1733
    -5.1623  -4.8592  -4.8374  -4.7507  -4.6250  -4.5948  -4.5492  -4.5299
    -4.4962  -4.4314  -4.3892  -4.3305  -4.3130  -4.2467  -4.2317  -4.2136
    -4.1981  -4.1685  -4.1248  -4.0989  -3.9617  -3.9517  -3.7969  -3.6754
    -3.6297  -3.5943  -3.4388  -3.4019  -3.3681  -3.3307  -3.3129  -3.2860
    -3.2831  -3.2719  -3.2467  -3.2363  -3.2246  -3.2185  -3.1541  -3.1258
    -3.1018  -3.0896  -3.0636  -3.0511  -3.0019  -2.9572  -2.8556  -2.8190
    -2.7487  -2.7352  -2.7167  -2.6863  -2.6354  -2.5974  -2.5150  -2.4240
    -2.4042  -2.3356  -2.3275  -2.3223  -2.2726  -2.2032  -2.1790  -2.1638
    -2.1507  -2.0944  -2.0841  -2.0567  -2.0330  -1.9835  -1.9731  -1.9529
    -1.9369  -1.9226  -1.8991  -1.8884  -1.8729  -1.8595  -1.8495  -1.8462
    -1.8228  -1.7964  -1.7533  -1.7222  -1.7078  -1.6775  -1.6713  -1.6580
    -1.6309  -1.5895  -1.5404  -1.5094  -1.4888  -1.4660  -1.4252  -1.3222
    -1.2884  -1.2409  -1.1746  -1.1210  -1.0977  -1.0793  -1.0484  -0.9749
    -0.8189  -0.7927  -0.7072  -0.6964  -0.6627  -0.6510  -0.6046  -0.5884
    -0.5721  -0.4185  -0.2856  -0.2794  -0.1839  -0.1241  -0.0820   0.0858
     0.1823   1.3234   1.5625

     occupation numbers 
     1.0000   1.0000   1.0000   1.0000   1.0000   1.0000   1.0000   1.0000
     1.0000   1.0000   1.0000   1.0000   1.0000   1.0000   1.0000   1.0000
     1.0000   1.0000   1.0000   1.0000   1.0000   1.0000   1.0000   1.0000
     1.0000   1.0000   1.0000   1.0000   1.0000   1.0000   1.0000   1.0000
     1.0000   1.0000   1.0000   1.0000   1.0000   1.0000   1.0000   1.0000
     1.0000   1.0000   1.0000   1.0000   1.0000   1.0000   1.0000   1.0000
     1.0000   1.0000   1.0000   1.0000   1.0000   1.0000   1.0000   1.0000
     1.0000   1.0000   1.0000   1.0000   1.0000   1.0000   1.0000   1.0000
     1.0000   1.0000   1.0000   1.0000   1.0000   1.0000   1.0000   1.0000
     1.0000   1.0000   1.0000   1.0000   1.0000   1.0000   1.0000   1.0000
     1.0000   1.0000   1.0000   1.0000   1.0000   1.0000   1.0000   1.0000
     1.0000   1.0000   1.0000   1.0000   1.0000   1.0000   1.0000   1.0000
     1.0000   1.0000   1.0000   1.0000   1.0000   1.0000   1.0000   1.0000
     1.0000   1.0000   1.0000   1.0000   1.0000   1.0000   1.0000   1.0000
     1.0000   1.0000   1.0000   1.0000   1.0000   1.0000   1.0000   1.0000
     1.0000   1.0000   1.0000   1.0000   1.0000   1.0000   1.0000   1.0000
     1.0000   1.0000   1.0000   1.0000   1.0000   1.0000   1.0000   1.0000
     1.0000   1.0000   1.0000   1.0000   1.0000   1.0000   1.0000   1.0000
     1.0000   1.0000   1.0000   1.0000   1.0000   1.0000   1.0000   1.0000
     1.0000   1.0000   1.0000   1.0000   1.0000   1.0000   1.0000   1.0000
     1.0000   1.0000   1.0000   1.0000   1.0000   1.0000   1.0000   1.0000
     1.0000   1.0000   1.0000   1.0000   1.0000   1.0000   1.0000   1.0000
     1.0000   1.0000   1.0000   1.0000   1.0000   1.0000   1.0000   1.0000
     1.0000   1.0000   1.0000   1.0000   1.0000   1.0000   1.0000   1.0000
     1.0000   1.0000   1.0000   1.0000   1.0000   1.0000   1.0000   1.0000
     1.0000   1.0000   1.0000   1.0000   1.0000   1.0000   1.0000   1.0000
     1.0000   1.0000   1.0000   1.0000   1.0000   1.0000   1.0000   1.0000
     1.0000   1.0000   1.0000   1.0000   1.0000   1.0000   1.0000   1.0000
     1.0000   1.0000   1.0000   1.0000   1.0000   1.0000   1.0000   1.0000
     1.0000   1.0000   1.0000   1.0000   1.0000   1.0000   1.0000   1.0000
     1.0000   1.0000   1.0000

          k = 0.6000 0.1155 0.0000 (112237 PWs)   bands (ev):

   -73.8207 -73.8189 -73.8150 -73.8127 -73.8100 -73.8088 -73.8073 -73.8049
   -73.8000 -73.7985 -73.7951 -73.7937 -73.7915 -73.7588 -73.7541 -73.7447
   -38.2049 -38.2011 -38.1908 -38.1881 -38.1812 -38.1777 -38.1698 -38.1532
   -38.1515 -38.1368 -38.0981 -38.0965 -38.0890 -38.0560 -38.0492 -38.0453
   -38.0375 -38.0358 -38.0250 -38.0164 -38.0133 -38.0103 -38.0073 -38.0048
   -38.0038 -37.9992 -37.9976 -37.9933 -37.9904 -37.9864 -37.9790 -37.9761
   -37.9738 -37.9731 -37.9653 -37.9620 -37.9594 -37.9576 -37.9547 -37.9520
   -37.9460 -37.9432 -37.9365 -37.9337 -37.9204 -37.9012 -37.8913 -37.8817
   -21.4636 -15.3230 -14.3431 -14.2945 -14.1200 -13.6010 -13.3103 -13.2920
   -12.9722 -12.9480 -12.8862 -12.8647 -12.8324 -12.8059 -12.8013 -12.6727
   -12.6376 -12.5988 -12.5085 -12.4779 -12.3992 -12.3767 -12.3487 -12.3258
   -12.3147 -12.3038 -12.2687 -12.2396 -12.2347 -12.1362 -12.1252 -12.1197
   -12.0836 -12.0211  -7.9082  -7.4465  -6.1746  -6.0614  -6.0246  -5.9732
    -5.9333  -5.9113  -5.8814  -5.8397  -5.8118  -5.7543  -5.6958  -5.6282
    -5.6171  -5.5424  -5.3613  -5.2875  -5.2609  -5.2302  -5.2016  -5.1772
    -5.1531  -4.8612  -4.8442  -4.7006  -4.6519  -4.6146  -4.5563  -4.5192
    -4.4991  -4.4404  -4.3896  -4.3261  -4.3069  -4.2467  -4.2361  -4.2042
    -4.1965  -4.1722  -4.1244  -4.1005  -3.9625  -3.9520  -3.7933  -3.6730
    -3.6312  -3.5851  -3.4404  -3.3809  -3.3720  -3.3389  -3.3074  -3.2919
    -3.2893  -3.2660  -3.2500  -3.2392  -3.2255  -3.2077  -3.1846  -3.1481
    -3.0919  -3.0835  -3.0579  -3.0261  -3.0110  -2.9699  -2.8532  -2.8173
    -2.7565  -2.7363  -2.7303  -2.6624  -2.6448  -2.5592  -2.5244  -2.4722
    -2.3998  -2.3407  -2.3207  -2.3011  -2.2513  -2.2191  -2.1790  -2.1549
    -2.1329  -2.1091  -2.0817  -2.0529  -2.0241  -1.9888  -1.9729  -1.9638
    -1.9425  -1.9173  -1.9075  -1.8866  -1.8770  -1.8667  -1.8580  -1.8489
    -1.8153  -1.8012  -1.7474  -1.7264  -1.7031  -1.6792  -1.6682  -1.6480
    -1.6304  -1.6094  -1.5433  -1.5254  -1.4811  -1.4389  -1.4108  -1.3342
    -1.2971  -1.2347  -1.1646  -1.1439  -1.1000  -1.0615  -1.0250  -0.9948
    -0.8152  -0.7992  -0.7027  -0.7010  -0.6638  -0.6572  -0.6054  -0.5999
    -0.5576  -0.4200  -0.2876  -0.2725  -0.1813  -0.1290  -0.0813   0.0866
     0.1826   1.3133   1.5746

     occupation numbers 
     1.0000   1.0000   1.0000   1.0000   1.0000   1.0000   1.0000   1.0000
     1.0000   1.0000   1.0000   1.0000   1.0000   1.0000   1.0000   1.0000
     1.0000   1.0000   1.0000   1.0000   1.0000   1.0000   1.0000   1.0000
     1.0000   1.0000   1.0000   1.0000   1.0000   1.0000   1.0000   1.0000
     1.0000   1.0000   1.0000   1.0000   1.0000   1.0000   1.0000   1.0000
     1.0000   1.0000   1.0000   1.0000   1.0000   1.0000   1.0000   1.0000
     1.0000   1.0000   1.0000   1.0000   1.0000   1.0000   1.0000   1.0000
     1.0000   1.0000   1.0000   1.0000   1.0000   1.0000   1.0000   1.0000
     1.0000   1.0000   1.0000   1.0000   1.0000   1.0000   1.0000   1.0000
     1.0000   1.0000   1.0000   1.0000   1.0000   1.0000   1.0000   1.0000
     1.0000   1.0000   1.0000   1.0000   1.0000   1.0000   1.0000   1.0000
     1.0000   1.0000   1.0000   1.0000   1.0000   1.0000   1.0000   1.0000
     1.0000   1.0000   1.0000   1.0000   1.0000   1.0000   1.0000   1.0000
     1.0000   1.0000   1.0000   1.0000   1.0000   1.0000   1.0000   1.0000
     1.0000   1.0000   1.0000   1.0000   1.0000   1.0000   1.0000   1.0000
     1.0000   1.0000   1.0000   1.0000   1.0000   1.0000   1.0000   1.0000
     1.0000   1.0000   1.0000   1.0000   1.0000   1.0000   1.0000   1.0000
     1.0000   1.0000   1.0000   1.0000   1.0000   1.0000   1.0000   1.0000
     1.0000   1.0000   1.0000   1.0000   1.0000   1.0000   1.0000   1.0000
     1.0000   1.0000   1.0000   1.0000   1.0000   1.0000   1.0000   1.0000
     1.0000   1.0000   1.0000   1.0000   1.0000   1.0000   1.0000   1.0000
     1.0000   1.0000   1.0000   1.0000   1.0000   1.0000   1.0000   1.0000
     1.0000   1.0000   1.0000   1.0000   1.0000   1.0000   1.0000   1.0000
     1.0000   1.0000   1.0000   1.0000   1.0000   1.0000   1.0000   1.0000
     1.0000   1.0000   1.0000   1.0000   1.0000   1.0000   1.0000   1.0000
     1.0000   1.0000   1.0000   1.0000   1.0000   1.0000   1.0000   1.0000
     1.0000   1.0000   1.0000   1.0000   1.0000   1.0000   1.0000   1.0000
     1.0000   1.0000   1.0000   1.0000   1.0000   1.0000   1.0000   1.0000
     1.0000   1.0000   1.0000   1.0000   1.0000   1.0000   1.0000   1.0000
     1.0000   1.0000   1.0000   1.0000   1.0000   1.0000   1.0000   1.0000
     1.0000   1.0000   1.0000

 ------ SPIN DOWN ----------


          k = 0.0000 0.0000 0.0000 (112117 PWs)   bands (ev):

   -73.8180 -73.8136 -73.8105 -73.8087 -73.8064 -73.8057 -73.8025 -73.8001
   -73.7979 -73.7928 -73.7919 -73.7906 -73.7863 -73.7455 -73.7358 -73.7328
   -38.2202 -38.2189 -38.2169 -38.1609 -38.1603 -38.1561 -38.1515 -38.1503
   -38.1390 -38.0598 -38.0548 -38.0522 -38.0516 -38.0456 -38.0426 -38.0414
   -38.0285 -38.0266 -38.0247 -38.0235 -38.0209 -38.0206 -38.0192 -38.0162
   -38.0132 -38.0098 -38.0084 -38.0035 -37.9965 -37.9931 -37.9907 -37.9890
   -37.9875 -37.9805 -37.9565 -37.9556 -37.9527 -37.9489 -37.9397 -37.9289
   -37.9230 -37.9121 -37.9098 -37.9083 -37.9059 -37.8952 -37.8627 -37.8606
   -21.4623 -15.3218 -14.5988 -13.7101 -13.6954 -13.6754 -13.6466 -13.6326
   -13.6234 -12.9834 -12.7092 -12.6788 -12.6545 -12.6400 -12.6047 -12.5840
   -12.5367 -12.5080 -12.4719 -12.4591 -12.4474 -12.4458 -12.4246 -12.4231
   -12.4193 -12.2245 -12.2022 -12.1924 -12.1757 -12.1601 -12.1562 -12.1518
   -12.1498 -12.1475  -7.9063  -7.4446  -6.3400  -6.3268  -6.3092  -6.2791
    -6.1655  -5.6042  -5.5726  -5.5486  -5.5328  -5.5286  -5.4961  -5.4419
    -5.4091  -5.3904  -5.3150  -5.2837  -5.2638  -5.1031  -5.0941  -5.0659
    -5.0613  -5.0572  -5.0565  -5.0005  -4.9998  -4.9914  -4.5156  -4.4363
    -4.3965  -4.3471  -4.2934  -4.2843  -4.2684  -4.2472  -4.2338  -4.1800
    -4.0811  -4.0103  -3.9793  -3.9642  -3.9379  -3.7922  -3.7597  -3.7558
    -3.7017  -3.6800  -3.6770  -3.5984  -3.5113  -3.4721  -3.4068  -3.4028
    -3.3752  -3.3688  -3.2772  -3.2229  -3.1968  -3.1832  -3.1613  -3.1437
    -3.1305  -3.1256  -3.1115  -3.1091  -3.0425  -2.9276  -2.7948  -2.7483
    -2.6905  -2.6692  -2.6239  -2.5896  -2.5765  -2.5019  -2.4940  -2.4666
    -2.4614  -2.4341  -2.4317  -2.4264  -2.3923  -2.3322  -2.2756  -2.1890
    -2.1179  -2.0568  -1.9675  -1.9621  -1.9334  -1.9199  -1.8689  -1.8238
    -1.8016  -1.7778  -1.7675  -1.7639  -1.7516  -1.7501  -1.7446  -1.7359
    -1.7226  -1.7029  -1.6692  -1.6589  -1.6493  -1.6378  -1.6351  -1.6020
    -1.5753  -1.5294  -1.5194  -1.4921  -1.4517  -1.4126  -1.3733  -1.3559
    -1.2930  -1.2639  -1.1841  -1.0906  -1.0347  -1.0280  -1.0130  -0.9927
    -0.7251  -0.6909  -0.6869  -0.6864  -0.6735  -0.6688  -0.6467  -0.6403
    -0.6238  -0.3966  -0.3852  -0.3752  -0.3600  -0.3433  -0.3338  -0.2972
     0.2146   1.2964   1.6726

     occupation numbers 
     1.0000   1.0000   1.0000   1.0000   1.0000   1.0000   1.0000   1.0000
     1.0000   1.0000   1.0000   1.0000   1.0000   1.0000   1.0000   1.0000
     1.0000   1.0000   1.0000   1.0000   1.0000   1.0000   1.0000   1.0000
     1.0000   1.0000   1.0000   1.0000   1.0000   1.0000   1.0000   1.0000
     1.0000   1.0000   1.0000   1.0000   1.0000   1.0000   1.0000   1.0000
     1.0000   1.0000   1.0000   1.0000   1.0000   1.0000   1.0000   1.0000
     1.0000   1.0000   1.0000   1.0000   1.0000   1.0000   1.0000   1.0000
     1.0000   1.0000   1.0000   1.0000   1.0000   1.0000   1.0000   1.0000
     1.0000   1.0000   1.0000   1.0000   1.0000   1.0000   1.0000   1.0000
     1.0000   1.0000   1.0000   1.0000   1.0000   1.0000   1.0000   1.0000
     1.0000   1.0000   1.0000   1.0000   1.0000   1.0000   1.0000   1.0000
     1.0000   1.0000   1.0000   1.0000   1.0000   1.0000   1.0000   1.0000
     1.0000   1.0000   1.0000   1.0000   1.0000   1.0000   1.0000   1.0000
     1.0000   1.0000   1.0000   1.0000   1.0000   1.0000   1.0000   1.0000
     1.0000   1.0000   1.0000   1.0000   1.0000   1.0000   1.0000   1.0000
     1.0000   1.0000   1.0000   1.0000   1.0000   1.0000   1.0000   1.0000
     1.0000   1.0000   1.0000   1.0000   1.0000   1.0000   1.0000   1.0000
     1.0000   1.0000   1.0000   1.0000   1.0000   1.0000   1.0000   1.0000
     1.0000   1.0000   1.0000   1.0000   1.0000   1.0000   1.0000   1.0000
     1.0000   1.0000   1.0000   1.0000   1.0000   1.0000   1.0000   1.0000
     1.0000   1.0000   1.0000   1.0000   1.0000   1.0000   1.0000   1.0000
     1.0000   1.0000   1.0000   1.0000   1.0000   1.0000   1.0000   1.0000
     1.0000   1.0000   1.0000   1.0000   1.0000   1.0000   1.0000   1.0000
     1.0000   1.0000   1.0000   1.0000   1.0000   1.0000   1.0000   1.0000
     1.0000   1.0000   1.0000   1.0000   1.0000   1.0000   1.0000   1.0000
     1.0000   1.0000   1.0000   1.0000   1.0000   1.0000   1.0000   1.0000
     1.0000   1.0000   1.0000   1.0000   1.0000   1.0000   1.0000   1.0000
     1.0000   1.0000   1.0000   1.0000   1.0000   1.0000   1.0000   1.0000
     1.0000   1.0000   1.0000   1.0000   1.0000   1.0000   1.0000   1.0000
     1.0000   1.0000   1.0000   1.0000   1.0000   1.0000   1.0000   1.0000
     1.0000   1.0000   0.0000

          k = 0.0000 0.2309 0.0000 (112171 PWs)   bands (ev):

   -73.8179 -73.8136 -73.8107 -73.8086 -73.8066 -73.8054 -73.8024 -73.8001
   -73.7980 -73.7928 -73.7919 -73.7906 -73.7863 -73.7455 -73.7358 -73.7328
   -38.2154 -38.2135 -38.2105 -38.1645 -38.1631 -38.1616 -38.1544 -38.1438
   -38.1357 -38.1005 -38.0751 -38.0738 -38.0504 -38.0465 -38.0418 -38.0309
   -38.0295 -38.0243 -38.0213 -38.0201 -38.0173 -38.0144 -38.0128 -38.0094
   -38.0033 -37.9986 -37.9982 -37.9947 -37.9921 -37.9907 -37.9879 -37.9872
   -37.9834 -37.9804 -37.9596 -37.9572 -37.9531 -37.9497 -37.9399 -37.9300
   -37.9293 -37.9186 -37.9147 -37.9068 -37.9029 -37.8936 -37.8683 -37.8633
   -21.4623 -15.3218 -14.5572 -13.9770 -13.8028 -13.7867 -13.4928 -13.4628
   -13.3259 -12.9673 -12.8042 -12.7362 -12.6970 -12.6886 -12.6567 -12.5870
   -12.5561 -12.5431 -12.4957 -12.4790 -12.4578 -12.4371 -12.4259 -12.3178
   -12.2866 -12.2643 -12.2458 -12.2166 -12.1870 -12.1765 -12.1696 -12.1548
   -12.0978 -12.0821  -7.9063  -7.4446  -6.2788  -6.2683  -6.2367  -6.2328
    -6.1635  -5.6632  -5.6436  -5.6270  -5.5570  -5.5184  -5.4899  -5.4709
    -5.4267  -5.4164  -5.3941  -5.3214  -5.3172  -5.2867  -5.2698  -5.0726
    -5.0678  -5.0170  -5.0031  -4.9550  -4.7397  -4.7351  -4.5843  -4.4772
    -4.4487  -4.3847  -4.3219  -4.2846  -4.2067  -4.1612  -4.1461  -4.1200
    -4.0998  -4.0616  -4.0436  -4.0016  -3.9854  -3.9113  -3.9088  -3.9012
    -3.6560  -3.5690  -3.5386  -3.5051  -3.4663  -3.4409  -3.4371  -3.3837
    -3.3646  -3.3130  -3.2924  -3.2786  -3.2642  -3.2066  -3.1926  -3.1499
    -3.0760  -2.9845  -2.9406  -2.9247  -2.8454  -2.7771  -2.7592  -2.7449
    -2.7192  -2.7109  -2.6960  -2.6720  -2.6457  -2.6278  -2.5861  -2.5418
    -2.5013  -2.4963  -2.4668  -2.4300  -2.3502  -2.3048  -2.1883  -2.1601
    -2.1066  -2.0637  -2.0122  -1.9961  -1.9710  -1.9520  -1.9258  -1.9039
    -1.8846  -1.8551  -1.8433  -1.8126  -1.7767  -1.7535  -1.7385  -1.7223
    -1.7046  -1.6882  -1.6698  -1.6546  -1.6395  -1.6031  -1.5820  -1.5410
    -1.5262  -1.4919  -1.4801  -1.4512  -1.4323  -1.3678  -1.3350  -1.3222
    -1.2970  -1.2758  -1.2357  -1.2168  -1.1493  -1.0650  -1.0411  -1.0035
    -0.8906  -0.7770  -0.7590  -0.7425  -0.5670  -0.5629  -0.5454  -0.5319
    -0.5188  -0.5060  -0.4060  -0.3756  -0.3600  -0.2456  -0.1693  -0.1388
     0.1966   1.3022   1.7037

     occupation numbers 
     1.0000   1.0000   1.0000   1.0000   1.0000   1.0000   1.0000   1.0000
     1.0000   1.0000   1.0000   1.0000   1.0000   1.0000   1.0000   1.0000
     1.0000   1.0000   1.0000   1.0000   1.0000   1.0000   1.0000   1.0000
     1.0000   1.0000   1.0000   1.0000   1.0000   1.0000   1.0000   1.0000
     1.0000   1.0000   1.0000   1.0000   1.0000   1.0000   1.0000   1.0000
     1.0000   1.0000   1.0000   1.0000   1.0000   1.0000   1.0000   1.0000
     1.0000   1.0000   1.0000   1.0000   1.0000   1.0000   1.0000   1.0000
     1.0000   1.0000   1.0000   1.0000   1.0000   1.0000   1.0000   1.0000
     1.0000   1.0000   1.0000   1.0000   1.0000   1.0000   1.0000   1.0000
     1.0000   1.0000   1.0000   1.0000   1.0000   1.0000   1.0000   1.0000
     1.0000   1.0000   1.0000   1.0000   1.0000   1.0000   1.0000   1.0000
     1.0000   1.0000   1.0000   1.0000   1.0000   1.0000   1.0000   1.0000
     1.0000   1.0000   1.0000   1.0000   1.0000   1.0000   1.0000   1.0000
     1.0000   1.0000   1.0000   1.0000   1.0000   1.0000   1.0000   1.0000
     1.0000   1.0000   1.0000   1.0000   1.0000   1.0000   1.0000   1.0000
     1.0000   1.0000   1.0000   1.0000   1.0000   1.0000   1.0000   1.0000
     1.0000   1.0000   1.0000   1.0000   1.0000   1.0000   1.0000   1.0000
     1.0000   1.0000   1.0000   1.0000   1.0000   1.0000   1.0000   1.0000
     1.0000   1.0000   1.0000   1.0000   1.0000   1.0000   1.0000   1.0000
     1.0000   1.0000   1.0000   1.0000   1.0000   1.0000   1.0000   1.0000
     1.0000   1.0000   1.0000   1.0000   1.0000   1.0000   1.0000   1.0000
     1.0000   1.0000   1.0000   1.0000   1.0000   1.0000   1.0000   1.0000
     1.0000   1.0000   1.0000   1.0000   1.0000   1.0000   1.0000   1.0000
     1.0000   1.0000   1.0000   1.0000   1.0000   1.0000   1.0000   1.0000
     1.0000   1.0000   1.0000   1.0000   1.0000   1.0000   1.0000   1.0000
     1.0000   1.0000   1.0000   1.0000   1.0000   1.0000   1.0000   1.0000
     1.0000   1.0000   1.0000   1.0000   1.0000   1.0000   1.0000   1.0000
     1.0000   1.0000   1.0000   1.0000   1.0000   1.0000   1.0000   1.0000
     1.0000   1.0000   1.0000   1.0000   1.0000   1.0000   1.0000   1.0000
     1.0000   1.0000   1.0000   1.0000   1.0000   1.0000   1.0000   1.0000
     1.0000   1.0000   0.0000

          k = 0.0000 0.4619 0.0000 (112236 PWs)   bands (ev):

   -73.8178 -73.8138 -73.8110 -73.8085 -73.8067 -73.8051 -73.8024 -73.8000
   -73.7982 -73.7928 -73.7919 -73.7906 -73.7863 -73.7455 -73.7358 -73.7328
   -38.2048 -38.2005 -38.1889 -38.1818 -38.1769 -38.1623 -38.1587 -38.1427
   -38.1282 -38.1210 -38.1001 -38.0974 -38.0605 -38.0542 -38.0468 -38.0372
   -38.0311 -38.0198 -38.0142 -38.0113 -38.0070 -38.0058 -38.0025 -38.0015
   -37.9988 -37.9956 -37.9953 -37.9917 -37.9879 -37.9864 -37.9804 -37.9773
   -37.9711 -37.9646 -37.9627 -37.9547 -37.9491 -37.9453 -37.9430 -37.9377
   -37.9363 -37.9263 -37.9217 -37.9133 -37.9031 -37.8882 -37.8823 -37.8668
   -21.4623 -15.3218 -14.4354 -14.2340 -13.8723 -13.8548 -13.2634 -13.2315
   -13.0189 -13.0003 -12.9714 -12.9175 -12.8341 -12.7304 -12.7061 -12.6903
   -12.5214 -12.5139 -12.4622 -12.4513 -12.4378 -12.4270 -12.3840 -12.3703
   -12.3520 -12.2860 -12.2170 -12.2034 -12.1789 -12.1608 -12.1589 -12.1546
   -12.0586 -12.0413  -7.9063  -7.4446  -6.1754  -6.1225  -6.1091  -6.0900
    -6.0249  -5.8716  -5.8595  -5.8345  -5.7120  -5.5319  -5.4993  -5.4864
    -5.4592  -5.4464  -5.4373  -5.3915  -5.3740  -5.3246  -5.3012  -5.0678
    -5.0625  -5.0297  -5.0103  -4.8067  -4.6253  -4.5206  -4.4831  -4.4389
    -4.3944  -4.3747  -4.3486  -4.3108  -4.2443  -4.2295  -4.1917  -4.1600
    -4.1293  -4.1182  -4.1036  -4.0771  -4.0671  -4.0523  -4.0422  -3.6799
    -3.5678  -3.5067  -3.4756  -3.4409  -3.4159  -3.3869  -3.3659  -3.3101
    -3.2882  -3.2797  -3.2609  -3.2365  -3.2189  -3.1858  -3.1567  -3.1066
    -3.0623  -3.0487  -3.0053  -2.9533  -2.9352  -2.9085  -2.8456  -2.7599
    -2.7259  -2.6961  -2.6462  -2.6311  -2.5961  -2.5556  -2.5242  -2.4794
    -2.4424  -2.4287  -2.3918  -2.3142  -2.2762  -2.2502  -2.2413  -2.1723
    -2.1059  -2.0832  -2.0367  -2.0121  -2.0054  -1.9936  -1.9732  -1.9381
    -1.9213  -1.9004  -1.8780  -1.8674  -1.8527  -1.8406  -1.8308  -1.8251
    -1.7636  -1.7440  -1.7078  -1.6948  -1.6692  -1.6547  -1.6259  -1.6121
    -1.5843  -1.5507  -1.5192  -1.4891  -1.4215  -1.3838  -1.3001  -1.2821
    -1.2256  -1.1989  -1.1885  -1.1410  -1.1139  -1.0942  -1.0422  -0.9900
    -0.9681  -0.8867  -0.7313  -0.7164  -0.6389  -0.6190  -0.4815  -0.4539
    -0.4421  -0.4306  -0.3969  -0.3735  -0.3018  -0.0856   0.0028   0.0325
     0.1502   1.3108   1.7547

     occupation numbers 
     1.0000   1.0000   1.0000   1.0000   1.0000   1.0000   1.0000   1.0000
     1.0000   1.0000   1.0000   1.0000   1.0000   1.0000   1.0000   1.0000
     1.0000   1.0000   1.0000   1.0000   1.0000   1.0000   1.0000   1.0000
     1.0000   1.0000   1.0000   1.0000   1.0000   1.0000   1.0000   1.0000
     1.0000   1.0000   1.0000   1.0000   1.0000   1.0000   1.0000   1.0000
     1.0000   1.0000   1.0000   1.0000   1.0000   1.0000   1.0000   1.0000
     1.0000   1.0000   1.0000   1.0000   1.0000   1.0000   1.0000   1.0000
     1.0000   1.0000   1.0000   1.0000   1.0000   1.0000   1.0000   1.0000
     1.0000   1.0000   1.0000   1.0000   1.0000   1.0000   1.0000   1.0000
     1.0000   1.0000   1.0000   1.0000   1.0000   1.0000   1.0000   1.0000
     1.0000   1.0000   1.0000   1.0000   1.0000   1.0000   1.0000   1.0000
     1.0000   1.0000   1.0000   1.0000   1.0000   1.0000   1.0000   1.0000
     1.0000   1.0000   1.0000   1.0000   1.0000   1.0000   1.0000   1.0000
     1.0000   1.0000   1.0000   1.0000   1.0000   1.0000   1.0000   1.0000
     1.0000   1.0000   1.0000   1.0000   1.0000   1.0000   1.0000   1.0000
     1.0000   1.0000   1.0000   1.0000   1.0000   1.0000   1.0000   1.0000
     1.0000   1.0000   1.0000   1.0000   1.0000   1.0000   1.0000   1.0000
     1.0000   1.0000   1.0000   1.0000   1.0000   1.0000   1.0000   1.0000
     1.0000   1.0000   1.0000   1.0000   1.0000   1.0000   1.0000   1.0000
     1.0000   1.0000   1.0000   1.0000   1.0000   1.0000   1.0000   1.0000
     1.0000   1.0000   1.0000   1.0000   1.0000   1.0000   1.0000   1.0000
     1.0000   1.0000   1.0000   1.0000   1.0000   1.0000   1.0000   1.0000
     1.0000   1.0000   1.0000   1.0000   1.0000   1.0000   1.0000   1.0000
     1.0000   1.0000   1.0000   1.0000   1.0000   1.0000   1.0000   1.0000
     1.0000   1.0000   1.0000   1.0000   1.0000   1.0000   1.0000   1.0000
     1.0000   1.0000   1.0000   1.0000   1.0000   1.0000   1.0000   1.0000
     1.0000   1.0000   1.0000   1.0000   1.0000   1.0000   1.0000   1.0000
     1.0000   1.0000   1.0000   1.0000   1.0000   1.0000   1.0000   1.0000
     1.0000   1.0000   1.0000   1.0000   1.0000   1.0000   1.0000   1.0000
     1.0000   1.0000   1.0000   1.0000   1.0000   1.0000   1.0000   1.0000
     1.0000   1.0000   0.0000

          k = 0.2000 0.3464 0.0000 (112231 PWs)   bands (ev):

   -73.8177 -73.8139 -73.8108 -73.8087 -73.8065 -73.8052 -73.8026 -73.8001
   -73.7979 -73.7929 -73.7918 -73.7906 -73.7863 -73.7455 -73.7358 -73.7328
   -38.2091 -38.1999 -38.1992 -38.1765 -38.1713 -38.1623 -38.1524 -38.1453
   -38.1305 -38.1200 -38.1092 -38.0742 -38.0572 -38.0517 -38.0473 -38.0359
   -38.0311 -38.0264 -38.0211 -38.0184 -38.0149 -38.0094 -38.0027 -38.0011
   -37.9956 -37.9924 -37.9908 -37.9886 -37.9863 -37.9838 -37.9805 -37.9793
   -37.9738 -37.9698 -37.9614 -37.9560 -37.9533 -37.9505 -37.9418 -37.9374
   -37.9307 -37.9244 -37.9214 -37.9132 -37.8999 -37.8931 -37.8780 -37.8654
   -21.4623 -15.3218 -14.4753 -14.1023 -14.0609 -13.5669 -13.5649 -13.1729
   -13.1205 -13.0093 -12.9354 -12.8091 -12.7903 -12.7104 -12.6737 -12.6047
   -12.5952 -12.5779 -12.5729 -12.4578 -12.4262 -12.3918 -12.3776 -12.3139
   -12.2920 -12.2737 -12.2541 -12.2337 -12.2229 -12.1563 -12.1518 -12.1091
   -12.0979 -12.0377  -7.9063  -7.4446  -6.1824  -6.1736  -6.1436  -6.1231
    -6.1051  -5.7579  -5.7348  -5.7199  -5.6794  -5.6442  -5.6020  -5.5637
    -5.5049  -5.4733  -5.3546  -5.3321  -5.2841  -5.2748  -5.2427  -5.2258
    -5.0954  -4.9034  -4.8890  -4.8138  -4.7526  -4.5967  -4.4875  -4.4617
    -4.3947  -4.3652  -4.3375  -4.3020  -4.2765  -4.2632  -4.2330  -4.2252
    -4.1719  -4.1220  -4.1071  -4.0919  -4.0565  -3.7594  -3.7337  -3.7247
    -3.7170  -3.6916  -3.5969  -3.4938  -3.4254  -3.3939  -3.3483  -3.3182
    -3.2829  -3.2436  -3.2209  -3.2024  -3.1660  -3.1496  -3.0976  -3.0912
    -3.0364  -3.0041  -2.9685  -2.9475  -2.9394  -2.9218  -2.9068  -2.8942
    -2.7960  -2.7191  -2.6925  -2.6436  -2.6076  -2.5382  -2.5043  -2.4739
    -2.4562  -2.4282  -2.3840  -2.3572  -2.3078  -2.2120  -2.1749  -2.1569
    -2.1244  -2.1228  -2.0841  -2.0743  -1.9991  -1.9852  -1.9691  -1.9414
    -1.9200  -1.8964  -1.8726  -1.8480  -1.8328  -1.8178  -1.7884  -1.7302
    -1.7222  -1.7106  -1.6789  -1.6640  -1.6589  -1.6130  -1.5853  -1.5724
    -1.5637  -1.5373  -1.5250  -1.4981  -1.4177  -1.3857  -1.3722  -1.3596
    -1.2827  -1.2195  -1.2026  -1.1786  -1.1512  -1.1057  -1.0237  -0.9910
    -0.8716  -0.8402  -0.6781  -0.6686  -0.6344  -0.6252  -0.6119  -0.5370
    -0.5283  -0.4221  -0.3718  -0.2533  -0.2042  -0.1950  -0.1467   0.0763
     0.1619   1.3246   1.7248

     occupation numbers 
     1.0000   1.0000   1.0000   1.0000   1.0000   1.0000   1.0000   1.0000
     1.0000   1.0000   1.0000   1.0000   1.0000   1.0000   1.0000   1.0000
     1.0000   1.0000   1.0000   1.0000   1.0000   1.0000   1.0000   1.0000
     1.0000   1.0000   1.0000   1.0000   1.0000   1.0000   1.0000   1.0000
     1.0000   1.0000   1.0000   1.0000   1.0000   1.0000   1.0000   1.0000
     1.0000   1.0000   1.0000   1.0000   1.0000   1.0000   1.0000   1.0000
     1.0000   1.0000   1.0000   1.0000   1.0000   1.0000   1.0000   1.0000
     1.0000   1.0000   1.0000   1.0000   1.0000   1.0000   1.0000   1.0000
     1.0000   1.0000   1.0000   1.0000   1.0000   1.0000   1.0000   1.0000
     1.0000   1.0000   1.0000   1.0000   1.0000   1.0000   1.0000   1.0000
     1.0000   1.0000   1.0000   1.0000   1.0000   1.0000   1.0000   1.0000
     1.0000   1.0000   1.0000   1.0000   1.0000   1.0000   1.0000   1.0000
     1.0000   1.0000   1.0000   1.0000   1.0000   1.0000   1.0000   1.0000
     1.0000   1.0000   1.0000   1.0000   1.0000   1.0000   1.0000   1.0000
     1.0000   1.0000   1.0000   1.0000   1.0000   1.0000   1.0000   1.0000
     1.0000   1.0000   1.0000   1.0000   1.0000   1.0000   1.0000   1.0000
     1.0000   1.0000   1.0000   1.0000   1.0000   1.0000   1.0000   1.0000
     1.0000   1.0000   1.0000   1.0000   1.0000   1.0000   1.0000   1.0000
     1.0000   1.0000   1.0000   1.0000   1.0000   1.0000   1.0000   1.0000
     1.0000   1.0000   1.0000   1.0000   1.0000   1.0000   1.0000   1.0000
     1.0000   1.0000   1.0000   1.0000   1.0000   1.0000   1.0000   1.0000
     1.0000   1.0000   1.0000   1.0000   1.0000   1.0000   1.0000   1.0000
     1.0000   1.0000   1.0000   1.0000   1.0000   1.0000   1.0000   1.0000
     1.0000   1.0000   1.0000   1.0000   1.0000   1.0000   1.0000   1.0000
     1.0000   1.0000   1.0000   1.0000   1.0000   1.0000   1.0000   1.0000
     1.0000   1.0000   1.0000   1.0000   1.0000   1.0000   1.0000   1.0000
     1.0000   1.0000   1.0000   1.0000   1.0000   1.0000   1.0000   1.0000
     1.0000   1.0000   1.0000   1.0000   1.0000   1.0000   1.0000   1.0000
     1.0000   1.0000   1.0000   1.0000   1.0000   1.0000   1.0000   1.0000
     1.0000   1.0000   1.0000   1.0000   1.0000   1.0000   1.0000   1.0000
     1.0000   1.0000   0.0000

          k = 0.2000 0.5774 0.0000 (112237 PWs)   bands (ev):

   -73.8177 -73.8139 -73.8110 -73.8086 -73.8065 -73.8052 -73.8024 -73.8000
   -73.7981 -73.7929 -73.7918 -73.7906 -73.7863 -73.7455 -73.7358 -73.7328
   -38.1998 -38.1928 -38.1842 -38.1800 -38.1744 -38.1705 -38.1624 -38.1470
   -38.1430 -38.1270 -38.0897 -38.0883 -38.0803 -38.0490 -38.0451 -38.0386
   -38.0331 -38.0267 -38.0175 -38.0138 -38.0078 -38.0040 -38.0021 -38.0002
   -37.9991 -37.9972 -37.9925 -37.9884 -37.9859 -37.9803 -37.9731 -37.9691
   -37.9640 -37.9597 -37.9574 -37.9546 -37.9534 -37.9458 -37.9422 -37.9387
   -37.9354 -37.9284 -37.9243 -37.9202 -37.9084 -37.8908 -37.8785 -37.8701
   -21.4623 -15.3218 -14.3356 -14.2934 -14.1155 -13.5958 -13.2998 -13.2950
   -12.9516 -12.9483 -12.8892 -12.8539 -12.8416 -12.8036 -12.7942 -12.6590
   -12.6315 -12.6038 -12.4921 -12.4856 -12.3840 -12.3723 -12.3589 -12.3254
   -12.3108 -12.2989 -12.2596 -12.2351 -12.2340 -12.1321 -12.1220 -12.1196
   -12.0808 -12.0182  -7.9063  -7.4446  -6.1722  -6.0483  -6.0021  -5.9855
    -5.9188  -5.8937  -5.8744  -5.8477  -5.8090  -5.7438  -5.6854  -5.6221
    -5.6136  -5.5409  -5.3619  -5.2643  -5.2542  -5.2172  -5.2020  -5.1700
    -5.1538  -4.8547  -4.8309  -4.7475  -4.6308  -4.5749  -4.5452  -4.5181
    -4.4723  -4.4154  -4.3958  -4.3156  -4.3094  -4.2393  -4.2319  -4.2117
    -4.1856  -4.1648  -4.1225  -4.0961  -3.9530  -3.9495  -3.7876  -3.6604
    -3.6349  -3.5618  -3.4307  -3.3868  -3.3537  -3.3214  -3.3006  -3.2832
    -3.2684  -3.2589  -3.2411  -3.2315  -3.2142  -3.1983  -3.1392  -3.1196
    -3.0958  -3.0778  -3.0600  -3.0276  -2.9953  -2.9250  -2.8714  -2.8147
    -2.7322  -2.7000  -2.6822  -2.6589  -2.6026  -2.5396  -2.4956  -2.4442
    -2.3876  -2.3303  -2.3181  -2.3039  -2.2485  -2.1929  -2.1708  -2.1271
    -2.1110  -2.0963  -2.0712  -2.0501  -2.0100  -1.9760  -1.9573  -1.9463
    -1.9282  -1.9087  -1.8892  -1.8728  -1.8643  -1.8518  -1.8413  -1.8316
    -1.8138  -1.7742  -1.7425  -1.7192  -1.6876  -1.6666  -1.6582  -1.6391
    -1.6054  -1.5635  -1.5466  -1.4936  -1.4760  -1.4614  -1.3949  -1.3239
    -1.2691  -1.1884  -1.1544  -1.1371  -1.0885  -1.0762  -1.0010  -0.9731
    -0.8104  -0.7948  -0.6991  -0.6867  -0.6537  -0.6396  -0.5894  -0.5784
    -0.5604  -0.3950  -0.2754  -0.2662  -0.1838  -0.1209  -0.0604   0.1174
     0.1930   1.3327   1.7380

     occupation numbers 
     1.0000   1.0000   1.0000   1.0000   1.0000   1.0000   1.0000   1.0000
     1.0000   1.0000   1.0000   1.0000   1.0000   1.0000   1.0000   1.0000
     1.0000   1.0000   1.0000   1.0000   1.0000   1.0000   1.0000   1.0000
     1.0000   1.0000   1.0000   1.0000   1.0000   1.0000   1.0000   1.0000
     1.0000   1.0000   1.0000   1.0000   1.0000   1.0000   1.0000   1.0000
     1.0000   1.0000   1.0000   1.0000   1.0000   1.0000   1.0000   1.0000
     1.0000   1.0000   1.0000   1.0000   1.0000   1.0000   1.0000   1.0000
     1.0000   1.0000   1.0000   1.0000   1.0000   1.0000   1.0000   1.0000
     1.0000   1.0000   1.0000   1.0000   1.0000   1.0000   1.0000   1.0000
     1.0000   1.0000   1.0000   1.0000   1.0000   1.0000   1.0000   1.0000
     1.0000   1.0000   1.0000   1.0000   1.0000   1.0000   1.0000   1.0000
     1.0000   1.0000   1.0000   1.0000   1.0000   1.0000   1.0000   1.0000
     1.0000   1.0000   1.0000   1.0000   1.0000   1.0000   1.0000   1.0000
     1.0000   1.0000   1.0000   1.0000   1.0000   1.0000   1.0000   1.0000
     1.0000   1.0000   1.0000   1.0000   1.0000   1.0000   1.0000   1.0000
     1.0000   1.0000   1.0000   1.0000   1.0000   1.0000   1.0000   1.0000
     1.0000   1.0000   1.0000   1.0000   1.0000   1.0000   1.0000   1.0000
     1.0000   1.0000   1.0000   1.0000   1.0000   1.0000   1.0000   1.0000
     1.0000   1.0000   1.0000   1.0000   1.0000   1.0000   1.0000   1.0000
     1.0000   1.0000   1.0000   1.0000   1.0000   1.0000   1.0000   1.0000
     1.0000   1.0000   1.0000   1.0000   1.0000   1.0000   1.0000   1.0000
     1.0000   1.0000   1.0000   1.0000   1.0000   1.0000   1.0000   1.0000
     1.0000   1.0000   1.0000   1.0000   1.0000   1.0000   1.0000   1.0000
     1.0000   1.0000   1.0000   1.0000   1.0000   1.0000   1.0000   1.0000
     1.0000   1.0000   1.0000   1.0000   1.0000   1.0000   1.0000   1.0000
     1.0000   1.0000   1.0000   1.0000   1.0000   1.0000   1.0000   1.0000
     1.0000   1.0000   1.0000   1.0000   1.0000   1.0000   1.0000   1.0000
     1.0000   1.0000   1.0000   1.0000   1.0000   1.0000   1.0000   1.0000
     1.0000   1.0000   1.0000   1.0000   1.0000   1.0000   1.0000   1.0000
     1.0000   1.0000   1.0000   1.0000   1.0000   1.0000   1.0000   1.0000
     1.0000   1.0000   0.0000

          k =-0.2000 0.1155 0.0000 (112171 PWs)   bands (ev):

   -73.8179 -73.8137 -73.8106 -73.8088 -73.8063 -73.8057 -73.8025 -73.8001
   -73.7979 -73.7929 -73.7919 -73.7906 -73.7863 -73.7455 -73.7358 -73.7328
   -38.2149 -38.2146 -38.2099 -38.1661 -38.1628 -38.1602 -38.1546 -38.1431
   -38.1360 -38.0999 -38.0760 -38.0738 -38.0505 -38.0468 -38.0415 -38.0324
   -38.0263 -38.0245 -38.0236 -38.0222 -38.0156 -38.0139 -38.0126 -38.0092
   -38.0033 -37.9984 -37.9968 -37.9954 -37.9923 -37.9909 -37.9886 -37.9867
   -37.9833 -37.9804 -37.9595 -37.9564 -37.9538 -37.9497 -37.9398 -37.9317
   -37.9279 -37.9181 -37.9140 -37.9075 -37.9034 -37.8935 -37.8678 -37.8638
   -21.4623 -15.3218 -14.5572 -13.9762 -13.8019 -13.7895 -13.4795 -13.4748
   -13.3262 -12.9677 -12.7914 -12.7570 -12.6927 -12.6829 -12.6589 -12.5878
   -12.5656 -12.5221 -12.4978 -12.4802 -12.4697 -12.4344 -12.4250 -12.3085
   -12.2959 -12.2633 -12.2461 -12.2146 -12.1885 -12.1769 -12.1700 -12.1535
   -12.0971 -12.0829  -7.9063  -7.4446  -6.2827  -6.2623  -6.2421  -6.2293
    -6.1636  -5.6720  -5.6360  -5.6233  -5.5478  -5.5298  -5.4894  -5.4696
    -5.4366  -5.4177  -5.3839  -5.3280  -5.3121  -5.2819  -5.2766  -5.0798
    -5.0633  -5.0155  -5.0010  -4.9516  -4.7400  -4.7364  -4.5667  -4.5078
    -4.4437  -4.3706  -4.3391  -4.2769  -4.2049  -4.1613  -4.1464  -4.1230
    -4.0997  -4.0648  -4.0406  -3.9963  -3.9837  -3.9152  -3.9050  -3.8964
    -3.6504  -3.5842  -3.5319  -3.4998  -3.4748  -3.4583  -3.4441  -3.3741
    -3.3656  -3.3104  -3.2946  -3.2774  -3.2565  -3.2047  -3.1931  -3.1529
    -3.0771  -2.9715  -2.9481  -2.9148  -2.8169  -2.7912  -2.7677  -2.7422
    -2.7188  -2.7065  -2.6938  -2.6842  -2.6652  -2.6377  -2.5835  -2.5419
    -2.4958  -2.4786  -2.4645  -2.4279  -2.3572  -2.3040  -2.1813  -2.1683
    -2.1153  -2.0682  -2.0165  -1.9946  -1.9672  -1.9570  -1.9266  -1.9025
    -1.8772  -1.8576  -1.8336  -1.8123  -1.7904  -1.7634  -1.7305  -1.7124
    -1.7019  -1.6852  -1.6677  -1.6550  -1.6458  -1.6016  -1.5683  -1.5464
    -1.5172  -1.4983  -1.4919  -1.4342  -1.4260  -1.3615  -1.3465  -1.3256
    -1.3086  -1.2752  -1.2470  -1.2162  -1.1464  -1.0745  -1.0379  -0.9906
    -0.8971  -0.7723  -0.7545  -0.7345  -0.5812  -0.5661  -0.5452  -0.5306
    -0.5141  -0.5052  -0.4089  -0.3789  -0.3543  -0.2446  -0.1687  -0.1409
     0.1953   1.3244   1.6783

     occupation numbers 
     1.0000   1.0000   1.0000   1.0000   1.0000   1.0000   1.0000   1.0000
     1.0000   1.0000   1.0000   1.0000   1.0000   1.0000   1.0000   1.0000
     1.0000   1.0000   1.0000   1.0000   1.0000   1.0000   1.0000   1.0000
     1.0000   1.0000   1.0000   1.0000   1.0000   1.0000   1.0000   1.0000
     1.0000   1.0000   1.0000   1.0000   1.0000   1.0000   1.0000   1.0000
     1.0000   1.0000   1.0000   1.0000   1.0000   1.0000   1.0000   1.0000
     1.0000   1.0000   1.0000   1.0000   1.0000   1.0000   1.0000   1.0000
     1.0000   1.0000   1.0000   1.0000   1.0000   1.0000   1.0000   1.0000
     1.0000   1.0000   1.0000   1.0000   1.0000   1.0000   1.0000   1.0000
     1.0000   1.0000   1.0000   1.0000   1.0000   1.0000   1.0000   1.0000
     1.0000   1.0000   1.0000   1.0000   1.0000   1.0000   1.0000   1.0000
     1.0000   1.0000   1.0000   1.0000   1.0000   1.0000   1.0000   1.0000
     1.0000   1.0000   1.0000   1.0000   1.0000   1.0000   1.0000   1.0000
     1.0000   1.0000   1.0000   1.0000   1.0000   1.0000   1.0000   1.0000
     1.0000   1.0000   1.0000   1.0000   1.0000   1.0000   1.0000   1.0000
     1.0000   1.0000   1.0000   1.0000   1.0000   1.0000   1.0000   1.0000
     1.0000   1.0000   1.0000   1.0000   1.0000   1.0000   1.0000   1.0000
     1.0000   1.0000   1.0000   1.0000   1.0000   1.0000   1.0000   1.0000
     1.0000   1.0000   1.0000   1.0000   1.0000   1.0000   1.0000   1.0000
     1.0000   1.0000   1.0000   1.0000   1.0000   1.0000   1.0000   1.0000
     1.0000   1.0000   1.0000   1.0000   1.0000   1.0000   1.0000   1.0000
     1.0000   1.0000   1.0000   1.0000   1.0000   1.0000   1.0000   1.0000
     1.0000   1.0000   1.0000   1.0000   1.0000   1.0000   1.0000   1.0000
     1.0000   1.0000   1.0000   1.0000   1.0000   1.0000   1.0000   1.0000
     1.0000   1.0000   1.0000   1.0000   1.0000   1.0000   1.0000   1.0000
     1.0000   1.0000   1.0000   1.0000   1.0000   1.0000   1.0000   1.0000
     1.0000   1.0000   1.0000   1.0000   1.0000   1.0000   1.0000   1.0000
     1.0000   1.0000   1.0000   1.0000   1.0000   1.0000   1.0000   1.0000
     1.0000   1.0000   1.0000   1.0000   1.0000   1.0000   1.0000   1.0000
     1.0000   1.0000   1.0000   1.0000   1.0000   1.0000   1.0000   1.0000
     1.0000   1.0000   0.0000

          k = 0.2000 0.1155 0.0000 (112171 PWs)   bands (ev):

   -73.8179 -73.8137 -73.8105 -73.8088 -73.8063 -73.8055 -73.8026 -73.8001
   -73.7978 -73.7929 -73.7919 -73.7906 -73.7863 -73.7455 -73.7358 -73.7328
   -38.2156 -38.2133 -38.2105 -38.1674 -38.1623 -38.1594 -38.1538 -38.1433
   -38.1366 -38.1001 -38.0763 -38.0736 -38.0506 -38.0456 -38.0430 -38.0323
   -38.0268 -38.0246 -38.0229 -38.0213 -38.0165 -38.0137 -38.0118 -38.0093
   -38.0037 -37.9983 -37.9974 -37.9940 -37.9920 -37.9912 -37.9898 -37.9867
   -37.9834 -37.9803 -37.9585 -37.9576 -37.9539 -37.9494 -37.9398 -37.9318
   -37.9275 -37.9175 -37.9146 -37.9075 -37.9033 -37.8938 -37.8697 -37.8620
   -21.4623 -15.3218 -14.5572 -13.9763 -13.8012 -13.7900 -13.4784 -13.4767
   -13.3255 -12.9678 -12.7912 -12.7565 -12.6920 -12.6845 -12.6592 -12.5876
   -12.5667 -12.5209 -12.4955 -12.4821 -12.4696 -12.4363 -12.4241 -12.3042
   -12.2957 -12.2661 -12.2491 -12.2102 -12.1941 -12.1745 -12.1724 -12.1506
   -12.0944 -12.0854  -7.9063  -7.4446  -6.2769  -6.2648  -6.2452  -6.2300
    -6.1635  -5.6648  -5.6415  -5.6199  -5.5476  -5.5350  -5.4884  -5.4712
    -5.4410  -5.4228  -5.3708  -5.3275  -5.3150  -5.2823  -5.2753  -5.0772
    -5.0703  -5.0138  -5.0042  -4.9458  -4.7413  -4.7367  -4.5604  -4.5079
    -4.4385  -4.3913  -4.3385  -4.2714  -4.2039  -4.1620  -4.1485  -4.1234
    -4.0992  -4.0557  -4.0401  -4.0030  -3.9827  -3.9125  -3.9088  -3.8987
    -3.6426  -3.5658  -3.5465  -3.5057  -3.4660  -3.4564  -3.4387  -3.3813
    -3.3714  -3.3081  -3.2986  -3.2816  -3.2474  -3.2108  -3.1962  -3.1467
    -3.0854  -2.9850  -2.9379  -2.9038  -2.8139  -2.7933  -2.7719  -2.7440
    -2.7306  -2.7071  -2.6954  -2.6847  -2.6513  -2.6251  -2.5769  -2.5457
    -2.5196  -2.4858  -2.4657  -2.4163  -2.3537  -2.2969  -2.1921  -2.1662
    -2.1095  -2.0691  -2.0144  -1.9860  -1.9617  -1.9494  -1.9181  -1.9041
    -1.8966  -1.8701  -1.8321  -1.8113  -1.7990  -1.7678  -1.7349  -1.7151
    -1.6948  -1.6793  -1.6687  -1.6490  -1.6311  -1.6121  -1.5869  -1.5345
    -1.5287  -1.5001  -1.4515  -1.4413  -1.4222  -1.3968  -1.3487  -1.3089
    -1.3048  -1.2935  -1.2420  -1.1999  -1.1542  -1.0534  -1.0393  -1.0073
    -0.8942  -0.7628  -0.7532  -0.7482  -0.5920  -0.5571  -0.5451  -0.5301
    -0.5169  -0.5094  -0.4046  -0.3803  -0.3493  -0.2455  -0.1647  -0.1447
     0.1959   1.3192   1.6847

     occupation numbers 
     1.0000   1.0000   1.0000   1.0000   1.0000   1.0000   1.0000   1.0000
     1.0000   1.0000   1.0000   1.0000   1.0000   1.0000   1.0000   1.0000
     1.0000   1.0000   1.0000   1.0000   1.0000   1.0000   1.0000   1.0000
     1.0000   1.0000   1.0000   1.0000   1.0000   1.0000   1.0000   1.0000
     1.0000   1.0000   1.0000   1.0000   1.0000   1.0000   1.0000   1.0000
     1.0000   1.0000   1.0000   1.0000   1.0000   1.0000   1.0000   1.0000
     1.0000   1.0000   1.0000   1.0000   1.0000   1.0000   1.0000   1.0000
     1.0000   1.0000   1.0000   1.0000   1.0000   1.0000   1.0000   1.0000
     1.0000   1.0000   1.0000   1.0000   1.0000   1.0000   1.0000   1.0000
     1.0000   1.0000   1.0000   1.0000   1.0000   1.0000   1.0000   1.0000
     1.0000   1.0000   1.0000   1.0000   1.0000   1.0000   1.0000   1.0000
     1.0000   1.0000   1.0000   1.0000   1.0000   1.0000   1.0000   1.0000
     1.0000   1.0000   1.0000   1.0000   1.0000   1.0000   1.0000   1.0000
     1.0000   1.0000   1.0000   1.0000   1.0000   1.0000   1.0000   1.0000
     1.0000   1.0000   1.0000   1.0000   1.0000   1.0000   1.0000   1.0000
     1.0000   1.0000   1.0000   1.0000   1.0000   1.0000   1.0000   1.0000
     1.0000   1.0000   1.0000   1.0000   1.0000   1.0000   1.0000   1.0000
     1.0000   1.0000   1.0000   1.0000   1.0000   1.0000   1.0000   1.0000
     1.0000   1.0000   1.0000   1.0000   1.0000   1.0000   1.0000   1.0000
     1.0000   1.0000   1.0000   1.0000   1.0000   1.0000   1.0000   1.0000
     1.0000   1.0000   1.0000   1.0000   1.0000   1.0000   1.0000   1.0000
     1.0000   1.0000   1.0000   1.0000   1.0000   1.0000   1.0000   1.0000
     1.0000   1.0000   1.0000   1.0000   1.0000   1.0000   1.0000   1.0000
     1.0000   1.0000   1.0000   1.0000   1.0000   1.0000   1.0000   1.0000
     1.0000   1.0000   1.0000   1.0000   1.0000   1.0000   1.0000   1.0000
     1.0000   1.0000   1.0000   1.0000   1.0000   1.0000   1.0000   1.0000
     1.0000   1.0000   1.0000   1.0000   1.0000   1.0000   1.0000   1.0000
     1.0000   1.0000   1.0000   1.0000   1.0000   1.0000   1.0000   1.0000
     1.0000   1.0000   1.0000   1.0000   1.0000   1.0000   1.0000   1.0000
     1.0000   1.0000   1.0000   1.0000   1.0000   1.0000   1.0000   1.0000
     1.0000   1.0000   0.0000

          k =-0.4000 0.2309 0.0000 (112236 PWs)   bands (ev):

   -73.8177 -73.8139 -73.8108 -73.8088 -73.8060 -73.8057 -73.8024 -73.8001
   -73.7979 -73.7930 -73.7919 -73.7905 -73.7863 -73.7455 -73.7358 -73.7328
   -38.2043 -38.2017 -38.1883 -38.1832 -38.1764 -38.1608 -38.1587 -38.1426
   -38.1271 -38.1211 -38.1014 -38.0976 -38.0608 -38.0546 -38.0467 -38.0382
   -38.0279 -38.0239 -38.0113 -38.0109 -38.0091 -38.0072 -38.0032 -38.0002
   -37.9978 -37.9951 -37.9942 -37.9925 -37.9890 -37.9854 -37.9803 -37.9781
   -37.9713 -37.9640 -37.9612 -37.9553 -37.9488 -37.9460 -37.9435 -37.9403
   -37.9326 -37.9268 -37.9210 -37.9131 -37.9038 -37.8890 -37.8814 -37.8671
   -21.4623 -15.3218 -14.4357 -14.2333 -13.8692 -13.8590 -13.2493 -13.2440
   -13.0237 -12.9976 -12.9758 -12.9116 -12.8338 -12.7326 -12.7049 -12.6865
   -12.5342 -12.5081 -12.4622 -12.4541 -12.4319 -12.4265 -12.3876 -12.3647
   -12.3541 -12.2840 -12.2227 -12.2007 -12.1779 -12.1629 -12.1569 -12.1540
   -12.0582 -12.0421  -7.9063  -7.4446  -6.1750  -6.1285  -6.1066  -6.0883
    -6.0219  -5.8749  -5.8559  -5.8365  -5.7105  -5.5290  -5.5102  -5.4847
    -5.4536  -5.4459  -5.4380  -5.3892  -5.3799  -5.3168  -5.3092  -5.0793
    -5.0573  -5.0240  -5.0071  -4.8020  -4.6033  -4.5484  -4.4759  -4.4400
    -4.4122  -4.3722  -4.3522  -4.3084  -4.2446  -4.2212  -4.1958  -4.1606
    -4.1222  -4.1136  -4.1016  -4.0757  -4.0686  -4.0524  -4.0415  -3.6734
    -3.5654  -3.5180  -3.4730  -3.4540  -3.4239  -3.3944  -3.3561  -3.3168
    -3.2870  -3.2786  -3.2593  -3.2419  -3.2135  -3.1955  -3.1450  -3.1157
    -3.0666  -3.0357  -3.0097  -2.9482  -2.9294  -2.8976  -2.8229  -2.7628
    -2.7173  -2.6996  -2.6481  -2.6259  -2.5922  -2.5775  -2.5458  -2.4785
    -2.4269  -2.4211  -2.3912  -2.3292  -2.2783  -2.2502  -2.2419  -2.1639
    -2.1168  -2.0962  -2.0514  -2.0285  -2.0092  -1.9905  -1.9541  -1.9198
    -1.9066  -1.8937  -1.8835  -1.8656  -1.8569  -1.8490  -1.8378  -1.8189
    -1.7699  -1.7426  -1.6950  -1.6840  -1.6685  -1.6584  -1.6432  -1.6102
    -1.5837  -1.5516  -1.4952  -1.4658  -1.4451  -1.3511  -1.3227  -1.2939
    -1.2621  -1.2097  -1.1718  -1.1262  -1.1150  -1.0947  -1.0688  -0.9830
    -0.9537  -0.8732  -0.7316  -0.7153  -0.6374  -0.6201  -0.4995  -0.4520
    -0.4445  -0.4226  -0.4019  -0.3716  -0.2893  -0.0955   0.0039   0.0351
     0.1456   1.3705   1.6858

     occupation numbers 
     1.0000   1.0000   1.0000   1.0000   1.0000   1.0000   1.0000   1.0000
     1.0000   1.0000   1.0000   1.0000   1.0000   1.0000   1.0000   1.0000
     1.0000   1.0000   1.0000   1.0000   1.0000   1.0000   1.0000   1.0000
     1.0000   1.0000   1.0000   1.0000   1.0000   1.0000   1.0000   1.0000
     1.0000   1.0000   1.0000   1.0000   1.0000   1.0000   1.0000   1.0000
     1.0000   1.0000   1.0000   1.0000   1.0000   1.0000   1.0000   1.0000
     1.0000   1.0000   1.0000   1.0000   1.0000   1.0000   1.0000   1.0000
     1.0000   1.0000   1.0000   1.0000   1.0000   1.0000   1.0000   1.0000
     1.0000   1.0000   1.0000   1.0000   1.0000   1.0000   1.0000   1.0000
     1.0000   1.0000   1.0000   1.0000   1.0000   1.0000   1.0000   1.0000
     1.0000   1.0000   1.0000   1.0000   1.0000   1.0000   1.0000   1.0000
     1.0000   1.0000   1.0000   1.0000   1.0000   1.0000   1.0000   1.0000
     1.0000   1.0000   1.0000   1.0000   1.0000   1.0000   1.0000   1.0000
     1.0000   1.0000   1.0000   1.0000   1.0000   1.0000   1.0000   1.0000
     1.0000   1.0000   1.0000   1.0000   1.0000   1.0000   1.0000   1.0000
     1.0000   1.0000   1.0000   1.0000   1.0000   1.0000   1.0000   1.0000
     1.0000   1.0000   1.0000   1.0000   1.0000   1.0000   1.0000   1.0000
     1.0000   1.0000   1.0000   1.0000   1.0000   1.0000   1.0000   1.0000
     1.0000   1.0000   1.0000   1.0000   1.0000   1.0000   1.0000   1.0000
     1.0000   1.0000   1.0000   1.0000   1.0000   1.0000   1.0000   1.0000
     1.0000   1.0000   1.0000   1.0000   1.0000   1.0000   1.0000   1.0000
     1.0000   1.0000   1.0000   1.0000   1.0000   1.0000   1.0000   1.0000
     1.0000   1.0000   1.0000   1.0000   1.0000   1.0000   1.0000   1.0000
     1.0000   1.0000   1.0000   1.0000   1.0000   1.0000   1.0000   1.0000
     1.0000   1.0000   1.0000   1.0000   1.0000   1.0000   1.0000   1.0000
     1.0000   1.0000   1.0000   1.0000   1.0000   1.0000   1.0000   1.0000
     1.0000   1.0000   1.0000   1.0000   1.0000   1.0000   1.0000   1.0000
     1.0000   1.0000   1.0000   1.0000   1.0000   1.0000   1.0000   1.0000
     1.0000   1.0000   1.0000   1.0000   1.0000   1.0000   1.0000   1.0000
     1.0000   1.0000   1.0000   1.0000   1.0000   1.0000   1.0000   1.0000
     1.0000   1.0000   0.0000

          k = 0.4000 0.2309 0.0000 (112236 PWs)   bands (ev):

   -73.8177 -73.8141 -73.8106 -73.8088 -73.8062 -73.8052 -73.8029 -73.8002
   -73.7977 -73.7930 -73.7918 -73.7906 -73.7863 -73.7455 -73.7358 -73.7328
   -38.2031 -38.2025 -38.1888 -38.1846 -38.1748 -38.1601 -38.1590 -38.1434
   -38.1265 -38.1209 -38.1024 -38.0977 -38.0593 -38.0559 -38.0466 -38.0384
   -38.0283 -38.0223 -38.0117 -38.0108 -38.0097 -38.0073 -38.0033 -38.0007
   -37.9960 -37.9955 -37.9937 -37.9916 -37.9900 -37.9857 -37.9803 -37.9778
   -37.9729 -37.9634 -37.9615 -37.9548 -37.9477 -37.9462 -37.9438 -37.9393
   -37.9314 -37.9277 -37.9218 -37.9141 -37.9018 -37.8899 -37.8848 -37.8645
   -21.4623 -15.3218 -14.4356 -14.2335 -13.8687 -13.8594 -13.2488 -13.2453
   -13.0206 -12.9972 -12.9779 -12.9108 -12.8345 -12.7304 -12.7068 -12.6874
   -12.5419 -12.5003 -12.4663 -12.4514 -12.4309 -12.4264 -12.3882 -12.3633
   -12.3518 -12.2839 -12.2298 -12.1987 -12.1796 -12.1620 -12.1572 -12.1514
   -12.0553 -12.0446  -7.9063  -7.4446  -6.1748  -6.1192  -6.1102  -6.0870
    -6.0346  -5.8676  -5.8559  -5.8333  -5.7150  -5.5308  -5.5093  -5.4875
    -5.4489  -5.4477  -5.4398  -5.3888  -5.3817  -5.3144  -5.3080  -5.0721
    -5.0687  -5.0223  -5.0114  -4.7749  -4.6126  -4.5572  -4.4823  -4.4501
    -4.4184  -4.3714  -4.3484  -4.3047  -4.2389  -4.2255  -4.1914  -4.1578
    -4.1256  -4.1159  -4.1026  -4.0771  -4.0640  -4.0502  -4.0428  -3.6599
    -3.5600  -3.5192  -3.4619  -3.4481  -3.4277  -3.3980  -3.3583  -3.3249
    -3.2906  -3.2740  -3.2534  -3.2356  -3.2183  -3.2025  -3.1347  -3.1165
    -3.0751  -3.0563  -3.0164  -2.9491  -2.9274  -2.9020  -2.8311  -2.7632
    -2.7146  -2.6824  -2.6379  -2.6150  -2.6118  -2.5957  -2.5046  -2.4882
    -2.4525  -2.4284  -2.3696  -2.3289  -2.2724  -2.2570  -2.2417  -2.1448
    -2.1133  -2.1024  -2.0364  -2.0088  -1.9999  -1.9812  -1.9713  -1.9553
    -1.9291  -1.8989  -1.8844  -1.8637  -1.8507  -1.8453  -1.8369  -1.8139
    -1.7946  -1.7220  -1.7181  -1.6880  -1.6732  -1.6355  -1.6238  -1.6177
    -1.5947  -1.5475  -1.5051  -1.4921  -1.4106  -1.3590  -1.3061  -1.2874
    -1.2497  -1.2306  -1.1891  -1.1339  -1.1170  -1.0584  -1.0410  -0.9914
    -0.9686  -0.8803  -0.7279  -0.7217  -0.6369  -0.6264  -0.5074  -0.4556
    -0.4467  -0.4200  -0.4043  -0.3602  -0.2837  -0.0964   0.0059   0.0312
     0.1481   1.3548   1.7058

     occupation numbers 
     1.0000   1.0000   1.0000   1.0000   1.0000   1.0000   1.0000   1.0000
     1.0000   1.0000   1.0000   1.0000   1.0000   1.0000   1.0000   1.0000
     1.0000   1.0000   1.0000   1.0000   1.0000   1.0000   1.0000   1.0000
     1.0000   1.0000   1.0000   1.0000   1.0000   1.0000   1.0000   1.0000
     1.0000   1.0000   1.0000   1.0000   1.0000   1.0000   1.0000   1.0000
     1.0000   1.0000   1.0000   1.0000   1.0000   1.0000   1.0000   1.0000
     1.0000   1.0000   1.0000   1.0000   1.0000   1.0000   1.0000   1.0000
     1.0000   1.0000   1.0000   1.0000   1.0000   1.0000   1.0000   1.0000
     1.0000   1.0000   1.0000   1.0000   1.0000   1.0000   1.0000   1.0000
     1.0000   1.0000   1.0000   1.0000   1.0000   1.0000   1.0000   1.0000
     1.0000   1.0000   1.0000   1.0000   1.0000   1.0000   1.0000   1.0000
     1.0000   1.0000   1.0000   1.0000   1.0000   1.0000   1.0000   1.0000
     1.0000   1.0000   1.0000   1.0000   1.0000   1.0000   1.0000   1.0000
     1.0000   1.0000   1.0000   1.0000   1.0000   1.0000   1.0000   1.0000
     1.0000   1.0000   1.0000   1.0000   1.0000   1.0000   1.0000   1.0000
     1.0000   1.0000   1.0000   1.0000   1.0000   1.0000   1.0000   1.0000
     1.0000   1.0000   1.0000   1.0000   1.0000   1.0000   1.0000   1.0000
     1.0000   1.0000   1.0000   1.0000   1.0000   1.0000   1.0000   1.0000
     1.0000   1.0000   1.0000   1.0000   1.0000   1.0000   1.0000   1.0000
     1.0000   1.0000   1.0000   1.0000   1.0000   1.0000   1.0000   1.0000
     1.0000   1.0000   1.0000   1.0000   1.0000   1.0000   1.0000   1.0000
     1.0000   1.0000   1.0000   1.0000   1.0000   1.0000   1.0000   1.0000
     1.0000   1.0000   1.0000   1.0000   1.0000   1.0000   1.0000   1.0000
     1.0000   1.0000   1.0000   1.0000   1.0000   1.0000   1.0000   1.0000
     1.0000   1.0000   1.0000   1.0000   1.0000   1.0000   1.0000   1.0000
     1.0000   1.0000   1.0000   1.0000   1.0000   1.0000   1.0000   1.0000
     1.0000   1.0000   1.0000   1.0000   1.0000   1.0000   1.0000   1.0000
     1.0000   1.0000   1.0000   1.0000   1.0000   1.0000   1.0000   1.0000
     1.0000   1.0000   1.0000   1.0000   1.0000   1.0000   1.0000   1.0000
     1.0000   1.0000   1.0000   1.0000   1.0000   1.0000   1.0000   1.0000
     1.0000   1.0000   0.0000

          k =-0.2000 0.3464 0.0000 (112231 PWs)   bands (ev):

   -73.8178 -73.8138 -73.8109 -73.8087 -73.8065 -73.8054 -73.8024 -73.8000
   -73.7981 -73.7929 -73.7919 -73.7906 -73.7863 -73.7455 -73.7358 -73.7328
   -38.2093 -38.2008 -38.1981 -38.1761 -38.1710 -38.1629 -38.1525 -38.1458
   -38.1300 -38.1219 -38.1064 -38.0736 -38.0586 -38.0521 -38.0475 -38.0355
   -38.0312 -38.0261 -38.0208 -38.0196 -38.0145 -38.0085 -38.0028 -38.0004
   -37.9971 -37.9926 -37.9908 -37.9883 -37.9866 -37.9825 -37.9804 -37.9792
   -37.9734 -37.9715 -37.9613 -37.9559 -37.9531 -37.9507 -37.9413 -37.9380
   -37.9307 -37.9241 -37.9210 -37.9154 -37.8985 -37.8921 -37.8765 -37.8673
   -21.4623 -15.3218 -14.4753 -14.1018 -14.0615 -13.5741 -13.5572 -13.1738
   -13.1208 -13.0093 -12.9352 -12.8081 -12.7912 -12.7061 -12.6744 -12.6192
   -12.5854 -12.5783 -12.5701 -12.4553 -12.4274 -12.3940 -12.3802 -12.3112
   -12.2934 -12.2750 -12.2526 -12.2284 -12.2250 -12.1581 -12.1513 -12.1099
   -12.0979 -12.0374  -7.9063  -7.4446  -6.1896  -6.1751  -6.1378  -6.1211
    -6.1022  -5.7615  -5.7340  -5.7163  -5.6976  -5.6267  -5.6023  -5.5608
    -5.5071  -5.4761  -5.3553  -5.3296  -5.2990  -5.2656  -5.2411  -5.2189
    -5.0973  -4.9125  -4.8936  -4.7950  -4.7571  -4.6015  -4.5081  -4.4424
    -4.3945  -4.3436  -4.3338  -4.3080  -4.2812  -4.2594  -4.2442  -4.2254
    -4.1636  -4.1292  -4.1108  -4.0939  -4.0545  -3.7682  -3.7380  -3.7270
    -3.7075  -3.6900  -3.5979  -3.5033  -3.4178  -3.3795  -3.3682  -3.3038
    -3.2824  -3.2396  -3.2269  -3.2009  -3.1631  -3.1474  -3.1143  -3.0826
    -3.0557  -3.0049  -2.9594  -2.9421  -2.9271  -2.9222  -2.9114  -2.8977
    -2.7784  -2.7185  -2.6895  -2.6675  -2.6002  -2.5444  -2.5147  -2.4711
    -2.4544  -2.4029  -2.3835  -2.3581  -2.3155  -2.2108  -2.1932  -2.1487
    -2.1275  -2.1201  -2.1012  -2.0684  -2.0255  -1.9802  -1.9683  -1.9314
    -1.9056  -1.8934  -1.8615  -1.8455  -1.8196  -1.8126  -1.7895  -1.7544
    -1.7311  -1.6932  -1.6792  -1.6647  -1.6424  -1.6277  -1.5823  -1.5804
    -1.5581  -1.5465  -1.5218  -1.4964  -1.4286  -1.3922  -1.3814  -1.3412
    -1.2777  -1.2416  -1.1904  -1.1712  -1.1533  -1.1078  -1.0394  -0.9777
    -0.8743  -0.8304  -0.6852  -0.6686  -0.6323  -0.6221  -0.6068  -0.5373
    -0.5332  -0.4117  -0.3816  -0.2554  -0.2026  -0.1941  -0.1483   0.0769
     0.1603   1.3323   1.7148

     occupation numbers 
     1.0000   1.0000   1.0000   1.0000   1.0000   1.0000   1.0000   1.0000
     1.0000   1.0000   1.0000   1.0000   1.0000   1.0000   1.0000   1.0000
     1.0000   1.0000   1.0000   1.0000   1.0000   1.0000   1.0000   1.0000
     1.0000   1.0000   1.0000   1.0000   1.0000   1.0000   1.0000   1.0000
     1.0000   1.0000   1.0000   1.0000   1.0000   1.0000   1.0000   1.0000
     1.0000   1.0000   1.0000   1.0000   1.0000   1.0000   1.0000   1.0000
     1.0000   1.0000   1.0000   1.0000   1.0000   1.0000   1.0000   1.0000
     1.0000   1.0000   1.0000   1.0000   1.0000   1.0000   1.0000   1.0000
     1.0000   1.0000   1.0000   1.0000   1.0000   1.0000   1.0000   1.0000
     1.0000   1.0000   1.0000   1.0000   1.0000   1.0000   1.0000   1.0000
     1.0000   1.0000   1.0000   1.0000   1.0000   1.0000   1.0000   1.0000
     1.0000   1.0000   1.0000   1.0000   1.0000   1.0000   1.0000   1.0000
     1.0000   1.0000   1.0000   1.0000   1.0000   1.0000   1.0000   1.0000
     1.0000   1.0000   1.0000   1.0000   1.0000   1.0000   1.0000   1.0000
     1.0000   1.0000   1.0000   1.0000   1.0000   1.0000   1.0000   1.0000
     1.0000   1.0000   1.0000   1.0000   1.0000   1.0000   1.0000   1.0000
     1.0000   1.0000   1.0000   1.0000   1.0000   1.0000   1.0000   1.0000
     1.0000   1.0000   1.0000   1.0000   1.0000   1.0000   1.0000   1.0000
     1.0000   1.0000   1.0000   1.0000   1.0000   1.0000   1.0000   1.0000
     1.0000   1.0000   1.0000   1.0000   1.0000   1.0000   1.0000   1.0000
     1.0000   1.0000   1.0000   1.0000   1.0000   1.0000   1.0000   1.0000
     1.0000   1.0000   1.0000   1.0000   1.0000   1.0000   1.0000   1.0000
     1.0000   1.0000   1.0000   1.0000   1.0000   1.0000   1.0000   1.0000
     1.0000   1.0000   1.0000   1.0000   1.0000   1.0000   1.0000   1.0000
     1.0000   1.0000   1.0000   1.0000   1.0000   1.0000   1.0000   1.0000
     1.0000   1.0000   1.0000   1.0000   1.0000   1.0000   1.0000   1.0000
     1.0000   1.0000   1.0000   1.0000   1.0000   1.0000   1.0000   1.0000
     1.0000   1.0000   1.0000   1.0000   1.0000   1.0000   1.0000   1.0000
     1.0000   1.0000   1.0000   1.0000   1.0000   1.0000   1.0000   1.0000
     1.0000   1.0000   1.0000   1.0000   1.0000   1.0000   1.0000   1.0000
     1.0000   1.0000   0.0000

          k = 0.4000-0.0000 0.0000 (112231 PWs)   bands (ev):

   -73.8177 -73.8140 -73.8107 -73.8088 -73.8060 -73.8056 -73.8026 -73.8001
   -73.7978 -73.7930 -73.7918 -73.7906 -73.7863 -73.7455 -73.7358 -73.7328
   -38.2094 -38.2004 -38.1986 -38.1759 -38.1721 -38.1627 -38.1523 -38.1449
   -38.1287 -38.1204 -38.1099 -38.0746 -38.0574 -38.0518 -38.0474 -38.0364
   -38.0299 -38.0267 -38.0217 -38.0196 -38.0145 -38.0095 -38.0031 -37.9988
   -37.9965 -37.9930 -37.9905 -37.9890 -37.9860 -37.9834 -37.9803 -37.9795
   -37.9728 -37.9696 -37.9619 -37.9564 -37.9540 -37.9498 -37.9413 -37.9395
   -37.9288 -37.9241 -37.9210 -37.9139 -37.8999 -37.8935 -37.8775 -37.8657
   -21.4623 -15.3218 -14.4754 -14.0995 -14.0637 -13.5675 -13.5644 -13.1700
   -13.1230 -13.0131 -12.9297 -12.8053 -12.7941 -12.7103 -12.6820 -12.6037
   -12.5997 -12.5756 -12.5611 -12.4577 -12.4237 -12.4125 -12.3657 -12.3094
   -12.2938 -12.2718 -12.2548 -12.2370 -12.2221 -12.1588 -12.1486 -12.1084
   -12.0988 -12.0379  -7.9063  -7.4446  -6.1815  -6.1774  -6.1435  -6.1166
    -6.1083  -5.7540  -5.7391  -5.7204  -5.6853  -5.6341  -5.6078  -5.5595
    -5.5048  -5.4735  -5.3516  -5.3349  -5.2901  -5.2715  -5.2434  -5.2280
    -5.0966  -4.8998  -4.8869  -4.8085  -4.7564  -4.5648  -4.5320  -4.4572
    -4.4070  -4.3456  -4.3377  -4.3111  -4.2760  -4.2640  -4.2418  -4.2088
    -4.1748  -4.1178  -4.1096  -4.0902  -4.0541  -3.7585  -3.7326  -3.7260
    -3.7060  -3.6966  -3.6090  -3.4816  -3.4270  -3.3951  -3.3688  -3.3146
    -3.2787  -3.2434  -3.2309  -3.2006  -3.1725  -3.1423  -3.1222  -3.0786
    -3.0357  -2.9886  -2.9658  -2.9472  -2.9388  -2.9156  -2.9010  -2.8917
    -2.7660  -2.7350  -2.6920  -2.6412  -2.6130  -2.5653  -2.5276  -2.4649
    -2.4567  -2.4132  -2.3819  -2.3384  -2.3146  -2.2175  -2.1773  -2.1480
    -2.1254  -2.1210  -2.0983  -2.0867  -1.9977  -1.9807  -1.9677  -1.9346
    -1.9193  -1.8940  -1.8713  -1.8582  -1.8401  -1.8161  -1.7768  -1.7545
    -1.7128  -1.6913  -1.6770  -1.6657  -1.6459  -1.6196  -1.5898  -1.5704
    -1.5511  -1.5419  -1.5221  -1.4940  -1.4436  -1.4057  -1.3614  -1.3331
    -1.2803  -1.2556  -1.1965  -1.1744  -1.1473  -1.0980  -1.0397  -0.9768
    -0.8641  -0.8447  -0.6797  -0.6710  -0.6323  -0.6187  -0.6107  -0.5365
    -0.5320  -0.4299  -0.3750  -0.2482  -0.2034  -0.1893  -0.1513   0.0745
     0.1599   1.3627   1.6819

     occupation numbers 
     1.0000   1.0000   1.0000   1.0000   1.0000   1.0000   1.0000   1.0000
     1.0000   1.0000   1.0000   1.0000   1.0000   1.0000   1.0000   1.0000
     1.0000   1.0000   1.0000   1.0000   1.0000   1.0000   1.0000   1.0000
     1.0000   1.0000   1.0000   1.0000   1.0000   1.0000   1.0000   1.0000
     1.0000   1.0000   1.0000   1.0000   1.0000   1.0000   1.0000   1.0000
     1.0000   1.0000   1.0000   1.0000   1.0000   1.0000   1.0000   1.0000
     1.0000   1.0000   1.0000   1.0000   1.0000   1.0000   1.0000   1.0000
     1.0000   1.0000   1.0000   1.0000   1.0000   1.0000   1.0000   1.0000
     1.0000   1.0000   1.0000   1.0000   1.0000   1.0000   1.0000   1.0000
     1.0000   1.0000   1.0000   1.0000   1.0000   1.0000   1.0000   1.0000
     1.0000   1.0000   1.0000   1.0000   1.0000   1.0000   1.0000   1.0000
     1.0000   1.0000   1.0000   1.0000   1.0000   1.0000   1.0000   1.0000
     1.0000   1.0000   1.0000   1.0000   1.0000   1.0000   1.0000   1.0000
     1.0000   1.0000   1.0000   1.0000   1.0000   1.0000   1.0000   1.0000
     1.0000   1.0000   1.0000   1.0000   1.0000   1.0000   1.0000   1.0000
     1.0000   1.0000   1.0000   1.0000   1.0000   1.0000   1.0000   1.0000
     1.0000   1.0000   1.0000   1.0000   1.0000   1.0000   1.0000   1.0000
     1.0000   1.0000   1.0000   1.0000   1.0000   1.0000   1.0000   1.0000
     1.0000   1.0000   1.0000   1.0000   1.0000   1.0000   1.0000   1.0000
     1.0000   1.0000   1.0000   1.0000   1.0000   1.0000   1.0000   1.0000
     1.0000   1.0000   1.0000   1.0000   1.0000   1.0000   1.0000   1.0000
     1.0000   1.0000   1.0000   1.0000   1.0000   1.0000   1.0000   1.0000
     1.0000   1.0000   1.0000   1.0000   1.0000   1.0000   1.0000   1.0000
     1.0000   1.0000   1.0000   1.0000   1.0000   1.0000   1.0000   1.0000
     1.0000   1.0000   1.0000   1.0000   1.0000   1.0000   1.0000   1.0000
     1.0000   1.0000   1.0000   1.0000   1.0000   1.0000   1.0000   1.0000
     1.0000   1.0000   1.0000   1.0000   1.0000   1.0000   1.0000   1.0000
     1.0000   1.0000   1.0000   1.0000   1.0000   1.0000   1.0000   1.0000
     1.0000   1.0000   1.0000   1.0000   1.0000   1.0000   1.0000   1.0000
     1.0000   1.0000   1.0000   1.0000   1.0000   1.0000   1.0000   1.0000
     1.0000   1.0000   0.0000

          k =-0.4000 0.4619 0.0000 (112237 PWs)   bands (ev):

   -73.8177 -73.8140 -73.8109 -73.8088 -73.8061 -73.8055 -73.8024 -73.8001
   -73.7979 -73.7930 -73.7918 -73.7906 -73.7863 -73.7455 -73.7358 -73.7328
   -38.1997 -38.1937 -38.1839 -38.1813 -38.1736 -38.1697 -38.1618 -38.1468
   -38.1431 -38.1269 -38.0905 -38.0873 -38.0814 -38.0484 -38.0449 -38.0392
   -38.0320 -38.0283 -38.0196 -38.0114 -38.0088 -38.0040 -38.0019 -37.9998
   -37.9979 -37.9968 -37.9934 -37.9889 -37.9856 -37.9803 -37.9730 -37.9697
   -37.9641 -37.9593 -37.9565 -37.9549 -37.9533 -37.9465 -37.9420 -37.9402
   -37.9345 -37.9277 -37.9234 -37.9201 -37.9093 -37.8909 -37.8782 -37.8704
   -21.4623 -15.3218 -14.3373 -14.2911 -14.1161 -13.5965 -13.2978 -13.2950
   -12.9591 -12.9488 -12.8861 -12.8575 -12.8283 -12.8028 -12.7974 -12.6646
   -12.6355 -12.5969 -12.4943 -12.4845 -12.3880 -12.3756 -12.3479 -12.3264
   -12.3116 -12.2997 -12.2618 -12.2363 -12.2312 -12.1348 -12.1219 -12.1162
   -12.0817 -12.0184  -7.9063  -7.4446  -6.1720  -6.0492  -6.0156  -5.9689
    -5.9136  -5.8896  -5.8763  -5.8579  -5.8088  -5.7444  -5.6854  -5.6247
    -5.6093  -5.5413  -5.3575  -5.2819  -5.2464  -5.2159  -5.2001  -5.1677
    -5.1564  -4.8522  -4.8315  -4.7412  -4.6197  -4.5840  -4.5422  -4.5212
    -4.4883  -4.4228  -4.3811  -4.3230  -4.3058  -4.2414  -4.2266  -4.2070
    -4.1924  -4.1628  -4.1210  -4.0943  -3.9553  -3.9473  -3.7876  -3.6648
    -3.6100  -3.5863  -3.4251  -3.3888  -3.3536  -3.3211  -3.3015  -3.2782
    -3.2724  -3.2644  -3.2406  -3.2293  -3.2191  -3.2110  -3.1432  -3.1196
    -3.0941  -3.0771  -3.0571  -3.0384  -2.9840  -2.9212  -2.8403  -2.7990
    -2.7328  -2.7048  -2.6879  -2.6638  -2.6072  -2.5779  -2.4871  -2.4067
    -2.3914  -2.3234  -2.3193  -2.3124  -2.2623  -2.1829  -2.1688  -2.1510
    -2.1312  -2.0862  -2.0713  -2.0430  -2.0205  -1.9673  -1.9539  -1.9378
    -1.9254  -1.9116  -1.8881  -1.8744  -1.8609  -1.8501  -1.8432  -1.8353
    -1.8085  -1.7811  -1.7368  -1.7112  -1.6893  -1.6638  -1.6574  -1.6416
    -1.6156  -1.5743  -1.5218  -1.4967  -1.4772  -1.4551  -1.4054  -1.3039
    -1.2686  -1.2290  -1.1611  -1.1122  -1.0891  -1.0664  -1.0354  -0.9504
    -0.8120  -0.7840  -0.6980  -0.6872  -0.6533  -0.6403  -0.5971  -0.5777
    -0.5611  -0.3952  -0.2754  -0.2706  -0.1722  -0.1161  -0.0733   0.1181
     0.1915   1.3703   1.6964

     occupation numbers 
     1.0000   1.0000   1.0000   1.0000   1.0000   1.0000   1.0000   1.0000
     1.0000   1.0000   1.0000   1.0000   1.0000   1.0000   1.0000   1.0000
     1.0000   1.0000   1.0000   1.0000   1.0000   1.0000   1.0000   1.0000
     1.0000   1.0000   1.0000   1.0000   1.0000   1.0000   1.0000   1.0000
     1.0000   1.0000   1.0000   1.0000   1.0000   1.0000   1.0000   1.0000
     1.0000   1.0000   1.0000   1.0000   1.0000   1.0000   1.0000   1.0000
     1.0000   1.0000   1.0000   1.0000   1.0000   1.0000   1.0000   1.0000
     1.0000   1.0000   1.0000   1.0000   1.0000   1.0000   1.0000   1.0000
     1.0000   1.0000   1.0000   1.0000   1.0000   1.0000   1.0000   1.0000
     1.0000   1.0000   1.0000   1.0000   1.0000   1.0000   1.0000   1.0000
     1.0000   1.0000   1.0000   1.0000   1.0000   1.0000   1.0000   1.0000
     1.0000   1.0000   1.0000   1.0000   1.0000   1.0000   1.0000   1.0000
     1.0000   1.0000   1.0000   1.0000   1.0000   1.0000   1.0000   1.0000
     1.0000   1.0000   1.0000   1.0000   1.0000   1.0000   1.0000   1.0000
     1.0000   1.0000   1.0000   1.0000   1.0000   1.0000   1.0000   1.0000
     1.0000   1.0000   1.0000   1.0000   1.0000   1.0000   1.0000   1.0000
     1.0000   1.0000   1.0000   1.0000   1.0000   1.0000   1.0000   1.0000
     1.0000   1.0000   1.0000   1.0000   1.0000   1.0000   1.0000   1.0000
     1.0000   1.0000   1.0000   1.0000   1.0000   1.0000   1.0000   1.0000
     1.0000   1.0000   1.0000   1.0000   1.0000   1.0000   1.0000   1.0000
     1.0000   1.0000   1.0000   1.0000   1.0000   1.0000   1.0000   1.0000
     1.0000   1.0000   1.0000   1.0000   1.0000   1.0000   1.0000   1.0000
     1.0000   1.0000   1.0000   1.0000   1.0000   1.0000   1.0000   1.0000
     1.0000   1.0000   1.0000   1.0000   1.0000   1.0000   1.0000   1.0000
     1.0000   1.0000   1.0000   1.0000   1.0000   1.0000   1.0000   1.0000
     1.0000   1.0000   1.0000   1.0000   1.0000   1.0000   1.0000   1.0000
     1.0000   1.0000   1.0000   1.0000   1.0000   1.0000   1.0000   1.0000
     1.0000   1.0000   1.0000   1.0000   1.0000   1.0000   1.0000   1.0000
     1.0000   1.0000   1.0000   1.0000   1.0000   1.0000   1.0000   1.0000
     1.0000   1.0000   1.0000   1.0000   1.0000   1.0000   1.0000   1.0000
     1.0000   1.0000   0.0000

          k = 0.6000 0.1155 0.0000 (112237 PWs)   bands (ev):

   -73.8176 -73.8141 -73.8108 -73.8088 -73.8062 -73.8052 -73.8027 -73.8002
   -73.7978 -73.7930 -73.7918 -73.7906 -73.7863 -73.7455 -73.7358 -73.7328
   -38.1988 -38.1945 -38.1846 -38.1814 -38.1731 -38.1693 -38.1615 -38.1468
   -38.1435 -38.1265 -38.0905 -38.0878 -38.0820 -38.0471 -38.0450 -38.0394
   -38.0319 -38.0287 -38.0186 -38.0119 -38.0093 -38.0037 -38.0023 -38.0005
   -37.9980 -37.9954 -37.9933 -37.9893 -37.9856 -37.9803 -37.9731 -37.9691
   -37.9654 -37.9591 -37.9564 -37.9552 -37.9526 -37.9471 -37.9416 -37.9389
   -37.9334 -37.9282 -37.9234 -37.9214 -37.9089 -37.8918 -37.8805 -37.8680
   -21.4623 -15.3218 -14.3368 -14.2917 -14.1160 -13.5965 -13.3053 -13.2875
   -12.9657 -12.9419 -12.8812 -12.8613 -12.8284 -12.8028 -12.7982 -12.6676
   -12.6340 -12.5951 -12.5044 -12.4741 -12.3948 -12.3718 -12.3441 -12.3226
   -12.3119 -12.3017 -12.2652 -12.2367 -12.2320 -12.1327 -12.1225 -12.1165
   -12.0811 -12.0187  -7.9063  -7.4446  -6.1720  -6.0458  -6.0123  -5.9670
    -5.9242  -5.9064  -5.8771  -5.8348  -5.8076  -5.7494  -5.6876  -5.6223
    -5.6116  -5.5377  -5.3559  -5.2791  -5.2549  -5.2230  -5.1970  -5.1707
    -5.1476  -4.8544  -4.8382  -4.6911  -4.6441  -4.6061  -4.5489  -4.5124
    -4.4886  -4.4332  -4.3807  -4.3203  -4.2983  -4.2416  -4.2318  -4.1983
    -4.1894  -4.1669  -4.1204  -4.0962  -3.9571  -3.9464  -3.7844  -3.6627
    -3.6118  -3.5777  -3.4261  -3.3668  -3.3572  -3.3285  -3.2943  -3.2851
    -3.2821  -3.2576  -3.2425  -3.2316  -3.2197  -3.1995  -3.1737  -3.1393
    -3.0850  -3.0761  -3.0532  -3.0174  -2.9876  -2.9327  -2.8365  -2.7988
    -2.7378  -2.7145  -2.6939  -2.6379  -2.6200  -2.5400  -2.4973  -2.4532
    -2.3875  -2.3299  -2.3145  -2.2916  -2.2428  -2.1945  -2.1711  -2.1384
    -2.1151  -2.0960  -2.0741  -2.0338  -2.0091  -1.9763  -1.9609  -1.9485
    -1.9288  -1.8992  -1.8951  -1.8778  -1.8673  -1.8585  -1.8510  -1.8355
    -1.8011  -1.7864  -1.7318  -1.7094  -1.6871  -1.6693  -1.6516  -1.6320
    -1.6143  -1.5947  -1.5268  -1.5133  -1.4685  -1.4280  -1.3912  -1.3159
    -1.2769  -1.2211  -1.1544  -1.1338  -1.0933  -1.0476  -1.0111  -0.9699
    -0.8085  -0.7879  -0.6944  -0.6921  -0.6539  -0.6480  -0.5965  -0.5900
    -0.5470  -0.3966  -0.2781  -0.2643  -0.1698  -0.1194  -0.0726   0.1185
     0.1919   1.3609   1.7081

     occupation numbers 
     1.0000   1.0000   1.0000   1.0000   1.0000   1.0000   1.0000   1.0000
     1.0000   1.0000   1.0000   1.0000   1.0000   1.0000   1.0000   1.0000
     1.0000   1.0000   1.0000   1.0000   1.0000   1.0000   1.0000   1.0000
     1.0000   1.0000   1.0000   1.0000   1.0000   1.0000   1.0000   1.0000
     1.0000   1.0000   1.0000   1.0000   1.0000   1.0000   1.0000   1.0000
     1.0000   1.0000   1.0000   1.0000   1.0000   1.0000   1.0000   1.0000
     1.0000   1.0000   1.0000   1.0000   1.0000   1.0000   1.0000   1.0000
     1.0000   1.0000   1.0000   1.0000   1.0000   1.0000   1.0000   1.0000
     1.0000   1.0000   1.0000   1.0000   1.0000   1.0000   1.0000   1.0000
     1.0000   1.0000   1.0000   1.0000   1.0000   1.0000   1.0000   1.0000
     1.0000   1.0000   1.0000   1.0000   1.0000   1.0000   1.0000   1.0000
     1.0000   1.0000   1.0000   1.0000   1.0000   1.0000   1.0000   1.0000
     1.0000   1.0000   1.0000   1.0000   1.0000   1.0000   1.0000   1.0000
     1.0000   1.0000   1.0000   1.0000   1.0000   1.0000   1.0000   1.0000
     1.0000   1.0000   1.0000   1.0000   1.0000   1.0000   1.0000   1.0000
     1.0000   1.0000   1.0000   1.0000   1.0000   1.0000   1.0000   1.0000
     1.0000   1.0000   1.0000   1.0000   1.0000   1.0000   1.0000   1.0000
     1.0000   1.0000   1.0000   1.0000   1.0000   1.0000   1.0000   1.0000
     1.0000   1.0000   1.0000   1.0000   1.0000   1.0000   1.0000   1.0000
     1.0000   1.0000   1.0000   1.0000   1.0000   1.0000   1.0000   1.0000
     1.0000   1.0000   1.0000   1.0000   1.0000   1.0000   1.0000   1.0000
     1.0000   1.0000   1.0000   1.0000   1.0000   1.0000   1.0000   1.0000
     1.0000   1.0000   1.0000   1.0000   1.0000   1.0000   1.0000   1.0000
     1.0000   1.0000   1.0000   1.0000   1.0000   1.0000   1.0000   1.0000
     1.0000   1.0000   1.0000   1.0000   1.0000   1.0000   1.0000   1.0000
     1.0000   1.0000   1.0000   1.0000   1.0000   1.0000   1.0000   1.0000
     1.0000   1.0000   1.0000   1.0000   1.0000   1.0000   1.0000   1.0000
     1.0000   1.0000   1.0000   1.0000   1.0000   1.0000   1.0000   1.0000
     1.0000   1.0000   1.0000   1.0000   1.0000   1.0000   1.0000   1.0000
     1.0000   1.0000   1.0000   1.0000   1.0000   1.0000   1.0000   1.0000
     1.0000   1.0000   0.0000

     highest occupied, lowest unoccupied level (ev):     1.6141    1.6726

!    total energy              =  -16138.55490176 Ry
     total all-electron energy =   -595550.628107 Ry
     estimated scf accuracy    <          8.7E-11 Ry

     The total energy is the sum of the following terms:
     one-electron contribution =  -18309.91319178 Ry
     hartree contribution      =    9258.69130041 Ry
     xc contribution           =    -931.72233911 Ry
     ewald contribution        =    6414.37921147 Ry
     DFT-D3 Dispersion         =      -0.65555029 Ry
     one-center paw contrib.   =  -12569.33433246 Ry
      -> PAW hartree energy AE =      92.00271454 Ry
      -> PAW hartree energy PS =     -91.51066091 Ry
      -> PAW xc energy AE      =    -644.66490256 Ry
      -> PAW xc energy PS      =      38.62150407 Ry
      -> total E_H with PAW    =    9259.18335404 Ry
      -> total E_XC with PAW   =   -1537.76573760 Ry

     total magnetization       =     1.00 Bohr mag/cell
     absolute magnetization    =     1.12 Bohr mag/cell

     convergence has been achieved in  31 iterations

     negative rho (up, down):  4.795E-03 5.163E-03

     Forces acting on atoms (cartesian axes, Ry/au):

     atom    1 type  2   force =    -0.00000242   -0.00006667   -0.00014041
     atom    2 type  2   force =    -0.00018874    0.00001618    0.00013579
     atom    3 type  2   force =    -0.00023761   -0.00015753   -0.00000177
     atom    4 type  2   force =     0.00028625    0.00027614    0.00003705
     atom    5 type  2   force =    -0.00000786   -0.00022270    0.00002709
     atom    6 type  2   force =    -0.00002069   -0.00000167   -0.00000024
     atom    7 type  2   force =     0.00001556   -0.00000132    0.00011309
     atom    8 type  2   force =     0.00014371    0.00006729    0.00007951
     atom    9 type  2   force =    -0.00021761   -0.00008118    0.00005548
     atom   10 type  2   force =     0.00008737    0.00012043    0.00007062
     atom   11 type  2   force =     0.00003109    0.00022651   -0.00003540
     atom   12 type  2   force =    -0.00001268    0.00007757   -0.00014217
     atom   13 type  2   force =    -0.00013542    0.00015760    0.00008044
     atom   14 type  2   force =     0.00011718    0.00000026   -0.00000457
     atom   15 type  2   force =    -0.00005317   -0.00017483   -0.00003180
     atom   16 type  2   force =    -0.00024534   -0.00015967   -0.00001734
     atom   17 type  1   force =    -0.00009073    0.00017540   -0.00002109
     atom   18 type  1   force =    -0.00005655   -0.00018644   -0.00007945
     atom   19 type  1   force =    -0.00011174    0.00010980   -0.00004005
     atom   20 type  1   force =     0.00012784   -0.00002415   -0.00006466
     atom   21 type  1   force =    -0.00008401    0.00000779    0.00004654
     atom   22 type  1   force =    -0.00003087    0.00001632   -0.00033911
     atom   23 type  1   force =    -0.00003588    0.00003755    0.00012260
     atom   24 type  1   force =     0.00012163   -0.00000134    0.00000581
     atom   25 type  1   force =    -0.00002194   -0.00003831    0.00002127
     atom   26 type  1   force =     0.00005134   -0.00008104   -0.00008329
     atom   27 type  1   force =     0.00006807    0.00008269   -0.00009272
     atom   28 type  1   force =    -0.00026971    0.00001553   -0.00035356
     atom   29 type  1   force =    -0.00001941   -0.00012418   -0.00012777
     atom   30 type  1   force =    -0.00007520   -0.00000573    0.00008129
     atom   31 type  1   force =    -0.00018970   -0.00007092   -0.00004459
     atom   32 type  1   force =     0.00025155    0.00008436   -0.00017439
     atom   33 type  1   force =     0.00002546    0.00005372   -0.00016182
     atom   34 type  1   force =     0.00000859    0.00006694    0.00004575
     atom   35 type  1   force =     0.00002216   -0.00000220   -0.00003610
     atom   36 type  1   force =    -0.00003516   -0.00004438    0.00004520
     atom   37 type  1   force =    -0.00011105    0.00001723   -0.00012374
     atom   38 type  1   force =     0.00009767   -0.00016072    0.00001446
     atom   39 type  1   force =     0.00014539    0.00003316    0.00005767
     atom   40 type  1   force =     0.00011043   -0.00002681    0.00007139
     atom   41 type  1   force =    -0.00011791    0.00005146    0.00006486
     atom   42 type  1   force =     0.00004192    0.00005738    0.00000554
     atom   43 type  1   force =    -0.00024801    0.00000165    0.00014900
     atom   44 type  1   force =    -0.00007867    0.00009748   -0.00036456
     atom   45 type  1   force =    -0.00009977   -0.00004248    0.00005156
     atom   46 type  1   force =     0.00000776    0.00004027   -0.00015387
     atom   47 type  1   force =    -0.00004585   -0.00017258   -0.00015350
     atom   48 type  1   force =    -0.00002799    0.00004367    0.00014383
     atom   49 type  3   force =     0.00075756   -0.00027308    0.00032889
     atom   50 type  3   force =    -0.00032786   -0.00080283    0.00060208
     atom   51 type  3   force =    -0.00037912   -0.00005560   -0.00012776
     atom   52 type  3   force =     0.00055417    0.00035954    0.00051180
     atom   53 type  3   force =    -0.00078800    0.00024556    0.00040995
     atom   54 type  4   force =     0.00255696   -0.00020314    0.00543270
     atom   55 type  5   force =    -0.00462937    0.00469191   -0.03412142
     atom   56 type  6   force =     0.00274656    0.00028866   -0.00005505
     atom   57 type  6   force =    -0.00106106   -0.00453017    0.02759900
     atom   58 type  6   force =     0.00168085    0.00019162    0.00068195
     The non-local contrib.  to forces
     atom    1 type  2   force =    -0.00047207    0.00024207   -0.00009275
     atom    2 type  2   force =     0.00036058   -0.00014955   -0.00019454
     atom    3 type  2   force =    -0.00390227   -0.00385814    0.00603626
     atom    4 type  2   force =    -0.00236573   -0.00004569    0.00308783
     atom    5 type  2   force =    -0.00055143    0.00927503    0.00836896
     atom    6 type  2   force =     0.00405424   -0.00043536    0.01272203
     atom    7 type  2   force =     0.00361380   -0.00283020    0.00573538
     atom    8 type  2   force =     0.00048403    0.00021948    0.00052327
     atom    9 type  2   force =     0.00018113    0.00103583    0.00332231
     atom   10 type  2   force =    -0.00362830    0.00166227    0.01382466
     atom   11 type  2   force =    -0.00040482   -0.00030790    0.01551336
     atom   12 type  2   force =     0.00589705   -0.00341448    0.00758489
     atom   13 type  2   force =    -0.00012968    0.00028651   -0.00031598
     atom   14 type  2   force =     0.00074288    0.00162417    0.00307901
     atom   15 type  2   force =    -0.00072724   -0.00210562    0.00705406
     atom   16 type  2   force =    -0.00287028   -0.00024260    0.00574681
     atom   17 type  1   force =     0.00083711    0.00126733   -0.27572842
     atom   18 type  1   force =     0.00428034    0.00239327   -0.27660458
     atom   19 type  1   force =     0.00094770    0.00009463   -0.27537014
     atom   20 type  1   force =    -0.00088096   -0.00064080   -0.27643086
     atom   21 type  1   force =    -0.00027680    0.00141012   -0.27547079
     atom   22 type  1   force =     0.01188861    0.02350510   -0.15671959
     atom   23 type  1   force =    -0.00173292   -0.00216526   -0.18658521
     atom   24 type  1   force =     0.00272500   -0.00127406   -0.27539792
     atom   25 type  1   force =     0.00010954   -0.00087414   -0.27676074
     atom   26 type  1   force =     0.00283373    0.00952964   -0.25648914
     atom   27 type  1   force =     0.01827697    0.00623989   -0.22554101
     atom   28 type  1   force =     0.01942248   -0.01737480   -0.19297447
     atom   29 type  1   force =     0.00089386   -0.00184490   -0.27493572
     atom   30 type  1   force =    -0.00194627    0.00125010   -0.27605767
     atom   31 type  1   force =    -0.02397849   -0.01157180   -0.21287011
     atom   32 type  1   force =    -0.00976697   -0.00789447   -0.24426217
     atom   33 type  1   force =    -0.00022939    0.00030788    0.27625179
     atom   34 type  1   force =     0.00171900    0.00242571    0.27675780
     atom   35 type  1   force =     0.00153780   -0.00048650    0.27630518
     atom   36 type  1   force =    -0.00083249   -0.00082643    0.27583755
     atom   37 type  1   force =     0.00033135    0.00196990    0.27564353
     atom   38 type  1   force =     0.00295960    0.00257383    0.27720296
     atom   39 type  1   force =     0.00247940    0.00066411    0.27708347
     atom   40 type  1   force =     0.00204213   -0.00163720    0.27533445
     atom   41 type  1   force =     0.00021873    0.00048030    0.27667535
     atom   42 type  1   force =    -0.00264438    0.00247192    0.27562574
     atom   43 type  1   force =    -0.00191419   -0.00055049    0.27978284
     atom   44 type  1   force =     0.00090185   -0.00429255    0.27704600
     atom   45 type  1   force =    -0.00063382   -0.00172509    0.27612712
     atom   46 type  1   force =    -0.00124541   -0.00047882    0.27630405
     atom   47 type  1   force =    -0.00342369   -0.00008909    0.27528893
     atom   48 type  1   force =    -0.00234938   -0.00164080    0.27542632
     atom   49 type  3   force =    -0.18359521    0.03225617   -0.06204251
     atom   50 type  3   force =    -0.00835527   -0.13022366   -0.07499725
     atom   51 type  3   force =     0.19416369   -0.01644590   -0.09604253
     atom   52 type  3   force =     0.01950422    0.14038351   -0.09306048
     atom   53 type  3   force =     0.02166458    0.02865157    0.14739035
     atom   54 type  4   force =    -0.85846578   -0.27482521    0.94567101
     atom   55 type  5   force =     1.88698095    0.52890996   -1.51043363
     atom   56 type  6   force =    -0.00647351   -0.07208400   -0.06510467
     atom   57 type  6   force =     0.01045741   -0.01349625    0.09175831
     atom   58 type  6   force =    -0.02949917    0.08345289   -0.04090916
     The ionic contribution  to forces
     atom    1 type  2   force =    -0.93896766   -0.19490813   -8.50813592
     atom    2 type  2   force =    -0.97020239   -1.15670743   -8.87552539
     atom    3 type  2   force =     1.92270576    0.65001428   -9.43603599
     atom    4 type  2   force =     1.76653085    1.72490185   -9.23815389
     atom    5 type  2   force =    -0.76051382   -3.39310952  -10.32126120
     atom    6 type  2   force =    -3.93374148   -3.11124248  -14.37534509
     atom    7 type  2   force =    -3.78835820    1.11479113  -12.05780628
     atom    8 type  2   force =    -0.45931563    0.22236726   -8.34043009
     atom    9 type  2   force =     1.12802405   -2.55035594  -10.29561844
     atom   10 type  2   force =     1.18805152   -3.57165018  -19.42678314
     atom   11 type  2   force =    -2.00186916    2.17379221  -20.49655252
     atom   12 type  2   force =    -1.90155724    2.98488825  -10.56252672
     atom   13 type  2   force =     0.52994232    0.57648431   -8.41638414
     atom   14 type  2   force =     3.83211886   -2.05732912  -11.85793387
     atom   15 type  2   force =     3.84653009    1.90188669  -17.31433709
     atom   16 type  2   force =     0.57138687    4.70721373  -12.98361545
     atom   17 type  1   force =    -0.14010292   -0.66077120   32.26215625
     atom   18 type  1   force =    -2.24041795   -1.69566122   31.29579132
     atom   19 type  1   force =    -1.12677772    0.05250431   31.70058763
     atom   20 type  1   force =     1.01177358    0.86384035   32.41998637
     atom   21 type  1   force =     0.17377060   -1.94568601   32.03580584
     atom   22 type  1   force =    -2.23837544   -5.30387270   25.62447794
     atom   23 type  1   force =    -4.76092427    0.06250252   24.69462209
     atom   24 type  1   force =    -2.11273238    1.73035134   31.40691084
     atom   25 type  1   force =    -0.02604834    0.43211328   32.25697038
     atom   26 type  1   force =     2.91701616   -4.06793063   28.41266433
     atom   27 type  1   force =     1.27322863   -0.00875236   20.49624138
     atom   28 type  1   force =    -2.26313933    5.24303914   26.48729917
     atom   29 type  1   force =     0.01976961    1.75665613   32.08164065
     atom   30 type  1   force =     1.12911438   -0.96834562   32.14960665
     atom   31 type  1   force =     4.85866395    0.33651009   28.22916636
     atom   32 type  1   force =     3.17812340    3.98371637   28.84045759
     atom   33 type  1   force =    -0.05126865   -0.12662597  -39.07833863
     atom   34 type  1   force =    -0.56940980   -0.42780071  -39.19172907
     atom   35 type  1   force =    -0.28909157   -0.04258263  -39.24563946
     atom   36 type  1   force =     0.27303904    0.22243053  -39.08832062
     atom   37 type  1   force =    -0.01845365   -0.48723074  -39.20104567
     atom   38 type  1   force =    -0.41736277   -0.93180339  -40.31364763
     atom   39 type  1   force =    -0.90996539   -0.05710982  -40.68428204
     atom   40 type  1   force =    -0.52220578    0.40392536  -39.34213872
     atom   41 type  1   force =     0.05823087    0.12831988  -39.16590711
     atom   42 type  1   force =     0.64035741   -0.72200533  -40.20770436
     atom   43 type  1   force =     0.29408180    0.05130362  -41.17597963
     atom   44 type  1   force =    -0.25867921    0.97331147  -40.32795353
     atom   45 type  1   force =     0.01555947    0.50325646  -39.10024527
     atom   46 type  1   force =     0.32793110   -0.23268653  -39.00973716
     atom   47 type  1   force =     0.87994355   -0.02485535  -39.93650998
     atom   48 type  1   force =     0.55130058    0.76659896  -40.07571779
     atom   49 type  3   force =   -21.27112552    3.67275009   58.92203608
     atom   50 type  3   force =    -1.58861965  -20.67961746   58.09420092
     atom   51 type  3   force =    21.71333713   -2.58766707   61.19816176
     atom   52 type  3   force =     2.75791104   20.97548940   58.84755140
     atom   53 type  3   force =     7.88782374    2.06165074   63.37040653
     atom   54 type  4   force =     4.46686914    0.02559740   20.47529321
     atom   55 type  5   force =   -13.36491125   -2.87428461   24.67170119
     atom   56 type  6   force =     0.55106613    2.66047112    5.38495222
     atom   57 type  6   force =    -2.22857873    0.14411988    1.47954417
     atom   58 type  6   force =     1.38851429   -3.22620605    4.81310963
     The local contribution  to forces
     atom    1 type  2   force =     0.93903776    0.19506163    8.50806062
     atom    2 type  2   force =     0.96969873    1.15634361    8.87559946
     atom    3 type  2   force =    -1.91938127   -0.64695633    9.43075367
     atom    4 type  2   force =    -1.76427809   -1.72445417    9.23541083
     atom    5 type  2   force =     0.76066019    3.38367608   10.31253604
     atom    6 type  2   force =     3.92893674    3.11019067   14.36022306
     atom    7 type  2   force =     3.78340995   -1.11163645   12.05046750
     atom    8 type  2   force =     0.45892314   -0.22261339    8.34037297
     atom    9 type  2   force =    -1.12817692    2.54875381   10.29183546
     atom   10 type  2   force =    -1.18421027    3.57052913   19.41002520
     atom   11 type  2   force =     2.00305501   -2.17307821   20.47609509
     atom   12 type  2   force =     1.89586035   -2.98125066   10.55453730
     atom   13 type  2   force =    -0.52971776   -0.57632445    8.41650650
     atom   14 type  2   force =    -3.83122699    2.05546531   11.85272474
     atom   15 type  2   force =    -3.84529096   -1.89975580   17.30269496
     atom   16 type  2   force =    -0.56886705   -4.70549686   12.97555758
     atom   17 type  1   force =     0.13914329    0.65944367  -31.98783805
     atom   18 type  1   force =     2.23543920    1.69258074  -31.02110778
     atom   19 type  1   force =     1.12542509   -0.05242747  -31.42688910
     atom   20 type  1   force =    -1.01040247   -0.86291812  -32.14502411
     atom   21 type  1   force =    -0.17347486    1.94367285  -31.76175602
     atom   22 type  1   force =     2.22638326    5.27964729  -25.46760689
     atom   23 type  1   force =     4.76122896   -0.06036060  -24.50759784
     atom   24 type  1   force =     2.10942972   -1.72851705  -31.13330094
     atom   25 type  1   force =     0.02580937   -0.43113667  -31.98158040
     atom   26 type  1   force =    -2.91997271    4.05880717  -28.15620871
     atom   27 type  1   force =    -1.29006936    0.00222472  -20.26916824
     atom   28 type  1   force =     2.24397172   -5.22502336  -26.29454229
     atom   29 type  1   force =    -0.02061001   -1.75442066  -31.80826869
     atom   30 type  1   force =    -1.12688682    0.96680332  -31.87493332
     atom   31 type  1   force =    -4.83493882   -0.32544189  -28.01585565
     atom   32 type  1   force =    -3.16887096   -3.97535949  -28.59656456
     atom   33 type  1   force =     0.05149019    0.12636318   38.80290061
     atom   34 type  1   force =     0.56770482    0.42549270   38.91602092
     atom   35 type  1   force =     0.28758316    0.04302935   38.97026230
     atom   36 type  1   force =    -0.27227158   -0.22168276   38.81350464
     atom   37 type  1   force =     0.01802236    0.48536064   38.92623830
     atom   38 type  1   force =     0.41448751    0.92904885   40.03723612
     atom   39 type  1   force =     0.90758108    0.05646432   40.40802733
     atom   40 type  1   force =     0.52036727   -0.40233805   39.06781955
     atom   41 type  1   force =    -0.05852812   -0.12871799   38.89028453
     atom   42 type  1   force =    -0.63764109    0.71960062   39.93289366
     atom   43 type  1   force =    -0.29242785   -0.05075122   40.89712042
     atom   44 type  1   force =     0.25770879   -0.96891588   40.05134035
     atom   45 type  1   force =    -0.01504166   -0.50158179   38.82515914
     atom   46 type  1   force =    -0.32671669    0.23318275   38.73428396
     atom   47 type  1   force =    -0.87660378    0.02473649   39.66185957
     atom   48 type  1   force =    -0.54897489   -0.76489586   39.80121042
     atom   49 type  3   force =    21.45207707   -3.70408266  -58.84863507
     atom   50 type  3   force =     1.60050399   20.80874144  -58.00939710
     atom   51 type  3   force =   -21.90463347    2.60262243  -61.09513465
     atom   52 type  3   force =    -2.77412711  -21.11334679  -58.74561852
     atom   53 type  3   force =    -7.90878496   -2.08909967  -63.51176730
     atom   54 type  4   force =    -3.62363563    0.24440084  -21.40225845
     atom   55 type  5   force =    11.49202182    2.35475422  -23.20664513
     atom   56 type  6   force =    -0.54189716   -2.58822649   -5.32010749
     atom   57 type  6   force =     2.21727331   -0.13501593   -1.54377511
     atom   58 type  6   force =    -1.35744577    3.14316493   -4.77165367
     The core correction contribution to forces
     atom    1 type  2   force =     0.00026031   -0.00048940   -0.00037519
     atom    2 type  2   force =    -0.00015538    0.00035650   -0.00024285
     atom    3 type  2   force =     0.00079715    0.00078193   -0.00149995
     atom    4 type  2   force =     0.00075054    0.00026086   -0.00095114
     atom    5 type  2   force =     0.00020954   -0.00077775   -0.00060642
     atom    6 type  2   force =    -0.00028646    0.00077299   -0.00009494
     atom    7 type  2   force =     0.00051285   -0.00013873    0.00031895
     atom    8 type  2   force =    -0.00002372    0.00012179   -0.00061745
     atom    9 type  2   force =     0.00000842   -0.00005570   -0.00027171
     atom   10 type  2   force =    -0.00007306   -0.00142568    0.00039518
     atom   11 type  2   force =    -0.00121634    0.00050971    0.00110440
     atom   12 type  2   force =    -0.00068044    0.00050093   -0.00079308
     atom   13 type  2   force =    -0.00018224   -0.00017948   -0.00006069
     atom   14 type  2   force =    -0.00063601   -0.00026288    0.00047264
     atom   15 type  2   force =     0.00047397    0.00032339    0.00113531
     atom   16 type  2   force =     0.00025870   -0.00056196    0.00045788
     atom   17 type  1   force =    -0.00005233   -0.00000706    0.00196488
     atom   18 type  1   force =    -0.00015858   -0.00008351    0.00203988
     atom   19 type  1   force =    -0.00004823   -0.00005476    0.00197289
     atom   20 type  1   force =    -0.00000398    0.00000146    0.00199059
     atom   21 type  1   force =    -0.00003835   -0.00003546    0.00197264
     atom   22 type  1   force =    -0.00009491   -0.00041717   -0.00040248
     atom   23 type  1   force =     0.00004921    0.00007020   -0.00004439
     atom   24 type  1   force =    -0.00006670    0.00004223    0.00198168
     atom   25 type  1   force =     0.00005169    0.00002281    0.00198648
     atom   26 type  1   force =    -0.00002061   -0.00024215    0.00142943
     atom   27 type  1   force =    -0.00046334   -0.00006039    0.00111672
     atom   28 type  1   force =    -0.00030428    0.00037589    0.00019756
     atom   29 type  1   force =    -0.00002129    0.00009993    0.00197964
     atom   30 type  1   force =     0.00007930   -0.00003672    0.00200965
     atom   31 type  1   force =     0.00052184    0.00026081    0.00063958
     atom   32 type  1   force =     0.00016402    0.00019697    0.00123132
     atom   33 type  1   force =     0.00001676   -0.00000359   -0.00193243
     atom   34 type  1   force =    -0.00003147   -0.00005357   -0.00198944
     atom   35 type  1   force =     0.00000272    0.00003586   -0.00193422
     atom   36 type  1   force =     0.00001934    0.00002513   -0.00191767
     atom   37 type  1   force =     0.00000512   -0.00004335   -0.00192682
     atom   38 type  1   force =     0.00001019    0.00001137   -0.00197546
     atom   39 type  1   force =     0.00002974    0.00002715   -0.00198144
     atom   40 type  1   force =    -0.00005782    0.00000880   -0.00192276
     atom   41 type  1   force =    -0.00003618   -0.00001283   -0.00194828
     atom   42 type  1   force =    -0.00002438   -0.00003879   -0.00193383
     atom   43 type  1   force =     0.00000233   -0.00001148   -0.00220952
     atom   44 type  1   force =    -0.00002627    0.00001919   -0.00198856
     atom   45 type  1   force =     0.00001191    0.00001599   -0.00196003
     atom   46 type  1   force =     0.00003330    0.00000925   -0.00196738
     atom   47 type  1   force =     0.00004971    0.00003149   -0.00190606
     atom   48 type  1   force =     0.00002354    0.00000564   -0.00189434
     atom   49 type  3   force =     0.00426207   -0.00131859   -0.00316465
     atom   50 type  3   force =    -0.00144683    0.00369979   -0.00372067
     atom   51 type  3   force =    -0.00463811    0.00092385   -0.00154073
     atom   52 type  3   force =    -0.00175806   -0.00488874   -0.00188743
     atom   53 type  3   force =    -0.00263803   -0.00113335   -0.00368106
     atom   54 type  4   force =     0.01768522    0.00454722   -0.01252865
     atom   55 type  5   force =    -0.01845356   -0.00474844    0.01222931
     atom   56 type  6   force =     0.00000000    0.00000000    0.00000000
     atom   57 type  6   force =     0.00000000    0.00000000    0.00000000
     atom   58 type  6   force =     0.00000000    0.00000000    0.00000000
     The Hubbard contrib.    to forces
     atom    1 type  2   force =     0.00000000    0.00000000    0.00000000
     atom    2 type  2   force =     0.00000000    0.00000000    0.00000000
     atom    3 type  2   force =     0.00000000    0.00000000    0.00000000
     atom    4 type  2   force =     0.00000000    0.00000000    0.00000000
     atom    5 type  2   force =     0.00000000    0.00000000    0.00000000
     atom    6 type  2   force =     0.00000000    0.00000000    0.00000000
     atom    7 type  2   force =     0.00000000    0.00000000    0.00000000
     atom    8 type  2   force =     0.00000000    0.00000000    0.00000000
     atom    9 type  2   force =     0.00000000    0.00000000    0.00000000
     atom   10 type  2   force =     0.00000000    0.00000000    0.00000000
     atom   11 type  2   force =     0.00000000    0.00000000    0.00000000
     atom   12 type  2   force =     0.00000000    0.00000000    0.00000000
     atom   13 type  2   force =     0.00000000    0.00000000    0.00000000
     atom   14 type  2   force =     0.00000000    0.00000000    0.00000000
     atom   15 type  2   force =     0.00000000    0.00000000    0.00000000
     atom   16 type  2   force =     0.00000000    0.00000000    0.00000000
     atom   17 type  1   force =     0.00000000    0.00000000    0.00000000
     atom   18 type  1   force =     0.00000000    0.00000000    0.00000000
     atom   19 type  1   force =     0.00000000    0.00000000    0.00000000
     atom   20 type  1   force =     0.00000000    0.00000000    0.00000000
     atom   21 type  1   force =     0.00000000    0.00000000    0.00000000
     atom   22 type  1   force =     0.00000000    0.00000000    0.00000000
     atom   23 type  1   force =     0.00000000    0.00000000    0.00000000
     atom   24 type  1   force =     0.00000000    0.00000000    0.00000000
     atom   25 type  1   force =     0.00000000    0.00000000    0.00000000
     atom   26 type  1   force =     0.00000000    0.00000000    0.00000000
     atom   27 type  1   force =     0.00000000    0.00000000    0.00000000
     atom   28 type  1   force =     0.00000000    0.00000000    0.00000000
     atom   29 type  1   force =     0.00000000    0.00000000    0.00000000
     atom   30 type  1   force =     0.00000000    0.00000000    0.00000000
     atom   31 type  1   force =     0.00000000    0.00000000    0.00000000
     atom   32 type  1   force =     0.00000000    0.00000000    0.00000000
     atom   33 type  1   force =     0.00000000    0.00000000    0.00000000
     atom   34 type  1   force =     0.00000000    0.00000000    0.00000000
     atom   35 type  1   force =     0.00000000    0.00000000    0.00000000
     atom   36 type  1   force =     0.00000000    0.00000000    0.00000000
     atom   37 type  1   force =     0.00000000    0.00000000    0.00000000
     atom   38 type  1   force =     0.00000000    0.00000000    0.00000000
     atom   39 type  1   force =     0.00000000    0.00000000    0.00000000
     atom   40 type  1   force =     0.00000000    0.00000000    0.00000000
     atom   41 type  1   force =     0.00000000    0.00000000    0.00000000
     atom   42 type  1   force =     0.00000000    0.00000000    0.00000000
     atom   43 type  1   force =     0.00000000    0.00000000    0.00000000
     atom   44 type  1   force =     0.00000000    0.00000000    0.00000000
     atom   45 type  1   force =     0.00000000    0.00000000    0.00000000
     atom   46 type  1   force =     0.00000000    0.00000000    0.00000000
     atom   47 type  1   force =     0.00000000    0.00000000    0.00000000
     atom   48 type  1   force =     0.00000000    0.00000000    0.00000000
     atom   49 type  3   force =     0.00000000    0.00000000    0.00000000
     atom   50 type  3   force =     0.00000000    0.00000000    0.00000000
     atom   51 type  3   force =     0.00000000    0.00000000    0.00000000
     atom   52 type  3   force =     0.00000000    0.00000000    0.00000000
     atom   53 type  3   force =     0.00000000    0.00000000    0.00000000
     atom   54 type  4   force =     0.00000000    0.00000000    0.00000000
     atom   55 type  5   force =     0.00000000    0.00000000    0.00000000
     atom   56 type  6   force =     0.00000000    0.00000000    0.00000000
     atom   57 type  6   force =     0.00000000    0.00000000    0.00000000
     atom   58 type  6   force =     0.00000000    0.00000000    0.00000000
     The SCF correction term to forces
     atom    1 type  2   force =    -0.00000125   -0.00000333    0.00000486
     atom    2 type  2   force =    -0.00000305    0.00000450    0.00000528
     atom    3 type  2   force =     0.00000060    0.00000206    0.00000689
     atom    4 type  2   force =     0.00000148   -0.00000467    0.00000538
     atom    5 type  2   force =     0.00000293   -0.00000476    0.00000620
     atom    6 type  2   force =    -0.00000026    0.00000538    0.00000906
     atom    7 type  2   force =    -0.00000006    0.00000379    0.00000871
     atom    8 type  2   force =     0.00000121   -0.00000217    0.00000602
     atom    9 type  2   force =     0.00000208   -0.00000249    0.00000551
     atom   10 type  2   force =     0.00000247    0.00000212    0.00000963
     atom   11 type  2   force =    -0.00000062    0.00000437    0.00001214
     atom   12 type  2   force =    -0.00000154   -0.00000108    0.00000668
     atom   13 type  2   force =    -0.00000486   -0.00000106    0.00000477
     atom   14 type  2   force =     0.00000064    0.00000044    0.00000580
     atom   15 type  2   force =     0.00000107    0.00000283    0.00000901
     atom   16 type  2   force =    -0.00000114   -0.00000387    0.00000645
     atom   17 type  1   force =     0.00000114   -0.00000226    0.00000401
     atom   18 type  1   force =    -0.00000042    0.00000196    0.00000576
     atom   19 type  1   force =     0.00000057    0.00000149    0.00000275
     atom   20 type  1   force =     0.00000009   -0.00000027    0.00000174
     atom   21 type  1   force =     0.00000114   -0.00000131    0.00000267
     atom   22 type  1   force =     0.00000076    0.00000069    0.00000561
     atom   23 type  1   force =    -0.00000015    0.00000272    0.00000472
     atom   24 type  1   force =     0.00000054   -0.00000064    0.00000236
     atom   25 type  1   force =    -0.00000047   -0.00000083    0.00000222
     atom   26 type  1   force =     0.00000109   -0.00000034    0.00000297
     atom   27 type  1   force =    -0.00000041    0.00000219    0.00000372
     atom   28 type  1   force =    -0.00000072   -0.00000134    0.00000306
     atom   29 type  1   force =    -0.00000175   -0.00000170    0.00000403
     atom   30 type  1   force =    -0.00000133    0.00000042    0.00000274
     atom   31 type  1   force =    -0.00000000    0.00000070    0.00000201
     atom   32 type  1   force =     0.00000004   -0.00000148    0.00000220
     atom   33 type  1   force =     0.00000095   -0.00000252   -0.00000129
     atom   34 type  1   force =    -0.00000154    0.00000079   -0.00000268
     atom   35 type  1   force =    -0.00000030    0.00000121    0.00000057
     atom   36 type  1   force =     0.00000005    0.00000016    0.00000112
     atom   37 type  1   force =     0.00000111   -0.00000161    0.00000022
     atom   38 type  1   force =     0.00000044   -0.00000123   -0.00000166
     atom   39 type  1   force =    -0.00000121    0.00000254    0.00000031
     atom   40 type  1   force =    -0.00000022    0.00000032    0.00000105
     atom   41 type  1   force =    -0.00000031   -0.00000036    0.00000043
     atom   42 type  1   force =     0.00000208   -0.00000125    0.00000018
     atom   43 type  1   force =     0.00000071    0.00000205    0.00000093
     atom   44 type  1   force =    -0.00000068    0.00000048    0.00000091
     atom   45 type  1   force =    -0.00000175   -0.00000100   -0.00000148
     atom   46 type  1   force =    -0.00000118   -0.00000010   -0.00000025
     atom   47 type  1   force =     0.00000070    0.00000040    0.00000134
     atom   48 type  1   force =     0.00000086   -0.00000035    0.00000110
     atom   49 type  3   force =    -0.00000009    0.00000069   -0.00000149
     atom   50 type  3   force =    -0.00000136    0.00000179   -0.00000003
     atom   51 type  3   force =    -0.00000087    0.00000131   -0.00000039
     atom   52 type  3   force =    -0.00000131   -0.00000127   -0.00000178
     atom   53 type  3   force =    -0.00000133    0.00000032   -0.00000183
     atom   54 type  4   force =    -0.00000068    0.00000006   -0.00000102
     atom   55 type  5   force =     0.00000095    0.00000031   -0.00000096
     atom   56 type  6   force =    -0.00000006   -0.00000002   -0.00000018
     atom   57 type  6   force =     0.00000016    0.00000007   -0.00000016
     atom   58 type  6   force =    -0.00000006    0.00000004   -0.00000016

     DFT-D3 dispersion contribution to forces:
     atom    1 type  2   force =     0.00014032    0.00003169    0.00039727
     atom    2 type  2   force =     0.00011260    0.00016976    0.00049314
     atom    3 type  2   force =    -0.00045774   -0.00014013    0.00073665
     atom    4 type  2   force =    -0.00035297   -0.00038082    0.00063735
     atom    5 type  2   force =     0.00018455    0.00071943    0.00098283
     atom    6 type  2   force =     0.00101636    0.00070834    0.00248494
     atom    7 type  2   force =     0.00083704   -0.00018966    0.00138813
     atom    8 type  2   force =     0.00007452   -0.00002447    0.00022411
     atom    9 type  2   force =    -0.00025653    0.00054451    0.00078166
     atom   10 type  2   force =    -0.00005516    0.00100398    0.00259839
     atom   11 type  2   force =     0.00046686   -0.00069246    0.00379143
     atom   12 type  2   force =     0.00046896   -0.00064419    0.00104806
     atom   13 type  2   force =    -0.00004338   -0.00010703    0.00032928
     atom   14 type  2   force =    -0.00088237    0.00050355    0.00164641
     atom   15 type  2   force =    -0.00104027   -0.00052512    0.00341126
     atom   16 type  2   force =    -0.00015261   -0.00106691    0.00182871
     atom   17 type  1   force =     0.00008280    0.00024614   -0.00058045
     atom   18 type  1   force =     0.00080068    0.00058352   -0.00020475
     atom   19 type  1   force =     0.00034068   -0.00000720   -0.00034479
     atom   20 type  1   force =    -0.00035860   -0.00030554   -0.00058909
     atom   21 type  1   force =    -0.00006592    0.00064881   -0.00050850
     atom   22 type  1   force =     0.00016667    0.00115431   -0.00009440
     atom   23 type  1   force =     0.00134310   -0.00001082   -0.00027746
     atom   24 type  1   force =     0.00076528   -0.00060196   -0.00019092
     atom   25 type  1   force =     0.00005611   -0.00016155   -0.00059736
     atom   26 type  1   force =     0.00019350   -0.00024354   -0.00148286
     atom   27 type  1   force =    -0.00090460    0.00042984   -0.00274599
     atom   28 type  1   force =    -0.00021976   -0.00099880   -0.00033728
     atom   29 type  1   force =    -0.00005000   -0.00061177   -0.00054836
     atom   30 type  1   force =    -0.00043462    0.00032397   -0.00054744
     atom   31 type  1   force =    -0.00045834    0.00017237   -0.00112746
     atom   32 type  1   force =     0.00060185   -0.00057232   -0.00103946
     atom   33 type  1   force =     0.00001542    0.00001594    0.00095744
     atom   34 type  1   force =     0.00002741    0.00000323    0.00098753
     atom   35 type  1   force =    -0.00000981    0.00000171    0.00096884
     atom   36 type  1   force =     0.00001032    0.00001019    0.00093951
     atom   37 type  1   force =    -0.00001750   -0.00003640    0.00096603
     atom   38 type  1   force =     0.00000253    0.00001106    0.00119945
     atom   39 type  1   force =     0.00002160   -0.00001393    0.00120934
     atom   40 type  1   force =    -0.00003531    0.00001517    0.00097711
     atom   41 type  1   force =    -0.00000308   -0.00001634    0.00095926
     atom   42 type  1   force =    -0.00000789    0.00003141    0.00112346
     atom   43 type  1   force =     0.00000901    0.00001039    0.00143328
     atom   44 type  1   force =     0.00001667   -0.00002403    0.00118958
     atom   45 type  1   force =     0.00000591   -0.00000586    0.00097139
     atom   46 type  1   force =     0.00000648    0.00001491    0.00096223
     atom   47 type  1   force =    -0.00001250    0.00000469    0.00111201
     atom   48 type  1   force =    -0.00002887   -0.00002271    0.00111744
     atom   49 type  3   force =    -0.00086094    0.00012243   -0.00786417
     atom   50 type  3   force =    -0.00240890   -0.00340353   -0.00548449
     atom   51 type  3   force =     0.00139234    0.00051098   -0.00557192
     atom   52 type  3   force =    -0.00097477    0.00272464   -0.00647208
     atom   53 type  3   force =     0.00114782    0.00017717   -0.00193741
     atom   54 type  4   force =     0.00010452    0.00007775   -0.00074410
     atom   55 type  5   force =    -0.00026844    0.00006169   -0.00097289
     atom   56 type  6   force =     0.00005098    0.00012925    0.00020438
     atom   57 type  6   force =    -0.00021339   -0.00013674    0.00007109
     atom   58 type  6   force =     0.00011139   -0.00021899    0.00013463

     Total force =     0.045207     Total SCF correction =     0.000038

     DFT-D3 dispersion Force =     0.017431


     Computing stress (Cartesian axis) and pressure


     negative rho (up, down):  4.795E-03 5.163E-03
          total   stress  (Ry/bohr**3)                   (kbar)     P=       -1.60
  -0.00000953  -0.00000080   0.00000121           -1.40       -0.12        0.18
  -0.00000080  -0.00000954   0.00000065           -0.12       -1.40        0.10
   0.00000121   0.00000065  -0.00001352            0.18        0.10       -1.99

     kinetic stress (kbar)   7256.06     -1.16     -8.90
                               -1.16   7272.74     -0.28
                               -8.90     -0.28   7301.38

     local   stress (kbar)-135447.90    -63.38    521.29
                              -63.38-133995.98    219.55
                              521.29    219.55 134089.42

     nonloc. stress (kbar)  -1419.16     -0.12      0.31
                               -0.12  -1420.37      0.30
                                0.31      0.30  -1427.18

     hartree stress (kbar)  68209.82     29.23   -249.94
                               29.23  67554.74   -102.72
                             -249.94   -102.72 -63294.88

     exc-cor stress (kbar)   2000.80      0.01     -0.00
                                0.01   2000.37     -0.04
                               -0.00     -0.04   2000.33

     corecor stress (kbar)  -3626.55      0.04      0.05
                                0.04  -3626.83      0.01
                                0.05      0.01  -3627.24

     ewald   stress (kbar)  63029.78     35.24   -262.59
                               35.24  62218.16   -116.72
                             -262.59   -116.72 -75041.27

     hubbard stress (kbar)      0.00      0.00      0.00
                                0.00      0.00      0.00
                                0.00      0.00      0.00

     DFT-D   stress (kbar)     -4.26      0.02     -0.04
                                0.02     -4.22      0.01
                               -0.04      0.01     -2.55

     XDM     stress (kbar)      0.00      0.00      0.00
                                0.00      0.00      0.00
                                0.00      0.00      0.00

     dft-nl  stress (kbar)      0.00      0.00      0.00
                                0.00      0.00      0.00
                                0.00      0.00      0.00

     TS-vdW  stress (kbar)      0.00      0.00      0.00
                                0.00      0.00      0.00
                                0.00      0.00      0.00

     MDB     stress (kbar)      0.00      0.00      0.00
                                0.00      0.00      0.00
                                0.00      0.00      0.00

     3D-RISM stress (kbar)      0.00      0.00      0.00
                                0.00      0.00      0.00
                                0.00      0.00      0.00


     Writing all to output data dir ./Ag-WS2-H2NOH.save/ :
     XML data file, charge density, pseudopotentials, collected wavefunctions

     init_run     :    183.36s CPU    187.65s WALL (       1 calls)
     electrons    :  11875.53s CPU  12117.43s WALL (       1 calls)
     forces       :     46.68s CPU     48.32s WALL (       1 calls)
     force_dftd3  :      0.14s CPU      0.16s WALL (       1 calls)
     stress       :    165.42s CPU    170.29s WALL (       1 calls)
     stres_dftd3  :      0.15s CPU      0.18s WALL (       1 calls)

     Called by init_run:
     wfcinit      :    175.04s CPU    178.58s WALL (       1 calls)
     wfcinit:atom :      0.69s CPU      0.72s WALL (      26 calls)
     wfcinit:wfcr :    170.64s CPU    174.02s WALL (      26 calls)
     potinit      :      2.84s CPU      2.97s WALL (       1 calls)
     hinit0       :      1.51s CPU      1.70s WALL (       1 calls)

     Called by electrons:
     c_bands      :  10272.57s CPU  10465.53s WALL (      32 calls)
     sum_band     :   1490.46s CPU   1526.64s WALL (      32 calls)
     v_of_rho     :     19.00s CPU     20.15s WALL (      32 calls)
     v_h          :      0.88s CPU      0.99s WALL (      32 calls)
     v_xc         :     19.25s CPU     20.37s WALL (      34 calls)
     newd         :     53.21s CPU     63.59s WALL (      32 calls)
     PAW_pot      :     36.01s CPU     36.47s WALL (      32 calls)
     mix_rho      :      4.82s CPU      5.19s WALL (      32 calls)
     energy_dftd3 :      0.06s CPU      0.06s WALL (       1 calls)

     Called by c_bands:
     init_us_2    :    117.57s CPU    121.19s WALL (    1742 calls)
     cegterg      :  10117.83s CPU  10307.12s WALL (     832 calls)

     Called by sum_band:
     sum_band:wei :      0.01s CPU      0.01s WALL (      32 calls)
     sum_band:loo :   1392.23s CPU   1415.56s WALL (      32 calls)
     sum_band:buf :     10.03s CPU     10.33s WALL (     832 calls)
     sum_band:ini :     56.04s CPU     57.74s WALL (     832 calls)
     sum_band:cal :    289.74s CPU    298.24s WALL (     832 calls)
     sum_band:bec :      3.30s CPU      3.37s WALL (     832 calls)
     addusdens    :     94.36s CPU    107.00s WALL (      32 calls)
                                        0.00s GPU  (      32 calls)
     addusd:skk   :      1.42s CPU      1.55s WALL (     192 calls)
                                        0.00s GPU  (     192 calls)

     Called by *egterg:
     cdiaghg      :    555.38s CPU    577.18s WALL (    5657 calls)
     cegterg:over :    559.09s CPU    573.06s WALL (    4851 calls)
     cegterg:upda :    265.80s CPU    270.95s WALL (    4851 calls)
     cegterg:last :    474.16s CPU    483.12s WALL (    1690 calls)
     cdiaghg:chol :     46.05s CPU     46.52s WALL (    5657 calls)
     cdiaghg:inve :      7.64s CPU      7.74s WALL (    5657 calls)
     cdiaghg:para :    159.19s CPU    171.81s WALL (   11314 calls)
     h_psi        :   7579.17s CPU   7701.50s WALL (    5709 calls)
     s_psi        :    660.68s CPU    669.06s WALL (    5709 calls)
     g_psi        :      9.67s CPU     10.04s WALL (    4851 calls)

     Called by h_psi:
     h_psi:calbec :    912.53s CPU    938.71s WALL (    5709 calls)
     vloc_psi     :   5955.16s CPU   6039.24s WALL (    5709 calls)
     add_vuspsi   :    685.28s CPU    695.17s WALL (    5709 calls)

     General routines
     calbec       :   1355.08s CPU   1394.26s WALL (    6983 calls)
     fft          :     21.29s CPU     23.06s WALL (     840 calls)
     ffts         :      1.79s CPU      1.93s WALL (     128 calls)
     fftw         :   6453.62s CPU   6533.79s WALL ( 1245060 calls)
     interpolate  :      2.82s CPU      3.00s WALL (      64 calls)

     Parallel routines

     PAW routines
     PAW_pot      :     36.01s CPU     36.47s WALL (      32 calls)

     PWSCF        :  12283.39s CPU  12576.65s WALL


   This run was terminated on:   9:18:29   1Aug2026            

=------------------------------------------------------------------------------=
   JOB DONE.
=------------------------------------------------------------------------------=
