
     Program PWSCF v.7.4.1 starts on  1Aug2026 at 20:34:23 

     This program is part of the open-source Quantum ESPRESSO suite
     for quantum simulation of materials; please cite
         "P. Giannozzi et al., J. Phys.:Condens. Matter 21 395502 (2009);
         "P. Giannozzi et al., J. Phys.:Condens. Matter 29 465901 (2017);
         "P. Giannozzi et al., J. Chem. Phys. 152 154105 (2020);
          URL http://www.quantum-espresso.org", 
     in publications or presentations arising from this work. More details at
     http://www.quantum-espresso.org/quote

     Parallel version (MPI & OpenMP), running on      64 processor cores
     Number of MPI processes:                64
     Threads/MPI process:                     1

     MPI processes distributed on     1 nodes
     43827 MiB available memory on the printing compute node when the environment starts

     Reading input from disp_023_atom57_+1z.in

     Current dimensions of program PWSCF are:
     Max number of different atomic species (ntypx) = 10
     Max number of k-points (npk) =  40000
     Max angular momentum in pseudopotentials (lmaxx) =  4
     file S.pbe-n-kjpaw_psl.1.0.0.UPF: wavefunction(s)  3S 3P renormalized
     file W.pbe-spn-kjpaw_psl.1.0.0.UPF: wavefunction(s)  6S 5P 5D renormalized
     file Ag.pbe-n-kjpaw_psl.1.0.0.UPF: wavefunction(s)  5S 5P renormalized
     file N.pbe-n-kjpaw_psl.1.0.0.UPF: wavefunction(s)  2S renormalized
     file O.pbe-n-kjpaw_psl.1.0.0.UPF: wavefunction(s)  2S 2P renormalized
     file H.pbe-kjpaw_psl.1.0.0.UPF: wavefunction(s)  1S renormalized
     Message from routine setup:
     the system is metallic, specify occupations

     R & G space division:  proc/nbgrp/npool/nimage =      64
     Subspace diagonalization in iterative solution of the eigenvalue problem:
     one sub-group per band group will be used
     ELPA distributed-memory algorithm (size of sub-group:  2*  2 procs)


     Parallelization info
     --------------------
     sticks:   dense  smooth     PW     G-vecs:    dense   smooth      PW
     Min         247     123     32                39673    14017    1874
     Max         248     124     33                39680    14030    1885
     Sum       15841    7909   2065              2539249   897387  120111

     Using Slab Decomposition



     bravais-lattice index     =            0
     lattice parameter (alat)  =      23.9624  a.u.
     unit-cell volume          =   18794.0729 (a.u.)^3
     number of atoms/cell      =           58
     number of atomic types    =            6
     number of electrons       =       485.00 (up: 243.00, down: 242.00)
     number of Kohn-Sham states=          243
     kinetic-energy cutoff     =      50.0000  Ry
     charge density cutoff     =     400.0000  Ry
     scf convergence threshold =      1.0E-10
     mixing beta               =       0.4000
     number of iterations used =            8  plain     mixing
     Exchange-correlation= SLA  PW   PBX  PBC
                           (   1   4   3   4   0   0   0)

     celldm(1)=  23.962422  celldm(2)=   0.000000  celldm(3)=   0.000000
     celldm(4)=   0.000000  celldm(5)=   0.000000  celldm(6)=   0.000000

     crystal axes: (cart. coord. in units of alat)
               a(1) = (   1.000000   0.000000   0.000000 )  
               a(2) = (  -0.500000   0.866025   0.000000 )  
               a(3) = (   0.000000   0.000000   1.577241 )  

     reciprocal axes: (cart. coord. in units 2 pi/alat)
               b(1) = (  1.000000  0.577350 -0.000000 )  
               b(2) = (  0.000000  1.154701  0.000000 )  
               b(3) = (  0.000000 -0.000000  0.634018 )  


     PseudoPot. # 1 for S  read from file:
     /share/work_r640/fmigm008/pseudo/S.pbe-n-kjpaw_psl.1.0.0.UPF
     MD5 check sum: fb45dfebcf3e72a4e1bd4a866ec2e262
     Pseudo is Projector augmented-wave + core cor, Zval =  6.0
     Generated using &quot;atomic&quot; code by A. Dal Corso  v.6.3
     Shape of augmentation charge: PSQ
     Using radial grid of 1151 points,  6 beta functions with: 
                l(1) =   0
                l(2) =   0
                l(3) =   1
                l(4) =   1
                l(5) =   2
                l(6) =   2
     Q(r) pseudized with 0 coefficients 


     PseudoPot. # 2 for W  read from file:
     /share/work_r640/fmigm008/pseudo/W.pbe-spn-kjpaw_psl.1.0.0.UPF
     MD5 check sum: 03c3df5b60893f488392c7401945500a
     Pseudo is Projector augmented-wave + core cor, Zval = 14.0
     Generated using &quot;atomic&quot; code by A. Dal Corso  v.6.2.2
     Shape of augmentation charge: PSQ
     Using radial grid of 1273 points,  6 beta functions with: 
                l(1) =   0
                l(2) =   0
                l(3) =   1
                l(4) =   1
                l(5) =   2
                l(6) =   2
     Q(r) pseudized with 0 coefficients 


     PseudoPot. # 3 for Ag read from file:
     /share/work_r640/fmigm008/pseudo/Ag.pbe-n-kjpaw_psl.1.0.0.UPF
     MD5 check sum: 51099775af2a3182a6a1caffb86952a3
     Pseudo is Projector augmented-wave + core cor, Zval = 11.0
     Generated using &quot;atomic&quot; code by A. Dal Corso  v.6.2.2
     Shape of augmentation charge: PSQ
     Using radial grid of 1237 points,  6 beta functions with: 
                l(1) =   0
                l(2) =   0
                l(3) =   1
                l(4) =   1
                l(5) =   2
                l(6) =   2
     Q(r) pseudized with 0 coefficients 


     PseudoPot. # 4 for N  read from file:
     /share/work_r640/fmigm008/pseudo/N.pbe-n-kjpaw_psl.1.0.0.UPF
     MD5 check sum: 14c48229446f9f2d411169a3abcbc3fa
     Pseudo is Projector augmented-wave + core cor, Zval =  5.0
     Generated using &quot;atomic&quot; code by A. Dal Corso  v.6.3
     Shape of augmentation charge: PSQ
     Using radial grid of 1085 points,  4 beta functions with: 
                l(1) =   0
                l(2) =   0
                l(3) =   1
                l(4) =   1
     Q(r) pseudized with 0 coefficients 


     PseudoPot. # 5 for O  read from file:
     /share/work_r640/fmigm008/pseudo/O.pbe-n-kjpaw_psl.1.0.0.UPF
     MD5 check sum: e99d9cef9b487d1ca56f5b95ecd0fd7a
     Pseudo is Projector augmented-wave + core cor, Zval =  6.0
     Generated using &quot;atomic&quot; code by A. Dal Corso  v.6.3
     Shape of augmentation charge: PSQ
     Using radial grid of 1095 points,  4 beta functions with: 
                l(1) =   0
                l(2) =   0
                l(3) =   1
                l(4) =   1
     Q(r) pseudized with 0 coefficients 


     PseudoPot. # 6 for H  read from file:
     /share/work_r640/fmigm008/pseudo/H.pbe-kjpaw_psl.1.0.0.UPF
     MD5 check sum: d81a744832360e4a8af0b0b5b123bc2a
     Pseudo is Projector augmented-wave, Zval =  1.0
     Generated using &quot;atomic&quot; code by A. Dal Corso  v.6.3MaX
     Shape of augmentation charge: PSQ
     Using radial grid of  929 points,  2 beta functions with: 
                l(1) =   0
                l(2) =   0
     Q(r) pseudized with 0 coefficients 


     atomic species   valence    mass     pseudopotential
     S                 6.00    32.06500     S ( 1.00)
     W                14.00   183.84000     W ( 1.00)
     Ag               11.00   107.87000     Ag( 1.00)
     N                 5.00    14.00700     N ( 1.00)
     O                 6.00    15.99900     O ( 1.00)
     H                 1.00     1.00800     H ( 1.00)

     Starting magnetic structure 
     atomic species   magnetization
     S               0.000
     W               0.000
     Ag              0.000
     N               0.000
     O               0.000
     H               0.000

     No symmetry found


                                    s                        frac. trans.

      isym =  1     identity                                     

 cryst.   s( 1) = (     1          0          0      )
                  (     0          1          0      )
                  (     0          0          1      )

 cart.    s( 1) = (  1.0000000  0.0000000  0.0000000 )
                  (  0.0000000  1.0000000  0.0000000 )
                  (  0.0000000  0.0000000  1.0000000 )


   Cartesian axes

     site n.     atom                  positions (alat units)
         1        W      tau(   1) = (  -0.0028587   0.1395947   0.2444812  )
         2        W      tau(   2) = (  -0.1282026   0.3564836   0.2443568  )
         3        W      tau(   3) = (  -0.2537731   0.5727289   0.2442261  )
         4        W      tau(   4) = (  -0.3783723   0.7888166   0.2441498  )
         5        W      tau(   5) = (   0.2469096   0.1395426   0.2440120  )
         6        W      tau(   6) = (   0.1225026   0.3570726   0.2432304  )
         7        W      tau(   7) = (  -0.0034888   0.5727502   0.2429844  )
         8        W      tau(   8) = (  -0.1283671   0.7891505   0.2439766  )
         9        W      tau(   9) = (   0.4969194   0.1397378   0.2430413  )
        10        W      tau(  10) = (   0.3721499   0.3552416   0.2405337  )
        11        W      tau(  11) = (   0.2452295   0.5727639   0.2402480  )
        12        W      tau(  12) = (   0.1220165   0.7890246   0.2436243  )
        13        W      tau(  13) = (   0.7467445   0.1394449   0.2440642  )
        14        W      tau(  14) = (   0.6211264   0.3563823   0.2436826  )
        15        W      tau(  15) = (   0.4971469   0.5732720   0.2421413  )
        16        W      tau(  16) = (   0.3721785   0.7886524   0.2428338  )
        17        S      tau(  17) = (   0.1219502   0.0672380   0.3684592  )
        18        S      tau(  18) = (  -0.0024014   0.2846735   0.3681910  )
        19        S      tau(  19) = (  -0.1281525   0.5008469   0.3682441  )
        20        S      tau(  20) = (  -0.2533258   0.7170167   0.3685687  )
        21        S      tau(  21) = (   0.3722606   0.0676427   0.3679766  )
        22        S      tau(  22) = (   0.2484890   0.2849851   0.3676532  )
        23        S      tau(  23) = (   0.1218721   0.5017515   0.3660861  )
        24        S      tau(  24) = (  -0.0030403   0.7167922   0.3679041  )
        25        S      tau(  25) = (   0.6215745   0.0674060   0.3678624  )
        26        S      tau(  26) = (   0.4959803   0.2843589   0.3667029  )
        27        S      tau(  27) = (   0.3710177   0.5007270   0.3638206  )
        28        S      tau(  28) = (   0.2481984   0.7153351   0.3669892  )
        29        S      tau(  29) = (   0.8717811   0.0668114   0.3679626  )
        30        S      tau(  30) = (   0.7463862   0.2840842   0.3681041  )
        31        S      tau(  31) = (   0.6195449   0.5004430   0.3687043  )
        32        S      tau(  32) = (   0.4956231   0.7159829   0.3681683  )
        33        S      tau(  33) = (   0.1218639   0.0672424   0.1203644  )
        34        S      tau(  34) = (  -0.0031686   0.2839920   0.1203246  )
        35        S      tau(  35) = (  -0.1290559   0.5005458   0.1199474  )
        36        S      tau(  36) = (  -0.2533637   0.7168463   0.1201865  )
        37        S      tau(  37) = (   0.3715067   0.0672515   0.1197328  )
        38        S      tau(  38) = (   0.2459712   0.2831895   0.1185177  )
        39        S      tau(  39) = (   0.1200987   0.4999851   0.1172124  )
        40        S      tau(  40) = (  -0.0034124   0.7174366   0.1195727  )
        41        S      tau(  41) = (   0.6220409   0.0671938   0.1195919  )
        42        S      tau(  42) = (   0.4978914   0.2834015   0.1177695  )
        43        S      tau(  43) = (   0.3720771   0.5008174   0.1169455  )
        44        S      tau(  44) = (   0.2466393   0.7180153   0.1180007  )
        45        S      tau(  45) = (   0.8722199   0.0680125   0.1199081  )
        46        S      tau(  46) = (   0.7469729   0.2840633   0.1202901  )
        47        S      tau(  47) = (   0.6222799   0.5003741   0.1191499  )
        48        S      tau(  48) = (   0.4972527   0.7176301   0.1185580  )
        49        Ag     tau(  49) = (   0.1547683   0.5150674   0.5753024  )
        50        Ag     tau(  50) = (   0.3069329   0.3595674   0.5464056  )
        51        Ag     tau(  51) = (   0.5024756   0.4743393   0.5615070  )
        52        Ag     tau(  52) = (   0.3399570   0.6321033   0.5430870  )
        53        Ag     tau(  53) = (   0.3428646   0.4953663   0.7084671  )
        54        N      tau(  54) = (   0.2596825   0.4648737   0.8674395  )
        55        O      tau(  55) = (   0.1477385   0.4509631   0.8500100  )
        56        H      tau(  56) = (   0.2650389   0.5234661   0.9229976  )
        57        H      tau(  57) = (   0.1408570   0.4629232   0.7745531  )
        58        H      tau(  58) = (   0.2837088   0.3964009   0.9032094  )

     --------------------------------------------
     DFT-D3 Dispersion Correction (3-body terms):
     --------------------------------------------
       Reference C6 values for interpolation: 

         atom   Coordination number   C6
         H          0.912             6.05
         H          0.000            15.18
         N          0.000            50.54
         N          0.994            44.25
         N          2.014            39.35
         N          2.990            31.16
         O          0.000            31.01
         O          0.993            25.63
         O          1.989            20.74
         S          0.000           268.01
         S          0.995           261.99
         S          1.990           251.62
         Ag         0.000           853.49
         Ag         0.968           537.23
         W          0.000          1628.72
         W          1.929          1086.81
         W         10.915           796.19

       Values used:

         atom   Coordination number  R0_AB[au]  C6      C8
         W          9.805            3.766    796.19 128250.55
         W          9.806            3.766    796.19 128250.55
         W          9.854            3.766    796.19 128250.55
         W          9.866            3.766    796.19 128250.55
         W          9.842            3.766    796.19 128250.55
         W          9.851            3.766    796.19 128250.55
         W          9.870            3.766    796.19 128250.55
         W          9.833            3.766    796.19 128250.55
         W          9.854            3.766    796.19 128250.55
         W          9.880            3.766    796.19 128250.55
         W          9.879            3.766    796.19 128250.55
         W          9.846            3.766    796.19 128250.55
         W          9.811            3.766    796.19 128250.55
         W          9.849            3.766    796.19 128250.55
         W          9.870            3.766    796.19 128250.55
         W          9.855            3.766    796.19 128250.55
         S          3.670            3.128    251.62  12327.25
         S          3.672            3.128    251.62  12327.25
         S          3.679            3.128    251.62  12327.25
         S          3.675            3.128    251.62  12327.25
         S          3.690            3.128    251.62  12327.25
         S          4.579            3.128    251.62  12327.25
         S          4.512            3.128    251.62  12327.25
         S          3.693            3.128    251.62  12327.25
         S          3.676            3.128    251.62  12327.25
         S          3.843            3.128    251.62  12327.25
         S          4.976            3.128    251.62  12327.25
         S          4.443            3.128    251.62  12327.25
         S          3.677            3.128    251.62  12327.25
         S          3.672            3.128    251.62  12327.25
         S          4.198            3.128    251.62  12327.25
         S          3.918            3.128    251.62  12327.25
         S          3.700            3.128    251.62  12327.25
         S          3.699            3.128    251.62  12327.25
         S          3.697            3.128    251.62  12327.25
         S          3.697            3.128    251.62  12327.25
         S          3.689            3.128    251.62  12327.25
         S          3.673            3.128    251.62  12327.25
         S          3.669            3.128    251.62  12327.25
         S          3.689            3.128    251.62  12327.25
         S          3.693            3.128    251.62  12327.25
         S          3.672            3.128    251.62  12327.25
         S          3.662            3.128    251.62  12327.25
         S          3.672            3.128    251.62  12327.25
         S          3.693            3.128    251.62  12327.25
         S          3.697            3.128    251.62  12327.25
         S          3.686            3.128    251.62  12327.25
         S          3.680            3.128    251.62  12327.25
         Ag         3.219            3.147    537.23  47741.54
         Ag         3.973            3.147    537.23  47741.54
         Ag         3.317            3.147    537.23  47741.54
         Ag         4.158            3.147    537.23  47741.54
         Ag         4.122            3.147    537.23  47741.54
         N          3.752            2.478     31.16    687.50
         O          2.005            2.345     20.82    420.07
         H          1.005            2.062      6.18     74.66
         H          1.033            2.062      6.15     74.39
         H          1.007            2.062      6.18     74.65

         Molecular C6 ( Ry / a.u.^6 ) =   1190030.07


   Crystallographic axes

     site n.     atom                  positions (cryst. coord.)
         1        W      tau(   1) = (  0.0777364  0.1611901  0.1550056  )
         2        W      tau(   2) = (  0.0776133  0.4116318  0.1549267  )
         3        W      tau(   3) = (  0.0768921  0.6613303  0.1548438  )
         4        W      tau(   4) = (  0.0770512  0.9108469  0.1547955  )
         5        W      tau(   5) = (  0.3274746  0.1611299  0.1547081  )
         6        W      tau(   6) = (  0.3286586  0.4123119  0.1542125  )
         7        W      tau(   7) = (  0.3271886  0.6613549  0.1540566  )
         8        W      tau(   8) = (  0.3272492  0.9112326  0.1546856  )
         9        W      tau(   9) = (  0.5775970  0.1613553  0.1540926  )
        10        W      tau(  10) = (  0.5772488  0.4101977  0.1525028  )
        11        W      tau(  11) = (  0.5759149  0.6613708  0.1523217  )
        12        W      tau(  12) = (  0.5775601  0.9110871  0.1544623  )
        13        W      tau(  13) = (  0.8272530  0.1610171  0.1547412  )
        14        W      tau(  14) = (  0.8268839  0.4115149  0.1544993  )
        15        W      tau(  15) = (  0.8281256  0.6619575  0.1535220  )
        16        W      tau(  16) = (  0.8275072  0.9106573  0.1539611  )
        17        S      tau(  17) = (  0.1607701  0.0776397  0.2336099  )
        18        S      tau(  18) = (  0.1619549  0.3287126  0.2334399  )
        19        S      tau(  19) = (  0.1610116  0.5783281  0.2334735  )
        20        S      tau(  20) = (  0.1606439  0.8279395  0.2336794  )
        21        S      tau(  21) = (  0.4113141  0.0781070  0.2333040  )
        22        S      tau(  22) = (  0.4130252  0.3290725  0.2330989  )
        23        S      tau(  23) = (  0.4115585  0.5793727  0.2321053  )
        24        S      tau(  24) = (  0.4107998  0.8276803  0.2332579  )
        25        S      tau(  25) = (  0.6604913  0.0778337  0.2332315  )
        26        S      tau(  26) = (  0.6601550  0.3283494  0.2324963  )
        27        S      tau(  27) = (  0.6601125  0.5781897  0.2306689  )
        28        S      tau(  28) = (  0.6611973  0.8259978  0.2326779  )
        29        S      tau(  29) = (  0.9103547  0.0771472  0.2332950  )
        30        S      tau(  30) = (  0.9104023  0.3280322  0.2333848  )
        31        S      tau(  31) = (  0.9084758  0.5778618  0.2337653  )
        32        S      tau(  32) = (  0.9089960  0.8267459  0.2334255  )
        33        S      tau(  33) = (  0.1606863  0.0776448  0.0763132  )
        34        S      tau(  34) = (  0.1607942  0.3279257  0.0762880  )
        35        S      tau(  35) = (  0.1599344  0.5779805  0.0760488  )
        36        S      tau(  36) = (  0.1605077  0.8277428  0.0762004  )
        37        S      tau(  37) = (  0.4103343  0.0776554  0.0759128  )
        38        S      tau(  38) = (  0.4094707  0.3269991  0.0751424  )
        39        S      tau(  39) = (  0.4087652  0.5773330  0.0743148  )
        40        S      tau(  40) = (  0.4107999  0.8284245  0.0758113  )
        41        S      tau(  41) = (  0.6608352  0.0775887  0.0758235  )
        42        S      tau(  42) = (  0.6615133  0.3272438  0.0746680  )
        43        S      tau(  43) = (  0.6612241  0.5782941  0.0741456  )
        44        S      tau(  44) = (  0.6611856  0.8290927  0.0748146  )
        45        S      tau(  45) = (  0.9114869  0.0785340  0.0760239  )
        46        S      tau(  46) = (  0.9109769  0.3280081  0.0762661  )
        47        S      tau(  47) = (  0.9111710  0.5777822  0.0755432  )
        48        S      tau(  48) = (  0.9115766  0.8286478  0.0751680  )
        49        Ag     tau(  49) = (  0.4521427  0.5947486  0.3647523  )
        50        Ag     tau(  50) = (  0.5145293  0.4151927  0.3464312  )
        51        Ag     tau(  51) = (  0.7763355  0.5477198  0.3560058  )
        52        Ag     tau(  52) = (  0.7049020  0.7298900  0.3443271  )
        53        Ag     tau(  53) = (  0.6288645  0.5719998  0.4491812  )
        54        N      tau(  54) = (  0.5280775  0.5367899  0.5499726  )
        55        O      tau(  55) = (  0.4081021  0.5207274  0.5389220  )
        56        H      tau(  56) = (  0.5672622  0.6044466  0.5851974  )
        57        H      tau(  57) = (  0.4081259  0.5345377  0.4910809  )
        58        H      tau(  58) = (  0.5125710  0.4577243  0.5726514  )

     number of k points=    13
                       cart. coord. in units 2pi/alat
        k(    1) = (   0.0000000   0.0000000   0.0000000), wk =   0.0400000
        k(    2) = (   0.0000000   0.2309401   0.0000000), wk =   0.0800000
        k(    3) = (   0.0000000   0.4618802   0.0000000), wk =   0.0800000
        k(    4) = (   0.2000000   0.3464102   0.0000000), wk =   0.0800000
        k(    5) = (   0.2000000   0.5773503   0.0000000), wk =   0.0800000
        k(    6) = (  -0.2000000   0.1154701   0.0000000), wk =   0.0800000
        k(    7) = (   0.2000000   0.1154701   0.0000000), wk =   0.0800000
        k(    8) = (  -0.4000000   0.2309401   0.0000000), wk =   0.0800000
        k(    9) = (   0.4000000   0.2309401   0.0000000), wk =   0.0800000
        k(   10) = (  -0.2000000   0.3464102   0.0000000), wk =   0.0800000
        k(   11) = (   0.4000000  -0.0000000   0.0000000), wk =   0.0800000
        k(   12) = (  -0.4000000   0.4618802   0.0000000), wk =   0.0800000
        k(   13) = (   0.6000000   0.1154701   0.0000000), wk =   0.0800000

                       cryst. coord.
        k(    1) = (   0.0000000   0.0000000   0.0000000), wk =   0.0400000
        k(    2) = (   0.0000000   0.2000000   0.0000000), wk =   0.0800000
        k(    3) = (   0.0000000   0.4000000   0.0000000), wk =   0.0800000
        k(    4) = (   0.2000000   0.2000000   0.0000000), wk =   0.0800000
        k(    5) = (   0.2000000   0.4000000   0.0000000), wk =   0.0800000
        k(    6) = (  -0.2000000   0.2000000   0.0000000), wk =   0.0800000
        k(    7) = (   0.2000000   0.0000000   0.0000000), wk =   0.0800000
        k(    8) = (  -0.4000000   0.4000000   0.0000000), wk =   0.0800000
        k(    9) = (   0.4000000   0.0000000   0.0000000), wk =   0.0800000
        k(   10) = (  -0.2000000   0.4000000   0.0000000), wk =   0.0800000
        k(   11) = (   0.4000000  -0.2000000   0.0000000), wk =   0.0800000
        k(   12) = (  -0.4000000   0.6000000   0.0000000), wk =   0.0800000
        k(   13) = (   0.6000000  -0.2000000   0.0000000), wk =   0.0800000

     Dense  grid:  2539249 G-vectors     FFT dimensions: ( 160, 160, 243)

     Smooth grid:   897387 G-vectors     FFT dimensions: ( 108, 108, 180)

     Dynamical RAM for                 wfc:       6.50 MB

     Dynamical RAM for     wfc (w. buffer):     175.50 MB

     Dynamical RAM for           str. fact:       3.63 MB

     Dynamical RAM for           local pot:       0.00 MB

     Dynamical RAM for          nlocal pot:      26.11 MB

     Dynamical RAM for                qrad:       9.63 MB

     Dynamical RAM for          rho,v,vnew:       8.32 MB

     Dynamical RAM for               rhoin:       2.77 MB

     Dynamical RAM for            rho*nmix:      19.38 MB

     Dynamical RAM for           G-vectors:       2.38 MB

     Dynamical RAM for          h,s,v(r/c):       2.70 MB

     Dynamical RAM for          <psi|beta>:       3.62 MB

     Dynamical RAM for                 psi:      13.00 MB

     Dynamical RAM for                hpsi:      13.00 MB

     Dynamical RAM for                spsi:      13.00 MB

     Dynamical RAM for      wfcinit/wfcrot:      14.35 MB

     Dynamical RAM for           addusdens:     132.60 MB

     Dynamical RAM for          addusforce:     170.39 MB

     Dynamical RAM for         addusstress:     122.61 MB

     Estimated static dynamical RAM per process >     237.27 MB

     Estimated max dynamical RAM per process >     427.03 MB

     Estimated total dynamical RAM >      26.69 GB
     Generating pointlists ...
     new r_m :   0.0782 (alat units)  1.8731 (a.u.) for type    1
     new r_m :   0.0782 (alat units)  1.8731 (a.u.) for type    2
     new r_m :   0.0751 (alat units)  1.7989 (a.u.) for type    3
     new r_m :   0.0334 (alat units)  0.7997 (a.u.) for type    4
     new r_m :   0.0316 (alat units)  0.7582 (a.u.) for type    5
     new r_m :   0.0316 (alat units)  0.7582 (a.u.) for type    6

     Initial potential from superposition of free atoms

     starting charge     484.9880, renormalised to     485.0000

     negative rho (up, down):  1.009E-03 1.009E-03
     Starting wfcs are  392 randomized atomic wfcs
     Checking if some PAW data can be deallocated... 
       PAW data deallocated on   32 nodes for type:  1
       PAW data deallocated on   42 nodes for type:  2
       PAW data deallocated on   59 nodes for type:  3
       PAW data deallocated on   63 nodes for type:  4
       PAW data deallocated on   63 nodes for type:  5
       PAW data deallocated on   61 nodes for type:  6

     total cpu time spent up to now is      166.0 secs

     per-process dynamical memory:   308.6 Mb

     Self-consistent Calculation

     iteration #  1     ecut=    50.00 Ry     beta= 0.40
     Davidson diagonalization with overlap

---- Real-time Memory Report at c_bands before calling an iterative solver
           367 MiB given to the printing process from OS
           301 MiB allocation reported by mallinfo(arena+hblkhd)
         23439 MiB available memory on the node where the printing process lives
------------------
     ethr =  1.00E-02,  avg # of iterations =  2.0

     Threshold (ethr) on eigenvalues was too large:
     Diagonalizing with lowered threshold

     Davidson diagonalization with overlap

---- Real-time Memory Report at c_bands before calling an iterative solver
           472 MiB given to the printing process from OS
           303 MiB allocation reported by mallinfo(arena+hblkhd)
         19914 MiB available memory on the node where the printing process lives
------------------
     ethr =  4.34E-04,  avg # of iterations =  4.8

     negative rho (up, down):  1.027E-02 6.717E-03

     total cpu time spent up to now is      825.6 secs

     total energy              =  -16138.22520349 Ry
     estimated scf accuracy    <       2.44525024 Ry

     total magnetization       =     1.00 Bohr mag/cell
     absolute magnetization    =     4.14 Bohr mag/cell

     iteration #  2     ecut=    50.00 Ry     beta= 0.40
     Davidson diagonalization with overlap

---- Real-time Memory Report at c_bands before calling an iterative solver
           480 MiB given to the printing process from OS
           311 MiB allocation reported by mallinfo(arena+hblkhd)
         21086 MiB available memory on the node where the printing process lives
------------------
     ethr =  5.04E-04,  avg # of iterations =  7.2

     negative rho (up, down):  3.225E-02 2.307E-02

     total cpu time spent up to now is     1173.7 secs

     total energy              =  -16138.44948164 Ry
     estimated scf accuracy    <       0.40820529 Ry

     total magnetization       =     1.00 Bohr mag/cell
     absolute magnetization    =     3.05 Bohr mag/cell

     iteration #  3     ecut=    50.00 Ry     beta= 0.40
     Davidson diagonalization with overlap

---- Real-time Memory Report at c_bands before calling an iterative solver
           482 MiB given to the printing process from OS
           313 MiB allocation reported by mallinfo(arena+hblkhd)
         21204 MiB available memory on the node where the printing process lives
------------------
     ethr =  8.42E-05,  avg # of iterations =  8.4

     negative rho (up, down):  3.671E-02 2.738E-02

     total cpu time spent up to now is     1536.8 secs

     total energy              =  -16138.51471969 Ry
     estimated scf accuracy    <       0.21358221 Ry

     total magnetization       =     1.00 Bohr mag/cell
     absolute magnetization    =     2.36 Bohr mag/cell

     iteration #  4     ecut=    50.00 Ry     beta= 0.40
     Davidson diagonalization with overlap

---- Real-time Memory Report at c_bands before calling an iterative solver
           483 MiB given to the printing process from OS
           314 MiB allocation reported by mallinfo(arena+hblkhd)
         18703 MiB available memory on the node where the printing process lives
------------------
     ethr =  4.40E-05,  avg # of iterations =  9.9

     negative rho (up, down):  3.097E-02 2.408E-02

     total cpu time spent up to now is     1872.1 secs

     total energy              =  -16138.54440867 Ry
     estimated scf accuracy    <       0.05284398 Ry

     total magnetization       =     1.00 Bohr mag/cell
     absolute magnetization    =     1.98 Bohr mag/cell

     iteration #  5     ecut=    50.00 Ry     beta= 0.40
     Davidson diagonalization with overlap

---- Real-time Memory Report at c_bands before calling an iterative solver
           511 MiB given to the printing process from OS
           346 MiB allocation reported by mallinfo(arena+hblkhd)
         18969 MiB available memory on the node where the printing process lives
------------------
     ethr =  1.09E-05,  avg # of iterations =  7.5

     negative rho (up, down):  2.100E-02 1.663E-02

     total cpu time spent up to now is     2214.6 secs

     total energy              =  -16138.54968045 Ry
     estimated scf accuracy    <       0.03100934 Ry

     total magnetization       =     1.00 Bohr mag/cell
     absolute magnetization    =     1.71 Bohr mag/cell

     iteration #  6     ecut=    50.00 Ry     beta= 0.40
     Davidson diagonalization with overlap

---- Real-time Memory Report at c_bands before calling an iterative solver
           517 MiB given to the printing process from OS
           348 MiB allocation reported by mallinfo(arena+hblkhd)
         18251 MiB available memory on the node where the printing process lives
------------------
     ethr =  6.39E-06,  avg # of iterations =  7.3

     negative rho (up, down):  1.386E-02 1.153E-02

     total cpu time spent up to now is     2530.0 secs

     total energy              =  -16138.55281230 Ry
     estimated scf accuracy    <       0.01609444 Ry

     total magnetization       =     1.00 Bohr mag/cell
     absolute magnetization    =     1.48 Bohr mag/cell

     iteration #  7     ecut=    50.00 Ry     beta= 0.40
     Davidson diagonalization with overlap

---- Real-time Memory Report at c_bands before calling an iterative solver
           517 MiB given to the printing process from OS
           350 MiB allocation reported by mallinfo(arena+hblkhd)
         18280 MiB available memory on the node where the printing process lives
------------------
     ethr =  3.32E-06,  avg # of iterations =  4.9

     negative rho (up, down):  1.989E-02 2.040E-02

     total cpu time spent up to now is     2825.6 secs

     total energy              =  -16138.55138556 Ry
     estimated scf accuracy    <       0.00804818 Ry

     total magnetization       =     1.00 Bohr mag/cell
     absolute magnetization    =     1.33 Bohr mag/cell

     iteration #  8     ecut=    50.00 Ry     beta= 0.40
     Davidson diagonalization with overlap

---- Real-time Memory Report at c_bands before calling an iterative solver
           518 MiB given to the printing process from OS
           350 MiB allocation reported by mallinfo(arena+hblkhd)
         15934 MiB available memory on the node where the printing process lives
------------------
     ethr =  1.66E-06,  avg # of iterations =  8.1

     negative rho (up, down):  2.120E-02 2.235E-02

     total cpu time spent up to now is     3127.7 secs

     total energy              =  -16138.55097540 Ry
     estimated scf accuracy    <       0.00185383 Ry

     total magnetization       =     1.00 Bohr mag/cell
     absolute magnetization    =     1.22 Bohr mag/cell

     iteration #  9     ecut=    50.00 Ry     beta= 0.40
     Davidson diagonalization with overlap

---- Real-time Memory Report at c_bands before calling an iterative solver
           519 MiB given to the printing process from OS
           351 MiB allocation reported by mallinfo(arena+hblkhd)
         15442 MiB available memory on the node where the printing process lives
------------------
     ethr =  3.82E-07,  avg # of iterations =  7.4

     negative rho (up, down):  1.513E-02 1.604E-02

     total cpu time spent up to now is     3482.0 secs

     total energy              =  -16138.55296047 Ry
     estimated scf accuracy    <       0.00048897 Ry

     total magnetization       =     1.00 Bohr mag/cell
     absolute magnetization    =     1.17 Bohr mag/cell

     iteration # 10     ecut=    50.00 Ry     beta= 0.40
     Davidson diagonalization with overlap

---- Real-time Memory Report at c_bands before calling an iterative solver
           520 MiB given to the printing process from OS
           352 MiB allocation reported by mallinfo(arena+hblkhd)
         18260 MiB available memory on the node where the printing process lives
------------------
     ethr =  1.01E-07,  avg # of iterations =  6.9

     negative rho (up, down):  1.095E-02 1.170E-02

     total cpu time spent up to now is     3834.8 secs

     total energy              =  -16138.55401032 Ry
     estimated scf accuracy    <       0.00012969 Ry

     total magnetization       =     1.00 Bohr mag/cell
     absolute magnetization    =     1.15 Bohr mag/cell

     iteration # 11     ecut=    50.00 Ry     beta= 0.40
     Davidson diagonalization with overlap

---- Real-time Memory Report at c_bands before calling an iterative solver
           522 MiB given to the printing process from OS
           354 MiB allocation reported by mallinfo(arena+hblkhd)
         20573 MiB available memory on the node where the printing process lives
------------------
     ethr =  2.67E-08,  avg # of iterations =  5.7

     negative rho (up, down):  7.781E-03 8.358E-03

     total cpu time spent up to now is     4234.6 secs

     total energy              =  -16138.55463135 Ry
     estimated scf accuracy    <       0.00006821 Ry

     total magnetization       =     1.00 Bohr mag/cell
     absolute magnetization    =     1.14 Bohr mag/cell

     iteration # 12     ecut=    50.00 Ry     beta= 0.40
     Davidson diagonalization with overlap

---- Real-time Memory Report at c_bands before calling an iterative solver
           524 MiB given to the printing process from OS
           355 MiB allocation reported by mallinfo(arena+hblkhd)
         17555 MiB available memory on the node where the printing process lives
------------------
     ethr =  1.41E-08,  avg # of iterations =  8.1

     negative rho (up, down):  5.984E-03 6.433E-03

     total cpu time spent up to now is     4587.7 secs

     total energy              =  -16138.55487909 Ry
     estimated scf accuracy    <       0.00002812 Ry

     total magnetization       =     1.00 Bohr mag/cell
     absolute magnetization    =     1.13 Bohr mag/cell

     iteration # 13     ecut=    50.00 Ry     beta= 0.40
     Davidson diagonalization with overlap

---- Real-time Memory Report at c_bands before calling an iterative solver
           524 MiB given to the printing process from OS
           355 MiB allocation reported by mallinfo(arena+hblkhd)
         17557 MiB available memory on the node where the printing process lives
------------------
     ethr =  5.80E-09,  avg # of iterations =  7.0

     negative rho (up, down):  5.199E-03 5.599E-03

     total cpu time spent up to now is     4945.5 secs

     total energy              =  -16138.55496842 Ry
     estimated scf accuracy    <       0.00001233 Ry

     total magnetization       =     1.00 Bohr mag/cell
     absolute magnetization    =     1.12 Bohr mag/cell

     iteration # 14     ecut=    50.00 Ry     beta= 0.40
     Davidson diagonalization with overlap

---- Real-time Memory Report at c_bands before calling an iterative solver
           524 MiB given to the printing process from OS
           355 MiB allocation reported by mallinfo(arena+hblkhd)
         17528 MiB available memory on the node where the printing process lives
------------------
     ethr =  2.54E-09,  avg # of iterations =  3.0

     negative rho (up, down):  4.873E-03 5.249E-03

     total cpu time spent up to now is     5242.1 secs

     total energy              =  -16138.55500517 Ry
     estimated scf accuracy    <       0.00000958 Ry

     total magnetization       =     1.00 Bohr mag/cell
     absolute magnetization    =     1.12 Bohr mag/cell

     iteration # 15     ecut=    50.00 Ry     beta= 0.40
     Davidson diagonalization with overlap

---- Real-time Memory Report at c_bands before calling an iterative solver
           524 MiB given to the printing process from OS
           355 MiB allocation reported by mallinfo(arena+hblkhd)
         17716 MiB available memory on the node where the printing process lives
------------------
     ethr =  1.98E-09,  avg # of iterations =  2.0

     negative rho (up, down):  4.820E-03 5.192E-03

     total cpu time spent up to now is     5504.7 secs

     total energy              =  -16138.55501210 Ry
     estimated scf accuracy    <       0.00000860 Ry

     total magnetization       =     1.00 Bohr mag/cell
     absolute magnetization    =     1.12 Bohr mag/cell

     iteration # 16     ecut=    50.00 Ry     beta= 0.40
     Davidson diagonalization with overlap

---- Real-time Memory Report at c_bands before calling an iterative solver
           524 MiB given to the printing process from OS
           355 MiB allocation reported by mallinfo(arena+hblkhd)
         17554 MiB available memory on the node where the printing process lives
------------------
     ethr =  1.77E-09,  avg # of iterations =  1.9

     negative rho (up, down):  5.759E-03 6.166E-03

     total cpu time spent up to now is     5764.0 secs

     total energy              =  -16138.55491582 Ry
     estimated scf accuracy    <       0.00000782 Ry

     total magnetization       =     1.00 Bohr mag/cell
     absolute magnetization    =     1.12 Bohr mag/cell

     iteration # 17     ecut=    50.00 Ry     beta= 0.40
     Davidson diagonalization with overlap

---- Real-time Memory Report at c_bands before calling an iterative solver
           524 MiB given to the printing process from OS
           355 MiB allocation reported by mallinfo(arena+hblkhd)
         16783 MiB available memory on the node where the printing process lives
------------------
     ethr =  1.61E-09,  avg # of iterations =  8.5

     negative rho (up, down):  5.309E-03 5.704E-03

     total cpu time spent up to now is     6164.0 secs

     total energy              =  -16138.55495929 Ry
     estimated scf accuracy    <       0.00002507 Ry

     total magnetization       =     1.00 Bohr mag/cell
     absolute magnetization    =     1.12 Bohr mag/cell

     iteration # 18     ecut=    50.00 Ry     beta= 0.40
     Davidson diagonalization with overlap

---- Real-time Memory Report at c_bands before calling an iterative solver
           524 MiB given to the printing process from OS
           355 MiB allocation reported by mallinfo(arena+hblkhd)
         16798 MiB available memory on the node where the printing process lives
------------------
     ethr =  1.61E-09,  avg # of iterations =  8.4

     negative rho (up, down):  4.881E-03 5.256E-03

     total cpu time spent up to now is     6547.4 secs

     total energy              =  -16138.55500349 Ry
     estimated scf accuracy    <       0.00000688 Ry

     total magnetization       =     1.00 Bohr mag/cell
     absolute magnetization    =     1.12 Bohr mag/cell

     iteration # 19     ecut=    50.00 Ry     beta= 0.40
     Davidson diagonalization with overlap

---- Real-time Memory Report at c_bands before calling an iterative solver
           524 MiB given to the printing process from OS
           355 MiB allocation reported by mallinfo(arena+hblkhd)
         18587 MiB available memory on the node where the printing process lives
------------------
     ethr =  1.42E-09,  avg # of iterations =  2.0

     negative rho (up, down):  4.820E-03 5.189E-03

     total cpu time spent up to now is     6840.2 secs

     total energy              =  -16138.55501062 Ry
     estimated scf accuracy    <       0.00000184 Ry

     total magnetization       =     1.00 Bohr mag/cell
     absolute magnetization    =     1.12 Bohr mag/cell

     iteration # 20     ecut=    50.00 Ry     beta= 0.40
     Davidson diagonalization with overlap

---- Real-time Memory Report at c_bands before calling an iterative solver
           524 MiB given to the printing process from OS
           355 MiB allocation reported by mallinfo(arena+hblkhd)
         20186 MiB available memory on the node where the printing process lives
------------------
     ethr =  3.79E-10,  avg # of iterations =  7.1

     negative rho (up, down):  4.802E-03 5.169E-03

     total cpu time spent up to now is     7242.9 secs

     total energy              =  -16138.55501331 Ry
     estimated scf accuracy    <       0.00000218 Ry

     total magnetization       =     1.00 Bohr mag/cell
     absolute magnetization    =     1.12 Bohr mag/cell

     iteration # 21     ecut=    50.00 Ry     beta= 0.40
     Davidson diagonalization with overlap

---- Real-time Memory Report at c_bands before calling an iterative solver
           524 MiB given to the printing process from OS
           355 MiB allocation reported by mallinfo(arena+hblkhd)
         16377 MiB available memory on the node where the printing process lives
------------------
     ethr =  3.79E-10,  avg # of iterations =  2.0

     negative rho (up, down):  4.802E-03 5.170E-03

     total cpu time spent up to now is     7511.8 secs

     total energy              =  -16138.55501309 Ry
     estimated scf accuracy    <       0.00000146 Ry

     total magnetization       =     1.00 Bohr mag/cell
     absolute magnetization    =     1.12 Bohr mag/cell

     iteration # 22     ecut=    50.00 Ry     beta= 0.40
     Davidson diagonalization with overlap

---- Real-time Memory Report at c_bands before calling an iterative solver
           524 MiB given to the printing process from OS
           355 MiB allocation reported by mallinfo(arena+hblkhd)
         20002 MiB available memory on the node where the printing process lives
------------------
     ethr =  3.02E-10,  avg # of iterations =  5.5

     negative rho (up, down):  4.798E-03 5.164E-03

     total cpu time spent up to now is     7796.3 secs

     total energy              =  -16138.55501363 Ry
     estimated scf accuracy    <       0.00000040 Ry

     total magnetization       =     1.00 Bohr mag/cell
     absolute magnetization    =     1.12 Bohr mag/cell

     iteration # 23     ecut=    50.00 Ry     beta= 0.40
     Davidson diagonalization with overlap

---- Real-time Memory Report at c_bands before calling an iterative solver
           524 MiB given to the printing process from OS
           355 MiB allocation reported by mallinfo(arena+hblkhd)
         18246 MiB available memory on the node where the printing process lives
------------------
     ethr =  8.22E-11,  avg # of iterations =  7.0

     negative rho (up, down):  4.797E-03 5.163E-03

     total cpu time spent up to now is     8202.3 secs

     total energy              =  -16138.55501376 Ry
     estimated scf accuracy    <       0.00000046 Ry

     total magnetization       =     1.00 Bohr mag/cell
     absolute magnetization    =     1.12 Bohr mag/cell

     iteration # 24     ecut=    50.00 Ry     beta= 0.40
     Davidson diagonalization with overlap

---- Real-time Memory Report at c_bands before calling an iterative solver
           524 MiB given to the printing process from OS
           355 MiB allocation reported by mallinfo(arena+hblkhd)
         19352 MiB available memory on the node where the printing process lives
------------------
     ethr =  8.22E-11,  avg # of iterations =  1.9

     negative rho (up, down):  4.796E-03 5.163E-03

     total cpu time spent up to now is     8468.8 secs

     total energy              =  -16138.55501369 Ry
     estimated scf accuracy    <       0.00000027 Ry

     total magnetization       =     1.00 Bohr mag/cell
     absolute magnetization    =     1.12 Bohr mag/cell

     iteration # 25     ecut=    50.00 Ry     beta= 0.40
     Davidson diagonalization with overlap

---- Real-time Memory Report at c_bands before calling an iterative solver
           524 MiB given to the printing process from OS
           355 MiB allocation reported by mallinfo(arena+hblkhd)
         20037 MiB available memory on the node where the printing process lives
------------------
     ethr =  5.58E-11,  avg # of iterations =  7.3

     negative rho (up, down):  4.796E-03 5.162E-03

     total cpu time spent up to now is     8785.2 secs

     total energy              =  -16138.55501375 Ry
     estimated scf accuracy    <       0.00000002 Ry

     total magnetization       =     1.00 Bohr mag/cell
     absolute magnetization    =     1.12 Bohr mag/cell

     iteration # 26     ecut=    50.00 Ry     beta= 0.40
     Davidson diagonalization with overlap

---- Real-time Memory Report at c_bands before calling an iterative solver
           524 MiB given to the printing process from OS
           355 MiB allocation reported by mallinfo(arena+hblkhd)
         19720 MiB available memory on the node where the printing process lives
------------------
     ethr =  4.13E-12,  avg # of iterations = 10.1

     negative rho (up, down):  4.795E-03 5.162E-03

     total cpu time spent up to now is     9210.0 secs

     total energy              =  -16138.55501376 Ry
     estimated scf accuracy    <       0.00000002 Ry

     total magnetization       =     1.00 Bohr mag/cell
     absolute magnetization    =     1.12 Bohr mag/cell

     iteration # 27     ecut=    50.00 Ry     beta= 0.40
     Davidson diagonalization with overlap

---- Real-time Memory Report at c_bands before calling an iterative solver
           524 MiB given to the printing process from OS
           355 MiB allocation reported by mallinfo(arena+hblkhd)
         17702 MiB available memory on the node where the printing process lives
------------------
     ethr =  4.13E-12,  avg # of iterations =  2.0

     negative rho (up, down):  4.795E-03 5.162E-03

     total cpu time spent up to now is     9474.1 secs

     total energy              =  -16138.55501374 Ry
     estimated scf accuracy    <       0.00000001 Ry

     total magnetization       =     1.00 Bohr mag/cell
     absolute magnetization    =     1.12 Bohr mag/cell

     iteration # 28     ecut=    50.00 Ry     beta= 0.40
     Davidson diagonalization with overlap

---- Real-time Memory Report at c_bands before calling an iterative solver
           524 MiB given to the printing process from OS
           355 MiB allocation reported by mallinfo(arena+hblkhd)
         17651 MiB available memory on the node where the printing process lives
------------------
     ethr =  2.33E-12,  avg # of iterations = 10.9

     negative rho (up, down):  4.795E-03 5.162E-03

     total cpu time spent up to now is     9908.7 secs

     total energy              =  -16138.55501375 Ry
     estimated scf accuracy    <       0.00000002 Ry

     total magnetization       =     1.00 Bohr mag/cell
     absolute magnetization    =     1.12 Bohr mag/cell

     iteration # 29     ecut=    50.00 Ry     beta= 0.40
     Davidson diagonalization with overlap

---- Real-time Memory Report at c_bands before calling an iterative solver
           524 MiB given to the printing process from OS
           355 MiB allocation reported by mallinfo(arena+hblkhd)
         19625 MiB available memory on the node where the printing process lives
------------------
     ethr =  2.33E-12,  avg # of iterations =  3.7

     negative rho (up, down):  4.795E-03 5.162E-03

     total cpu time spent up to now is    10182.0 secs

     total energy              =  -16138.55501376 Ry
     estimated scf accuracy    <          7.0E-09 Ry

     total magnetization       =     1.00 Bohr mag/cell
     absolute magnetization    =     1.12 Bohr mag/cell

     iteration # 30     ecut=    50.00 Ry     beta= 0.40
     Davidson diagonalization with overlap

---- Real-time Memory Report at c_bands before calling an iterative solver
           524 MiB given to the printing process from OS
           355 MiB allocation reported by mallinfo(arena+hblkhd)
         16037 MiB available memory on the node where the printing process lives
------------------
     ethr =  1.44E-12,  avg # of iterations =  7.9

     negative rho (up, down):  4.795E-03 5.162E-03

     total cpu time spent up to now is    10547.1 secs

     total energy              =  -16138.55501377 Ry
     estimated scf accuracy    <          4.8E-10 Ry

     total magnetization       =     1.00 Bohr mag/cell
     absolute magnetization    =     1.12 Bohr mag/cell

     iteration # 31     ecut=    50.00 Ry     beta= 0.40
     Davidson diagonalization with overlap

---- Real-time Memory Report at c_bands before calling an iterative solver
           524 MiB given to the printing process from OS
           355 MiB allocation reported by mallinfo(arena+hblkhd)
         16743 MiB available memory on the node where the printing process lives
------------------
     ethr =  1.00E-13,  avg # of iterations =  6.0

     negative rho (up, down):  4.795E-03 5.162E-03

     total cpu time spent up to now is    10967.6 secs

     total energy              =  -16138.55501377 Ry
     estimated scf accuracy    <          8.5E-10 Ry

     total magnetization       =     1.00 Bohr mag/cell
     absolute magnetization    =     1.12 Bohr mag/cell

     iteration # 32     ecut=    50.00 Ry     beta= 0.40
     Davidson diagonalization with overlap

---- Real-time Memory Report at c_bands before calling an iterative solver
           524 MiB given to the printing process from OS
           355 MiB allocation reported by mallinfo(arena+hblkhd)
         18464 MiB available memory on the node where the printing process lives
------------------
     ethr =  1.00E-13,  avg # of iterations =  7.8

     negative rho (up, down):  4.795E-03 5.162E-03

     Magnetic moment per site  (integrated on atomic sphere of radius R)
     atom   1 (R=0.078)  charge= 10.3731  magn=  0.0015
     atom   2 (R=0.078)  charge= 10.3731  magn=  0.0080
     atom   3 (R=0.078)  charge= 10.3740  magn= -0.0007
     atom   4 (R=0.078)  charge= 10.3743  magn=  0.0147
     atom   5 (R=0.078)  charge= 10.3763  magn=  0.0112
     atom   6 (R=0.078)  charge= 10.3757  magn=  0.0063
     atom   7 (R=0.078)  charge= 10.3783  magn=  0.0052
     atom   8 (R=0.078)  charge= 10.3749  magn=  0.0108
     atom   9 (R=0.078)  charge= 10.3753  magn=  0.0033
     atom  10 (R=0.078)  charge= 10.3820  magn=  0.0363
     atom  11 (R=0.078)  charge= 10.3836  magn=  0.0166
     atom  12 (R=0.078)  charge= 10.3743  magn=  0.0163
     atom  13 (R=0.078)  charge= 10.3732  magn=  0.0029
     atom  14 (R=0.078)  charge= 10.3740  magn= -0.0006
     atom  15 (R=0.078)  charge= 10.3816  magn=  0.0172
     atom  16 (R=0.078)  charge= 10.3760  magn=  0.0042
     atom  17 (R=0.078)  charge=  4.1591  magn=  0.0027
     atom  18 (R=0.078)  charge=  4.1558  magn=  0.0017
     atom  19 (R=0.078)  charge=  4.1586  magn= -0.0000
     atom  20 (R=0.078)  charge=  4.1590  magn=  0.0027
     atom  21 (R=0.078)  charge=  4.1594  magn=  0.0025
     atom  22 (R=0.078)  charge=  4.1750  magn=  0.0122
     atom  23 (R=0.078)  charge=  4.1787  magn=  0.0050
     atom  24 (R=0.078)  charge=  4.1586  magn=  0.0036
     atom  25 (R=0.078)  charge=  4.1591  magn=  0.0022
     atom  26 (R=0.078)  charge=  4.1626  magn=  0.0026
     atom  27 (R=0.078)  charge=  4.1805  magn=  0.0068
     atom  28 (R=0.078)  charge=  4.1668  magn=  0.0124
     atom  29 (R=0.078)  charge=  4.1578  magn=  0.0030
     atom  30 (R=0.078)  charge=  4.1574  magn=  0.0007
     atom  31 (R=0.078)  charge=  4.1566  magn=  0.0017
     atom  32 (R=0.078)  charge=  4.1575  magn=  0.0062
     atom  33 (R=0.078)  charge=  4.1610  magn=  0.0008
     atom  34 (R=0.078)  charge=  4.1592  magn=  0.0009
     atom  35 (R=0.078)  charge=  4.1606  magn= -0.0002
     atom  36 (R=0.078)  charge=  4.1610  magn=  0.0001
     atom  37 (R=0.078)  charge=  4.1601  magn=  0.0005
     atom  38 (R=0.078)  charge=  4.1589  magn=  0.0036
     atom  39 (R=0.078)  charge=  4.1568  magn=  0.0010
     atom  40 (R=0.078)  charge=  4.1596  magn= -0.0001
     atom  41 (R=0.078)  charge=  4.1602  magn=  0.0005
     atom  42 (R=0.078)  charge=  4.1579  magn=  0.0018
     atom  43 (R=0.078)  charge=  4.1527  magn=  0.0025
     atom  44 (R=0.078)  charge=  4.1584  magn=  0.0031
     atom  45 (R=0.078)  charge=  4.1595  magn=  0.0015
     atom  46 (R=0.078)  charge=  4.1597  magn=  0.0002
     atom  47 (R=0.078)  charge=  4.1603  magn=  0.0006
     atom  48 (R=0.078)  charge=  4.1598  magn=  0.0022
     atom  49 (R=0.075)  charge=  8.3765  magn=  0.0118
     atom  50 (R=0.075)  charge=  8.3724  magn=  0.0311
     atom  51 (R=0.075)  charge=  8.3760  magn=  0.0134
     atom  52 (R=0.075)  charge=  8.3726  magn=  0.0330
     atom  53 (R=0.075)  charge=  8.3618  magn=  0.0185
     atom  54 (R=0.033)  charge=  1.3260  magn= -0.0002
     atom  55 (R=0.032)  charge=  1.9437  magn=  0.0004
     atom  56 (R=0.032)  charge=  0.3995  magn=  0.0002
     atom  57 (R=0.032)  charge=  0.4015  magn=  0.0000
     atom  58 (R=0.032)  charge=  0.3994  magn=  0.0001

     total cpu time spent up to now is    11345.3 secs

     End of self-consistent calculation

 ------ SPIN UP ------------


          k = 0.0000 0.0000 0.0000 (112117 PWs)   bands (ev):

   -73.8130 -73.8095 -73.8066 -73.8041 -73.8022 -73.8013 -73.7986 -73.7967
   -73.7918 -73.7900 -73.7872 -73.7850 -73.7832 -73.7505 -73.7456 -73.7360
   -38.2210 -38.2161 -38.2148 -38.1600 -38.1591 -38.1544 -38.1538 -38.1475
   -38.1396 -38.0559 -38.0530 -38.0504 -38.0498 -38.0446 -38.0427 -38.0407
   -38.0273 -38.0256 -38.0230 -38.0224 -38.0185 -38.0179 -38.0156 -38.0135
   -38.0130 -38.0100 -38.0084 -38.0006 -37.9918 -37.9887 -37.9874 -37.9845
   -37.9828 -37.9786 -37.9649 -37.9547 -37.9533 -37.9505 -37.9478 -37.9423
   -37.9214 -37.9145 -37.9099 -37.9093 -37.9056 -37.9006 -37.8664 -37.8630
   -21.6060 -15.5081 -14.5951 -13.7083 -13.6951 -13.6711 -13.6407 -13.6276
   -13.6174 -12.9797 -12.7100 -12.6742 -12.6520 -12.6362 -12.5999 -12.5781
   -12.5365 -12.5037 -12.4699 -12.4536 -12.4424 -12.4403 -12.4190 -12.4177
   -12.4128 -12.2202 -12.1983 -12.1871 -12.1714 -12.1544 -12.1505 -12.1468
   -12.1437 -12.1411  -7.9439  -7.6627  -6.3400  -6.3244  -6.3062  -6.2822
    -6.1895  -5.6122  -5.5708  -5.5489  -5.5305  -5.5254  -5.4916  -5.4430
    -5.4123  -5.3895  -5.3118  -5.2818  -5.2597  -5.1038  -5.0916  -5.0625
    -5.0575  -5.0530  -5.0519  -4.9974  -4.9960  -4.9870  -4.5224  -4.4394
    -4.3999  -4.3453  -4.2923  -4.2824  -4.2664  -4.2454  -4.2311  -4.1811
    -4.0789  -4.0090  -3.9770  -3.9609  -3.9348  -3.7942  -3.7588  -3.7570
    -3.7025  -3.6765  -3.6730  -3.6190  -3.5143  -3.4729  -3.4060  -3.4016
    -3.3724  -3.3645  -3.3006  -3.2243  -3.1956  -3.1816  -3.1628  -3.1415
    -3.1323  -3.1242  -3.1100  -3.1066  -3.0626  -2.9606  -2.8213  -2.7717
    -2.7219  -2.6785  -2.6471  -2.5902  -2.5821  -2.5254  -2.5139  -2.4643
    -2.4596  -2.4332  -2.4313  -2.4259  -2.4001  -2.3424  -2.2935  -2.2097
    -2.1323  -2.0850  -1.9799  -1.9763  -1.9535  -1.9315  -1.8683  -1.8409
    -1.8152  -1.7838  -1.7806  -1.7672  -1.7597  -1.7504  -1.7470  -1.7418
    -1.7363  -1.7090  -1.7063  -1.6660  -1.6585  -1.6443  -1.6349  -1.6086
    -1.5815  -1.5306  -1.5222  -1.5051  -1.4519  -1.4167  -1.3721  -1.3554
    -1.3100  -1.2768  -1.2054  -1.0972  -1.0642  -1.0282  -1.0128  -0.9946
    -0.7282  -0.6919  -0.6876  -0.6852  -0.6761  -0.6721  -0.6470  -0.6439
    -0.6277  -0.3947  -0.3862  -0.3748  -0.3596  -0.3472  -0.3390  -0.3211
     0.1998   1.2595   1.5373

     occupation numbers 
     1.0000   1.0000   1.0000   1.0000   1.0000   1.0000   1.0000   1.0000
     1.0000   1.0000   1.0000   1.0000   1.0000   1.0000   1.0000   1.0000
     1.0000   1.0000   1.0000   1.0000   1.0000   1.0000   1.0000   1.0000
     1.0000   1.0000   1.0000   1.0000   1.0000   1.0000   1.0000   1.0000
     1.0000   1.0000   1.0000   1.0000   1.0000   1.0000   1.0000   1.0000
     1.0000   1.0000   1.0000   1.0000   1.0000   1.0000   1.0000   1.0000
     1.0000   1.0000   1.0000   1.0000   1.0000   1.0000   1.0000   1.0000
     1.0000   1.0000   1.0000   1.0000   1.0000   1.0000   1.0000   1.0000
     1.0000   1.0000   1.0000   1.0000   1.0000   1.0000   1.0000   1.0000
     1.0000   1.0000   1.0000   1.0000   1.0000   1.0000   1.0000   1.0000
     1.0000   1.0000   1.0000   1.0000   1.0000   1.0000   1.0000   1.0000
     1.0000   1.0000   1.0000   1.0000   1.0000   1.0000   1.0000   1.0000
     1.0000   1.0000   1.0000   1.0000   1.0000   1.0000   1.0000   1.0000
     1.0000   1.0000   1.0000   1.0000   1.0000   1.0000   1.0000   1.0000
     1.0000   1.0000   1.0000   1.0000   1.0000   1.0000   1.0000   1.0000
     1.0000   1.0000   1.0000   1.0000   1.0000   1.0000   1.0000   1.0000
     1.0000   1.0000   1.0000   1.0000   1.0000   1.0000   1.0000   1.0000
     1.0000   1.0000   1.0000   1.0000   1.0000   1.0000   1.0000   1.0000
     1.0000   1.0000   1.0000   1.0000   1.0000   1.0000   1.0000   1.0000
     1.0000   1.0000   1.0000   1.0000   1.0000   1.0000   1.0000   1.0000
     1.0000   1.0000   1.0000   1.0000   1.0000   1.0000   1.0000   1.0000
     1.0000   1.0000   1.0000   1.0000   1.0000   1.0000   1.0000   1.0000
     1.0000   1.0000   1.0000   1.0000   1.0000   1.0000   1.0000   1.0000
     1.0000   1.0000   1.0000   1.0000   1.0000   1.0000   1.0000   1.0000
     1.0000   1.0000   1.0000   1.0000   1.0000   1.0000   1.0000   1.0000
     1.0000   1.0000   1.0000   1.0000   1.0000   1.0000   1.0000   1.0000
     1.0000   1.0000   1.0000   1.0000   1.0000   1.0000   1.0000   1.0000
     1.0000   1.0000   1.0000   1.0000   1.0000   1.0000   1.0000   1.0000
     1.0000   1.0000   1.0000   1.0000   1.0000   1.0000   1.0000   1.0000
     1.0000   1.0000   1.0000   1.0000   1.0000   1.0000   1.0000   1.0000
     1.0000   1.0000   1.0000

          k = 0.0000 0.2309 0.0000 (112171 PWs)   bands (ev):

   -73.8129 -73.8098 -73.8066 -73.8043 -73.8019 -73.8012 -73.7986 -73.7967
   -73.7920 -73.7900 -73.7871 -73.7851 -73.7831 -73.7505 -73.7456 -73.7360
   -38.2158 -38.2108 -38.2086 -38.1665 -38.1618 -38.1584 -38.1515 -38.1440
   -38.1370 -38.0997 -38.0750 -38.0728 -38.0489 -38.0452 -38.0417 -38.0288
   -38.0254 -38.0226 -38.0203 -38.0176 -38.0145 -38.0123 -38.0095 -38.0077
   -38.0006 -37.9952 -37.9934 -37.9920 -37.9902 -37.9882 -37.9847 -37.9833
   -37.9819 -37.9785 -37.9651 -37.9580 -37.9558 -37.9509 -37.9478 -37.9425
   -37.9286 -37.9190 -37.9180 -37.9075 -37.9044 -37.8971 -37.8738 -37.8646
   -21.6060 -15.5081 -14.5535 -13.9738 -13.7990 -13.7820 -13.4909 -13.4580
   -13.3213 -12.9637 -12.8035 -12.7318 -12.6941 -12.6842 -12.6517 -12.5842
   -12.5516 -12.5397 -12.4910 -12.4734 -12.4537 -12.4339 -12.4201 -12.3135
   -12.2817 -12.2599 -12.2407 -12.2108 -12.1820 -12.1711 -12.1647 -12.1493
   -12.0919 -12.0767  -7.9439  -7.6627  -6.2785  -6.2672  -6.2373  -6.2334
    -6.1860  -5.6675  -5.6444  -5.6271  -5.5566  -5.5155  -5.4862  -5.4682
    -5.4272  -5.4150  -5.3929  -5.3181  -5.3138  -5.2845  -5.2674  -5.0704
    -5.0632  -5.0151  -4.9991  -4.9532  -4.7365  -4.7312  -4.5887  -4.4823
    -4.4506  -4.3832  -4.3200  -4.2859  -4.2073  -4.1583  -4.1439  -4.1176
    -4.0969  -4.0600  -4.0407  -3.9985  -3.9822  -3.9099  -3.9068  -3.8982
    -3.6776  -3.5741  -3.5406  -3.5071  -3.4665  -3.4422  -3.4358  -3.3815
    -3.3614  -3.3139  -3.2954  -3.2790  -3.2735  -3.2068  -3.1923  -3.1465
    -3.1028  -2.9948  -2.9631  -2.9323  -2.8576  -2.7941  -2.7741  -2.7462
    -2.7223  -2.7154  -2.6967  -2.6842  -2.6565  -2.6357  -2.6077  -2.5423
    -2.5229  -2.5040  -2.4754  -2.4428  -2.3622  -2.3141  -2.2039  -2.1622
    -2.1229  -2.0862  -2.0163  -2.0022  -1.9828  -1.9661  -1.9349  -1.9087
    -1.8891  -1.8623  -1.8507  -1.8208  -1.7964  -1.7664  -1.7592  -1.7424
    -1.7256  -1.7028  -1.6887  -1.6648  -1.6484  -1.6074  -1.5833  -1.5507
    -1.5339  -1.4928  -1.4822  -1.4596  -1.4311  -1.3705  -1.3349  -1.3249
    -1.2946  -1.2789  -1.2448  -1.2251  -1.1680  -1.0698  -1.0498  -1.0283
    -0.8948  -0.7778  -0.7598  -0.7473  -0.5703  -0.5620  -0.5503  -0.5318
    -0.5189  -0.5089  -0.4106  -0.3746  -0.3631  -0.2642  -0.1678  -0.1428
     0.1807   1.2660   1.5686

     occupation numbers 
     1.0000   1.0000   1.0000   1.0000   1.0000   1.0000   1.0000   1.0000
     1.0000   1.0000   1.0000   1.0000   1.0000   1.0000   1.0000   1.0000
     1.0000   1.0000   1.0000   1.0000   1.0000   1.0000   1.0000   1.0000
     1.0000   1.0000   1.0000   1.0000   1.0000   1.0000   1.0000   1.0000
     1.0000   1.0000   1.0000   1.0000   1.0000   1.0000   1.0000   1.0000
     1.0000   1.0000   1.0000   1.0000   1.0000   1.0000   1.0000   1.0000
     1.0000   1.0000   1.0000   1.0000   1.0000   1.0000   1.0000   1.0000
     1.0000   1.0000   1.0000   1.0000   1.0000   1.0000   1.0000   1.0000
     1.0000   1.0000   1.0000   1.0000   1.0000   1.0000   1.0000   1.0000
     1.0000   1.0000   1.0000   1.0000   1.0000   1.0000   1.0000   1.0000
     1.0000   1.0000   1.0000   1.0000   1.0000   1.0000   1.0000   1.0000
     1.0000   1.0000   1.0000   1.0000   1.0000   1.0000   1.0000   1.0000
     1.0000   1.0000   1.0000   1.0000   1.0000   1.0000   1.0000   1.0000
     1.0000   1.0000   1.0000   1.0000   1.0000   1.0000   1.0000   1.0000
     1.0000   1.0000   1.0000   1.0000   1.0000   1.0000   1.0000   1.0000
     1.0000   1.0000   1.0000   1.0000   1.0000   1.0000   1.0000   1.0000
     1.0000   1.0000   1.0000   1.0000   1.0000   1.0000   1.0000   1.0000
     1.0000   1.0000   1.0000   1.0000   1.0000   1.0000   1.0000   1.0000
     1.0000   1.0000   1.0000   1.0000   1.0000   1.0000   1.0000   1.0000
     1.0000   1.0000   1.0000   1.0000   1.0000   1.0000   1.0000   1.0000
     1.0000   1.0000   1.0000   1.0000   1.0000   1.0000   1.0000   1.0000
     1.0000   1.0000   1.0000   1.0000   1.0000   1.0000   1.0000   1.0000
     1.0000   1.0000   1.0000   1.0000   1.0000   1.0000   1.0000   1.0000
     1.0000   1.0000   1.0000   1.0000   1.0000   1.0000   1.0000   1.0000
     1.0000   1.0000   1.0000   1.0000   1.0000   1.0000   1.0000   1.0000
     1.0000   1.0000   1.0000   1.0000   1.0000   1.0000   1.0000   1.0000
     1.0000   1.0000   1.0000   1.0000   1.0000   1.0000   1.0000   1.0000
     1.0000   1.0000   1.0000   1.0000   1.0000   1.0000   1.0000   1.0000
     1.0000   1.0000   1.0000   1.0000   1.0000   1.0000   1.0000   1.0000
     1.0000   1.0000   1.0000   1.0000   1.0000   1.0000   1.0000   1.0000
     1.0000   1.0000   1.0000

          k = 0.0000 0.4619 0.0000 (112236 PWs)   bands (ev):

   -73.8126 -73.8102 -73.8067 -73.8044 -73.8017 -73.8011 -73.7986 -73.7966
   -73.7922 -73.7899 -73.7869 -73.7853 -73.7831 -73.7505 -73.7456 -73.7360
   -38.2026 -38.2000 -38.1866 -38.1840 -38.1719 -38.1623 -38.1560 -38.1431
   -38.1271 -38.1223 -38.1016 -38.0972 -38.0599 -38.0546 -38.0434 -38.0345
   -38.0275 -38.0166 -38.0130 -38.0087 -38.0054 -38.0028 -37.9991 -37.9968
   -37.9947 -37.9934 -37.9929 -37.9872 -37.9846 -37.9817 -37.9784 -37.9748
   -37.9697 -37.9662 -37.9629 -37.9615 -37.9492 -37.9475 -37.9455 -37.9438
   -37.9390 -37.9323 -37.9277 -37.9120 -37.9072 -37.8913 -37.8896 -37.8674
   -21.6060 -15.5081 -14.4318 -14.2304 -13.8688 -13.8500 -13.2619 -13.2267
   -13.0170 -12.9960 -12.9668 -12.9140 -12.8296 -12.7276 -12.7012 -12.6855
   -12.5182 -12.5110 -12.4595 -12.4464 -12.4334 -12.4212 -12.3789 -12.3656
   -12.3471 -12.2807 -12.2130 -12.1982 -12.1738 -12.1555 -12.1536 -12.1492
   -12.0527 -12.0359  -7.9439  -7.6627  -6.1988  -6.1254  -6.1109  -6.0889
    -6.0239  -5.8699  -5.8577  -5.8353  -5.7113  -5.5315  -5.4968  -5.4853
    -5.4572  -5.4427  -5.4344  -5.3906  -5.3709  -5.3231  -5.2986  -5.0636
    -5.0603  -5.0276  -5.0061  -4.8078  -4.6293  -4.5264  -4.4834  -4.4374
    -4.3914  -4.3725  -4.3464  -4.3107  -4.2423  -4.2292  -4.1887  -4.1577
    -4.1267  -4.1160  -4.1001  -4.0740  -4.0625  -4.0490  -4.0395  -3.7007
    -3.5742  -3.5093  -3.4796  -3.4412  -3.4190  -3.3897  -3.3689  -3.3083
    -3.2954  -3.2794  -3.2605  -3.2377  -3.2186  -3.1869  -3.1615  -3.1049
    -3.0652  -3.0585  -3.0076  -2.9698  -2.9514  -2.9132  -2.8620  -2.7776
    -2.7504  -2.7061  -2.6668  -2.6372  -2.6089  -2.5716  -2.5422  -2.4965
    -2.4495  -2.4301  -2.3959  -2.3167  -2.2777  -2.2529  -2.2395  -2.1853
    -2.1256  -2.0977  -2.0445  -2.0176  -2.0081  -1.9978  -1.9810  -1.9522
    -1.9305  -1.9063  -1.8778  -1.8713  -1.8537  -1.8419  -1.8374  -1.8250
    -1.7954  -1.7700  -1.7354  -1.7179  -1.6990  -1.6687  -1.6316  -1.6184
    -1.5916  -1.5521  -1.5314  -1.5024  -1.4331  -1.3882  -1.2997  -1.2876
    -1.2359  -1.2010  -1.1890  -1.1492  -1.1190  -1.0961  -1.0468  -1.0139
    -0.9755  -0.8926  -0.7311  -0.7199  -0.6384  -0.6222  -0.4930  -0.4546
    -0.4411  -0.4308  -0.3953  -0.3778  -0.3114  -0.0917   0.0047   0.0278
     0.1312   1.2757   1.6211

     occupation numbers 
     1.0000   1.0000   1.0000   1.0000   1.0000   1.0000   1.0000   1.0000
     1.0000   1.0000   1.0000   1.0000   1.0000   1.0000   1.0000   1.0000
     1.0000   1.0000   1.0000   1.0000   1.0000   1.0000   1.0000   1.0000
     1.0000   1.0000   1.0000   1.0000   1.0000   1.0000   1.0000   1.0000
     1.0000   1.0000   1.0000   1.0000   1.0000   1.0000   1.0000   1.0000
     1.0000   1.0000   1.0000   1.0000   1.0000   1.0000   1.0000   1.0000
     1.0000   1.0000   1.0000   1.0000   1.0000   1.0000   1.0000   1.0000
     1.0000   1.0000   1.0000   1.0000   1.0000   1.0000   1.0000   1.0000
     1.0000   1.0000   1.0000   1.0000   1.0000   1.0000   1.0000   1.0000
     1.0000   1.0000   1.0000   1.0000   1.0000   1.0000   1.0000   1.0000
     1.0000   1.0000   1.0000   1.0000   1.0000   1.0000   1.0000   1.0000
     1.0000   1.0000   1.0000   1.0000   1.0000   1.0000   1.0000   1.0000
     1.0000   1.0000   1.0000   1.0000   1.0000   1.0000   1.0000   1.0000
     1.0000   1.0000   1.0000   1.0000   1.0000   1.0000   1.0000   1.0000
     1.0000   1.0000   1.0000   1.0000   1.0000   1.0000   1.0000   1.0000
     1.0000   1.0000   1.0000   1.0000   1.0000   1.0000   1.0000   1.0000
     1.0000   1.0000   1.0000   1.0000   1.0000   1.0000   1.0000   1.0000
     1.0000   1.0000   1.0000   1.0000   1.0000   1.0000   1.0000   1.0000
     1.0000   1.0000   1.0000   1.0000   1.0000   1.0000   1.0000   1.0000
     1.0000   1.0000   1.0000   1.0000   1.0000   1.0000   1.0000   1.0000
     1.0000   1.0000   1.0000   1.0000   1.0000   1.0000   1.0000   1.0000
     1.0000   1.0000   1.0000   1.0000   1.0000   1.0000   1.0000   1.0000
     1.0000   1.0000   1.0000   1.0000   1.0000   1.0000   1.0000   1.0000
     1.0000   1.0000   1.0000   1.0000   1.0000   1.0000   1.0000   1.0000
     1.0000   1.0000   1.0000   1.0000   1.0000   1.0000   1.0000   1.0000
     1.0000   1.0000   1.0000   1.0000   1.0000   1.0000   1.0000   1.0000
     1.0000   1.0000   1.0000   1.0000   1.0000   1.0000   1.0000   1.0000
     1.0000   1.0000   1.0000   1.0000   1.0000   1.0000   1.0000   1.0000
     1.0000   1.0000   1.0000   1.0000   1.0000   1.0000   1.0000   1.0000
     1.0000   1.0000   1.0000   1.0000   1.0000   1.0000   1.0000   1.0000
     1.0000   1.0000   1.0000

          k = 0.2000 0.3464 0.0000 (112231 PWs)   bands (ev):

   -73.8126 -73.8103 -73.8066 -73.8043 -73.8019 -73.8010 -73.7988 -73.7967
   -73.7919 -73.7901 -73.7869 -73.7853 -73.7831 -73.7505 -73.7456 -73.7360
   -38.2080 -38.1993 -38.1960 -38.1752 -38.1722 -38.1604 -38.1517 -38.1442
   -38.1283 -38.1197 -38.1125 -38.0736 -38.0557 -38.0520 -38.0436 -38.0333
   -38.0282 -38.0251 -38.0213 -38.0157 -38.0120 -38.0055 -37.9991 -37.9962
   -37.9915 -37.9887 -37.9870 -37.9853 -37.9829 -37.9802 -37.9787 -37.9774
   -37.9723 -37.9687 -37.9652 -37.9619 -37.9551 -37.9511 -37.9479 -37.9432
   -37.9371 -37.9280 -37.9222 -37.9171 -37.9011 -37.8960 -37.8826 -37.8681
   -21.6060 -15.5081 -14.4717 -14.1000 -14.0554 -13.5636 -13.5607 -13.1713
   -13.1150 -13.0060 -12.9319 -12.8066 -12.7861 -12.7070 -12.6680 -12.6020
   -12.5915 -12.5730 -12.5681 -12.4541 -12.4212 -12.3877 -12.3733 -12.3098
   -12.2866 -12.2695 -12.2485 -12.2289 -12.2170 -12.1513 -12.1468 -12.1043
   -12.0916 -12.0321  -7.9439  -7.6627  -6.2020  -6.1739  -6.1495  -6.1252
    -6.1018  -5.7629  -5.7340  -5.7176  -5.6780  -5.6407  -5.5985  -5.5631
    -5.5019  -5.4703  -5.3522  -5.3311  -5.2809  -5.2726  -5.2399  -5.2254
    -5.0920  -4.9020  -4.8866  -4.8125  -4.7477  -4.6032  -4.4878  -4.4672
    -4.3948  -4.3638  -4.3345  -4.3012  -4.2727  -4.2598  -4.2316  -4.2235
    -4.1698  -4.1194  -4.1042  -4.0888  -4.0522  -3.7647  -3.7335  -3.7233
    -3.7154  -3.6908  -3.6168  -3.4949  -3.4287  -3.3986  -3.3496  -3.3199
    -3.2979  -3.2432  -3.2235  -3.2038  -3.1663  -3.1477  -3.1056  -3.0883
    -3.0388  -3.0129  -2.9877  -2.9487  -2.9409  -2.9231  -2.9131  -2.8974
    -2.8172  -2.7429  -2.7198  -2.6523  -2.6336  -2.5627  -2.5216  -2.4777
    -2.4641  -2.4365  -2.3842  -2.3603  -2.3127  -2.2186  -2.1825  -2.1622
    -2.1287  -2.1219  -2.0945  -2.0860  -2.0162  -1.9963  -1.9784  -1.9488
    -1.9257  -1.9037  -1.8804  -1.8557  -1.8352  -1.8280  -1.8030  -1.7734
    -1.7381  -1.7205  -1.7159  -1.6772  -1.6690  -1.6203  -1.5931  -1.5721
    -1.5635  -1.5388  -1.5350  -1.5055  -1.4258  -1.3907  -1.3778  -1.3627
    -1.2893  -1.2232  -1.2060  -1.1833  -1.1546  -1.1169  -1.0359  -1.0179
    -0.8718  -0.8450  -0.6786  -0.6689  -0.6355  -0.6281  -0.6125  -0.5384
    -0.5295  -0.4363  -0.3728  -0.2523  -0.2079  -0.1966  -0.1560   0.0749
     0.1439   1.2886   1.5934

     occupation numbers 
     1.0000   1.0000   1.0000   1.0000   1.0000   1.0000   1.0000   1.0000
     1.0000   1.0000   1.0000   1.0000   1.0000   1.0000   1.0000   1.0000
     1.0000   1.0000   1.0000   1.0000   1.0000   1.0000   1.0000   1.0000
     1.0000   1.0000   1.0000   1.0000   1.0000   1.0000   1.0000   1.0000
     1.0000   1.0000   1.0000   1.0000   1.0000   1.0000   1.0000   1.0000
     1.0000   1.0000   1.0000   1.0000   1.0000   1.0000   1.0000   1.0000
     1.0000   1.0000   1.0000   1.0000   1.0000   1.0000   1.0000   1.0000
     1.0000   1.0000   1.0000   1.0000   1.0000   1.0000   1.0000   1.0000
     1.0000   1.0000   1.0000   1.0000   1.0000   1.0000   1.0000   1.0000
     1.0000   1.0000   1.0000   1.0000   1.0000   1.0000   1.0000   1.0000
     1.0000   1.0000   1.0000   1.0000   1.0000   1.0000   1.0000   1.0000
     1.0000   1.0000   1.0000   1.0000   1.0000   1.0000   1.0000   1.0000
     1.0000   1.0000   1.0000   1.0000   1.0000   1.0000   1.0000   1.0000
     1.0000   1.0000   1.0000   1.0000   1.0000   1.0000   1.0000   1.0000
     1.0000   1.0000   1.0000   1.0000   1.0000   1.0000   1.0000   1.0000
     1.0000   1.0000   1.0000   1.0000   1.0000   1.0000   1.0000   1.0000
     1.0000   1.0000   1.0000   1.0000   1.0000   1.0000   1.0000   1.0000
     1.0000   1.0000   1.0000   1.0000   1.0000   1.0000   1.0000   1.0000
     1.0000   1.0000   1.0000   1.0000   1.0000   1.0000   1.0000   1.0000
     1.0000   1.0000   1.0000   1.0000   1.0000   1.0000   1.0000   1.0000
     1.0000   1.0000   1.0000   1.0000   1.0000   1.0000   1.0000   1.0000
     1.0000   1.0000   1.0000   1.0000   1.0000   1.0000   1.0000   1.0000
     1.0000   1.0000   1.0000   1.0000   1.0000   1.0000   1.0000   1.0000
     1.0000   1.0000   1.0000   1.0000   1.0000   1.0000   1.0000   1.0000
     1.0000   1.0000   1.0000   1.0000   1.0000   1.0000   1.0000   1.0000
     1.0000   1.0000   1.0000   1.0000   1.0000   1.0000   1.0000   1.0000
     1.0000   1.0000   1.0000   1.0000   1.0000   1.0000   1.0000   1.0000
     1.0000   1.0000   1.0000   1.0000   1.0000   1.0000   1.0000   1.0000
     1.0000   1.0000   1.0000   1.0000   1.0000   1.0000   1.0000   1.0000
     1.0000   1.0000   1.0000   1.0000   1.0000   1.0000   1.0000   1.0000
     1.0000   1.0000   1.0000

          k = 0.2000 0.5774 0.0000 (112237 PWs)   bands (ev):

   -73.8125 -73.8103 -73.8067 -73.8045 -73.8017 -73.8009 -73.7988 -73.7966
   -73.7921 -73.7900 -73.7869 -73.7853 -73.7831 -73.7505 -73.7456 -73.7360
   -38.1969 -38.1930 -38.1828 -38.1795 -38.1727 -38.1671 -38.1614 -38.1466
   -38.1433 -38.1288 -38.0888 -38.0872 -38.0831 -38.0470 -38.0415 -38.0360
   -38.0299 -38.0266 -38.0136 -38.0132 -38.0035 -38.0010 -37.9988 -37.9970
   -37.9960 -37.9932 -37.9882 -37.9845 -37.9818 -37.9782 -37.9711 -37.9667
   -37.9653 -37.9627 -37.9578 -37.9551 -37.9524 -37.9490 -37.9464 -37.9420
   -37.9385 -37.9338 -37.9278 -37.9251 -37.9136 -37.8935 -37.8845 -37.8711
   -21.6060 -15.5081 -14.3326 -14.2893 -14.1110 -13.5919 -13.2982 -13.2899
   -12.9506 -12.9449 -12.8849 -12.8498 -12.8382 -12.7985 -12.7892 -12.6546
   -12.6273 -12.5995 -12.4886 -12.4806 -12.3803 -12.3687 -12.3551 -12.3198
   -12.3060 -12.2933 -12.2551 -12.2297 -12.2286 -12.1269 -12.1169 -12.1146
   -12.0750 -12.0126  -7.9439  -7.6627  -6.1967  -6.0555  -6.0059  -5.9827
    -5.9178  -5.8926  -5.8724  -5.8464  -5.8058  -5.7399  -5.6835  -5.6206
    -5.6095  -5.5373  -5.3601  -5.2631  -5.2515  -5.2159  -5.2007  -5.1674
    -5.1514  -4.8527  -4.8285  -4.7500  -4.6305  -4.5751  -4.5445  -4.5178
    -4.4711  -4.4148  -4.3954  -4.3158  -4.3085  -4.2357  -4.2292  -4.2093
    -4.1855  -4.1617  -4.1188  -4.0918  -3.9501  -3.9465  -3.7903  -3.6613
    -3.6524  -3.5660  -3.4390  -3.3901  -3.3590  -3.3263  -3.3077  -3.2826
    -3.2693  -3.2586  -3.2413  -3.2311  -3.2123  -3.1982  -3.1402  -3.1227
    -3.0986  -3.0772  -3.0588  -3.0325  -3.0050  -2.9564  -2.8754  -2.8285
    -2.7506  -2.7287  -2.6946  -2.6697  -2.6299  -2.5589  -2.5174  -2.4551
    -2.3958  -2.3305  -2.3168  -2.3049  -2.2516  -2.2041  -2.1762  -2.1330
    -2.1181  -2.1077  -2.0768  -2.0584  -2.0142  -1.9843  -1.9639  -1.9526
    -1.9353  -1.9152  -1.8943  -1.8775  -1.8671  -1.8530  -1.8404  -1.8320
    -1.8224  -1.7933  -1.7769  -1.7420  -1.7118  -1.6890  -1.6780  -1.6480
    -1.6154  -1.5699  -1.5586  -1.5057  -1.4753  -1.4630  -1.4119  -1.3308
    -1.2827  -1.1927  -1.1591  -1.1415  -1.0964  -1.0777  -1.0093  -0.9991
    -0.8103  -0.7961  -0.6986  -0.6877  -0.6567  -0.6420  -0.5892  -0.5796
    -0.5627  -0.4126  -0.2755  -0.2667  -0.1856  -0.1217  -0.0634   0.0939
     0.1918   1.2978   1.6096

     occupation numbers 
     1.0000   1.0000   1.0000   1.0000   1.0000   1.0000   1.0000   1.0000
     1.0000   1.0000   1.0000   1.0000   1.0000   1.0000   1.0000   1.0000
     1.0000   1.0000   1.0000   1.0000   1.0000   1.0000   1.0000   1.0000
     1.0000   1.0000   1.0000   1.0000   1.0000   1.0000   1.0000   1.0000
     1.0000   1.0000   1.0000   1.0000   1.0000   1.0000   1.0000   1.0000
     1.0000   1.0000   1.0000   1.0000   1.0000   1.0000   1.0000   1.0000
     1.0000   1.0000   1.0000   1.0000   1.0000   1.0000   1.0000   1.0000
     1.0000   1.0000   1.0000   1.0000   1.0000   1.0000   1.0000   1.0000
     1.0000   1.0000   1.0000   1.0000   1.0000   1.0000   1.0000   1.0000
     1.0000   1.0000   1.0000   1.0000   1.0000   1.0000   1.0000   1.0000
     1.0000   1.0000   1.0000   1.0000   1.0000   1.0000   1.0000   1.0000
     1.0000   1.0000   1.0000   1.0000   1.0000   1.0000   1.0000   1.0000
     1.0000   1.0000   1.0000   1.0000   1.0000   1.0000   1.0000   1.0000
     1.0000   1.0000   1.0000   1.0000   1.0000   1.0000   1.0000   1.0000
     1.0000   1.0000   1.0000   1.0000   1.0000   1.0000   1.0000   1.0000
     1.0000   1.0000   1.0000   1.0000   1.0000   1.0000   1.0000   1.0000
     1.0000   1.0000   1.0000   1.0000   1.0000   1.0000   1.0000   1.0000
     1.0000   1.0000   1.0000   1.0000   1.0000   1.0000   1.0000   1.0000
     1.0000   1.0000   1.0000   1.0000   1.0000   1.0000   1.0000   1.0000
     1.0000   1.0000   1.0000   1.0000   1.0000   1.0000   1.0000   1.0000
     1.0000   1.0000   1.0000   1.0000   1.0000   1.0000   1.0000   1.0000
     1.0000   1.0000   1.0000   1.0000   1.0000   1.0000   1.0000   1.0000
     1.0000   1.0000   1.0000   1.0000   1.0000   1.0000   1.0000   1.0000
     1.0000   1.0000   1.0000   1.0000   1.0000   1.0000   1.0000   1.0000
     1.0000   1.0000   1.0000   1.0000   1.0000   1.0000   1.0000   1.0000
     1.0000   1.0000   1.0000   1.0000   1.0000   1.0000   1.0000   1.0000
     1.0000   1.0000   1.0000   1.0000   1.0000   1.0000   1.0000   1.0000
     1.0000   1.0000   1.0000   1.0000   1.0000   1.0000   1.0000   1.0000
     1.0000   1.0000   1.0000   1.0000   1.0000   1.0000   1.0000   1.0000
     1.0000   1.0000   1.0000   1.0000   1.0000   1.0000   1.0000   1.0000
     1.0000   1.0000   1.0000

          k =-0.2000 0.1155 0.0000 (112171 PWs)   bands (ev):

   -73.8129 -73.8097 -73.8067 -73.8045 -73.8020 -73.8010 -73.7987 -73.7967
   -73.7918 -73.7901 -73.7872 -73.7850 -73.7832 -73.7505 -73.7456 -73.7360
   -38.2158 -38.2110 -38.2082 -38.1650 -38.1611 -38.1600 -38.1550 -38.1424
   -38.1358 -38.0991 -38.0763 -38.0721 -38.0473 -38.0447 -38.0408 -38.0304
   -38.0243 -38.0238 -38.0212 -38.0199 -38.0128 -38.0120 -38.0097 -38.0085
   -38.0002 -37.9968 -37.9937 -37.9923 -37.9895 -37.9879 -37.9843 -37.9825
   -37.9816 -37.9784 -37.9651 -37.9584 -37.9559 -37.9503 -37.9478 -37.9425
   -37.9289 -37.9208 -37.9168 -37.9066 -37.9046 -37.8965 -37.8709 -37.8677
   -21.6060 -15.5081 -14.5535 -13.9726 -13.7991 -13.7847 -13.4757 -13.4711
   -13.3219 -12.9641 -12.7886 -12.7559 -12.6885 -12.6787 -12.6540 -12.5839
   -12.5616 -12.5183 -12.4944 -12.4755 -12.4665 -12.4291 -12.4184 -12.3046
   -12.2912 -12.2582 -12.2408 -12.2101 -12.1833 -12.1723 -12.1644 -12.1471
   -12.0916 -12.0775  -7.9439  -7.6627  -6.2826  -6.2620  -6.2421  -6.2298
    -6.1860  -5.6759  -5.6365  -5.6222  -5.5464  -5.5287  -5.4896  -5.4660
    -5.4358  -5.4172  -5.3811  -5.3252  -5.3077  -5.2795  -5.2736  -5.0790
    -5.0598  -5.0128  -4.9967  -4.9486  -4.7374  -4.7324  -4.5705  -4.5123
    -4.4474  -4.3695  -4.3373  -4.2776  -4.2056  -4.1592  -4.1447  -4.1198
    -4.0970  -4.0634  -4.0374  -3.9934  -3.9811  -3.9124  -3.9027  -3.8940
    -3.6731  -3.5883  -3.5343  -3.5008  -3.4758  -3.4589  -3.4424  -3.3728
    -3.3637  -3.3195  -3.2928  -3.2766  -3.2632  -3.2036  -3.1922  -3.1521
    -3.1019  -2.9842  -2.9625  -2.9287  -2.8320  -2.8017  -2.7744  -2.7473
    -2.7298  -2.7124  -2.6964  -2.6878  -2.6744  -2.6515  -2.6050  -2.5448
    -2.5198  -2.4838  -2.4675  -2.4463  -2.3684  -2.3119  -2.1965  -2.1732
    -2.1330  -2.0878  -2.0194  -2.0040  -1.9772  -1.9640  -1.9425  -1.9055
    -1.8830  -1.8640  -1.8412  -1.8231  -1.8088  -1.7778  -1.7610  -1.7325
    -1.7100  -1.7019  -1.6842  -1.6650  -1.6517  -1.6068  -1.5740  -1.5536
    -1.5273  -1.5034  -1.4929  -1.4337  -1.4241  -1.3707  -1.3493  -1.3277
    -1.3114  -1.2738  -1.2542  -1.2225  -1.1664  -1.0790  -1.0463  -1.0183
    -0.8975  -0.7736  -0.7564  -0.7379  -0.5836  -0.5663  -0.5501  -0.5307
    -0.5160  -0.5077  -0.4125  -0.3803  -0.3562  -0.2622  -0.1695  -0.1426
     0.1795   1.2878   1.5447

     occupation numbers 
     1.0000   1.0000   1.0000   1.0000   1.0000   1.0000   1.0000   1.0000
     1.0000   1.0000   1.0000   1.0000   1.0000   1.0000   1.0000   1.0000
     1.0000   1.0000   1.0000   1.0000   1.0000   1.0000   1.0000   1.0000
     1.0000   1.0000   1.0000   1.0000   1.0000   1.0000   1.0000   1.0000
     1.0000   1.0000   1.0000   1.0000   1.0000   1.0000   1.0000   1.0000
     1.0000   1.0000   1.0000   1.0000   1.0000   1.0000   1.0000   1.0000
     1.0000   1.0000   1.0000   1.0000   1.0000   1.0000   1.0000   1.0000
     1.0000   1.0000   1.0000   1.0000   1.0000   1.0000   1.0000   1.0000
     1.0000   1.0000   1.0000   1.0000   1.0000   1.0000   1.0000   1.0000
     1.0000   1.0000   1.0000   1.0000   1.0000   1.0000   1.0000   1.0000
     1.0000   1.0000   1.0000   1.0000   1.0000   1.0000   1.0000   1.0000
     1.0000   1.0000   1.0000   1.0000   1.0000   1.0000   1.0000   1.0000
     1.0000   1.0000   1.0000   1.0000   1.0000   1.0000   1.0000   1.0000
     1.0000   1.0000   1.0000   1.0000   1.0000   1.0000   1.0000   1.0000
     1.0000   1.0000   1.0000   1.0000   1.0000   1.0000   1.0000   1.0000
     1.0000   1.0000   1.0000   1.0000   1.0000   1.0000   1.0000   1.0000
     1.0000   1.0000   1.0000   1.0000   1.0000   1.0000   1.0000   1.0000
     1.0000   1.0000   1.0000   1.0000   1.0000   1.0000   1.0000   1.0000
     1.0000   1.0000   1.0000   1.0000   1.0000   1.0000   1.0000   1.0000
     1.0000   1.0000   1.0000   1.0000   1.0000   1.0000   1.0000   1.0000
     1.0000   1.0000   1.0000   1.0000   1.0000   1.0000   1.0000   1.0000
     1.0000   1.0000   1.0000   1.0000   1.0000   1.0000   1.0000   1.0000
     1.0000   1.0000   1.0000   1.0000   1.0000   1.0000   1.0000   1.0000
     1.0000   1.0000   1.0000   1.0000   1.0000   1.0000   1.0000   1.0000
     1.0000   1.0000   1.0000   1.0000   1.0000   1.0000   1.0000   1.0000
     1.0000   1.0000   1.0000   1.0000   1.0000   1.0000   1.0000   1.0000
     1.0000   1.0000   1.0000   1.0000   1.0000   1.0000   1.0000   1.0000
     1.0000   1.0000   1.0000   1.0000   1.0000   1.0000   1.0000   1.0000
     1.0000   1.0000   1.0000   1.0000   1.0000   1.0000   1.0000   1.0000
     1.0000   1.0000   1.0000   1.0000   1.0000   1.0000   1.0000   1.0000
     1.0000   1.0000   1.0000

          k = 0.2000 0.1155 0.0000 (112171 PWs)   bands (ev):

   -73.8129 -73.8099 -73.8066 -73.8041 -73.8021 -73.8010 -73.7987 -73.7968
   -73.7917 -73.7901 -73.7871 -73.7851 -73.7831 -73.7505 -73.7456 -73.7360
   -38.2155 -38.2116 -38.2079 -38.1657 -38.1621 -38.1589 -38.1539 -38.1426
   -38.1359 -38.0993 -38.0761 -38.0725 -38.0475 -38.0450 -38.0412 -38.0305
   -38.0244 -38.0224 -38.0214 -38.0195 -38.0131 -38.0112 -38.0103 -38.0086
   -38.0005 -37.9959 -37.9938 -37.9923 -37.9897 -37.9875 -37.9855 -37.9825
   -37.9815 -37.9783 -37.9650 -37.9578 -37.9566 -37.9505 -37.9478 -37.9424
   -37.9289 -37.9201 -37.9163 -37.9086 -37.9038 -37.8967 -37.8724 -37.8660
   -21.6060 -15.5081 -14.5535 -13.9728 -13.7981 -13.7852 -13.4750 -13.4727
   -13.3211 -12.9642 -12.7888 -12.7551 -12.6881 -12.6799 -12.6543 -12.5839
   -12.5629 -12.5166 -12.4921 -12.4773 -12.4661 -12.4314 -12.4177 -12.3000
   -12.2910 -12.2613 -12.2439 -12.2052 -12.1888 -12.1693 -12.1674 -12.1447
   -12.0888 -12.0799  -7.9439  -7.6627  -6.2771  -6.2638  -6.2444  -6.2317
    -6.1860  -5.6698  -5.6400  -5.6198  -5.5476  -5.5330  -5.4866  -5.4686
    -5.4415  -5.4209  -5.3682  -5.3246  -5.3111  -5.2801  -5.2725  -5.0747
    -5.0676  -5.0107  -5.0004  -4.9431  -4.7383  -4.7331  -4.5663  -4.5081
    -4.4447  -4.3913  -4.3364  -4.2712  -4.2047  -4.1598  -4.1466  -4.1201
    -4.0966  -4.0535  -4.0374  -4.0005  -3.9794  -3.9099  -3.9069  -3.8965
    -3.6658  -3.5679  -3.5503  -3.5078  -3.4659  -3.4548  -3.4390  -3.3815
    -3.3697  -3.3105  -3.2996  -3.2802  -3.2585  -3.2106  -3.1941  -3.1447
    -3.1082  -3.0000  -2.9580  -2.9102  -2.8287  -2.8070  -2.7825  -2.7500
    -2.7357  -2.7104  -2.6965  -2.6898  -2.6669  -2.6371  -2.5973  -2.5476
    -2.5339  -2.4997  -2.4742  -2.4294  -2.3652  -2.3050  -2.2014  -2.1795
    -2.1220  -2.0896  -2.0168  -1.9985  -1.9701  -1.9671  -1.9287  -1.9064
    -1.8983  -1.8760  -1.8366  -1.8288  -1.8062  -1.7818  -1.7692  -1.7401
    -1.7145  -1.6918  -1.6790  -1.6565  -1.6382  -1.6248  -1.5884  -1.5424
    -1.5309  -1.5026  -1.4573  -1.4436  -1.4224  -1.4023  -1.3543  -1.3091
    -1.3028  -1.2947  -1.2490  -1.2103  -1.1689  -1.0680  -1.0455  -1.0287
    -0.8968  -0.7636  -0.7551  -0.7527  -0.5953  -0.5594  -0.5455  -0.5300
    -0.5183  -0.5126  -0.4079  -0.3811  -0.3526  -0.2629  -0.1657  -0.1465
     0.1802   1.2823   1.5513

     occupation numbers 
     1.0000   1.0000   1.0000   1.0000   1.0000   1.0000   1.0000   1.0000
     1.0000   1.0000   1.0000   1.0000   1.0000   1.0000   1.0000   1.0000
     1.0000   1.0000   1.0000   1.0000   1.0000   1.0000   1.0000   1.0000
     1.0000   1.0000   1.0000   1.0000   1.0000   1.0000   1.0000   1.0000
     1.0000   1.0000   1.0000   1.0000   1.0000   1.0000   1.0000   1.0000
     1.0000   1.0000   1.0000   1.0000   1.0000   1.0000   1.0000   1.0000
     1.0000   1.0000   1.0000   1.0000   1.0000   1.0000   1.0000   1.0000
     1.0000   1.0000   1.0000   1.0000   1.0000   1.0000   1.0000   1.0000
     1.0000   1.0000   1.0000   1.0000   1.0000   1.0000   1.0000   1.0000
     1.0000   1.0000   1.0000   1.0000   1.0000   1.0000   1.0000   1.0000
     1.0000   1.0000   1.0000   1.0000   1.0000   1.0000   1.0000   1.0000
     1.0000   1.0000   1.0000   1.0000   1.0000   1.0000   1.0000   1.0000
     1.0000   1.0000   1.0000   1.0000   1.0000   1.0000   1.0000   1.0000
     1.0000   1.0000   1.0000   1.0000   1.0000   1.0000   1.0000   1.0000
     1.0000   1.0000   1.0000   1.0000   1.0000   1.0000   1.0000   1.0000
     1.0000   1.0000   1.0000   1.0000   1.0000   1.0000   1.0000   1.0000
     1.0000   1.0000   1.0000   1.0000   1.0000   1.0000   1.0000   1.0000
     1.0000   1.0000   1.0000   1.0000   1.0000   1.0000   1.0000   1.0000
     1.0000   1.0000   1.0000   1.0000   1.0000   1.0000   1.0000   1.0000
     1.0000   1.0000   1.0000   1.0000   1.0000   1.0000   1.0000   1.0000
     1.0000   1.0000   1.0000   1.0000   1.0000   1.0000   1.0000   1.0000
     1.0000   1.0000   1.0000   1.0000   1.0000   1.0000   1.0000   1.0000
     1.0000   1.0000   1.0000   1.0000   1.0000   1.0000   1.0000   1.0000
     1.0000   1.0000   1.0000   1.0000   1.0000   1.0000   1.0000   1.0000
     1.0000   1.0000   1.0000   1.0000   1.0000   1.0000   1.0000   1.0000
     1.0000   1.0000   1.0000   1.0000   1.0000   1.0000   1.0000   1.0000
     1.0000   1.0000   1.0000   1.0000   1.0000   1.0000   1.0000   1.0000
     1.0000   1.0000   1.0000   1.0000   1.0000   1.0000   1.0000   1.0000
     1.0000   1.0000   1.0000   1.0000   1.0000   1.0000   1.0000   1.0000
     1.0000   1.0000   1.0000   1.0000   1.0000   1.0000   1.0000   1.0000
     1.0000   1.0000   1.0000

          k =-0.4000 0.2309 0.0000 (112236 PWs)   bands (ev):

   -73.8127 -73.8099 -73.8067 -73.8049 -73.8018 -73.8004 -73.7989 -73.7967
   -73.7918 -73.7902 -73.7871 -73.7850 -73.7832 -73.7505 -73.7456 -73.7360
   -38.2038 -38.1980 -38.1865 -38.1802 -38.1791 -38.1604 -38.1573 -38.1432
   -38.1265 -38.1200 -38.1019 -38.0971 -38.0592 -38.0541 -38.0432 -38.0360
   -38.0253 -38.0208 -38.0106 -38.0083 -38.0056 -38.0043 -38.0004 -37.9959
   -37.9947 -37.9936 -37.9914 -37.9888 -37.9837 -37.9821 -37.9785 -37.9755
   -37.9713 -37.9656 -37.9622 -37.9614 -37.9493 -37.9474 -37.9454 -37.9429
   -37.9407 -37.9344 -37.9259 -37.9132 -37.9052 -37.8883 -37.8865 -37.8722
   -21.6060 -15.5081 -14.4323 -14.2292 -13.8662 -13.8543 -13.2460 -13.2404
   -13.0214 -12.9941 -12.9717 -12.9073 -12.8290 -12.7297 -12.7003 -12.6815
   -12.5329 -12.5057 -12.4582 -12.4494 -12.4270 -12.4197 -12.3829 -12.3599
   -12.3494 -12.2785 -12.2186 -12.1966 -12.1723 -12.1579 -12.1512 -12.1486
   -12.0527 -12.0365  -7.9439  -7.6627  -6.1985  -6.1308  -6.1124  -6.0861
    -6.0194  -5.8733  -5.8529  -5.8363  -5.7082  -5.5310  -5.5078  -5.4867
    -5.4511  -5.4434  -5.4342  -5.3857  -5.3763  -5.3140  -5.3066  -5.0790
    -5.0548  -5.0204  -5.0023  -4.8015  -4.6061  -4.5537  -4.4788  -4.4389
    -4.4107  -4.3703  -4.3491  -4.3082  -4.2434  -4.2195  -4.1925  -4.1587
    -4.1191  -4.1109  -4.0986  -4.0718  -4.0656  -4.0508  -4.0396  -3.6947
    -3.5705  -3.5228  -3.4759  -3.4567  -3.4230  -3.3962  -3.3560  -3.3162
    -3.3025  -3.2780  -3.2575  -3.2393  -3.2125  -3.1967  -3.1482  -3.1131
    -3.0708  -3.0464  -3.0119  -2.9708  -2.9360  -2.9040  -2.8392  -2.7788
    -2.7417  -2.7131  -2.6666  -2.6328  -2.6140  -2.5859  -2.5575  -2.4979
    -2.4309  -2.4243  -2.3985  -2.3350  -2.2831  -2.2521  -2.2427  -2.1758
    -2.1264  -2.1162  -2.0579  -2.0298  -2.0157  -1.9922  -1.9622  -1.9346
    -1.9157  -1.8988  -1.8881  -1.8676  -1.8631  -1.8499  -1.8366  -1.8222
    -1.8065  -1.7667  -1.7325  -1.6992  -1.6947  -1.6705  -1.6510  -1.6126
    -1.5903  -1.5613  -1.5037  -1.4771  -1.4499  -1.3576  -1.3316  -1.2996
    -1.2639  -1.2201  -1.1712  -1.1269  -1.1214  -1.1030  -1.0765  -0.9907
    -0.9711  -0.8769  -0.7332  -0.7176  -0.6385  -0.6214  -0.5085  -0.4533
    -0.4475  -0.4223  -0.4014  -0.3746  -0.3017  -0.0987   0.0035   0.0338
     0.1257   1.3341   1.5566

     occupation numbers 
     1.0000   1.0000   1.0000   1.0000   1.0000   1.0000   1.0000   1.0000
     1.0000   1.0000   1.0000   1.0000   1.0000   1.0000   1.0000   1.0000
     1.0000   1.0000   1.0000   1.0000   1.0000   1.0000   1.0000   1.0000
     1.0000   1.0000   1.0000   1.0000   1.0000   1.0000   1.0000   1.0000
     1.0000   1.0000   1.0000   1.0000   1.0000   1.0000   1.0000   1.0000
     1.0000   1.0000   1.0000   1.0000   1.0000   1.0000   1.0000   1.0000
     1.0000   1.0000   1.0000   1.0000   1.0000   1.0000   1.0000   1.0000
     1.0000   1.0000   1.0000   1.0000   1.0000   1.0000   1.0000   1.0000
     1.0000   1.0000   1.0000   1.0000   1.0000   1.0000   1.0000   1.0000
     1.0000   1.0000   1.0000   1.0000   1.0000   1.0000   1.0000   1.0000
     1.0000   1.0000   1.0000   1.0000   1.0000   1.0000   1.0000   1.0000
     1.0000   1.0000   1.0000   1.0000   1.0000   1.0000   1.0000   1.0000
     1.0000   1.0000   1.0000   1.0000   1.0000   1.0000   1.0000   1.0000
     1.0000   1.0000   1.0000   1.0000   1.0000   1.0000   1.0000   1.0000
     1.0000   1.0000   1.0000   1.0000   1.0000   1.0000   1.0000   1.0000
     1.0000   1.0000   1.0000   1.0000   1.0000   1.0000   1.0000   1.0000
     1.0000   1.0000   1.0000   1.0000   1.0000   1.0000   1.0000   1.0000
     1.0000   1.0000   1.0000   1.0000   1.0000   1.0000   1.0000   1.0000
     1.0000   1.0000   1.0000   1.0000   1.0000   1.0000   1.0000   1.0000
     1.0000   1.0000   1.0000   1.0000   1.0000   1.0000   1.0000   1.0000
     1.0000   1.0000   1.0000   1.0000   1.0000   1.0000   1.0000   1.0000
     1.0000   1.0000   1.0000   1.0000   1.0000   1.0000   1.0000   1.0000
     1.0000   1.0000   1.0000   1.0000   1.0000   1.0000   1.0000   1.0000
     1.0000   1.0000   1.0000   1.0000   1.0000   1.0000   1.0000   1.0000
     1.0000   1.0000   1.0000   1.0000   1.0000   1.0000   1.0000   1.0000
     1.0000   1.0000   1.0000   1.0000   1.0000   1.0000   1.0000   1.0000
     1.0000   1.0000   1.0000   1.0000   1.0000   1.0000   1.0000   1.0000
     1.0000   1.0000   1.0000   1.0000   1.0000   1.0000   1.0000   1.0000
     1.0000   1.0000   1.0000   1.0000   1.0000   1.0000   1.0000   1.0000
     1.0000   1.0000   1.0000   1.0000   1.0000   1.0000   1.0000   1.0000
     1.0000   1.0000   1.0000

          k = 0.4000 0.2309 0.0000 (112236 PWs)   bands (ev):

   -73.8124 -73.8105 -73.8066 -73.8043 -73.8020 -73.8007 -73.7990 -73.7968
   -73.7916 -73.7904 -73.7869 -73.7853 -73.7831 -73.7505 -73.7456 -73.7360
   -38.2020 -38.2001 -38.1862 -38.1829 -38.1765 -38.1593 -38.1577 -38.1430
   -38.1260 -38.1205 -38.1026 -38.0974 -38.0587 -38.0551 -38.0430 -38.0363
   -38.0245 -38.0208 -38.0098 -38.0075 -38.0068 -38.0056 -38.0004 -37.9962
   -37.9939 -37.9926 -37.9909 -37.9876 -37.9856 -37.9822 -37.9782 -37.9755
   -37.9727 -37.9654 -37.9628 -37.9603 -37.9488 -37.9464 -37.9459 -37.9426
   -37.9407 -37.9334 -37.9260 -37.9141 -37.9056 -37.8901 -37.8876 -37.8699
   -21.6060 -15.5081 -14.4321 -14.2295 -13.8654 -13.8549 -13.2459 -13.2414
   -13.0181 -12.9940 -12.9737 -12.9066 -12.8299 -12.7273 -12.7021 -12.6823
   -12.5397 -12.4985 -12.4624 -12.4470 -12.4260 -12.4199 -12.3833 -12.3584
   -12.3470 -12.2785 -12.2253 -12.1946 -12.1743 -12.1569 -12.1516 -12.1461
   -12.0497 -12.0390  -7.9439  -7.6627  -6.1985  -6.1230  -6.1123  -6.0860
    -6.0333  -5.8660  -5.8526  -5.8330  -5.7132  -5.5320  -5.5064  -5.4895
    -5.4457  -5.4449  -5.4368  -5.3852  -5.3797  -5.3118  -5.3057  -5.0703
    -5.0664  -5.0187  -5.0071  -4.7737  -4.6196  -4.5576  -4.4873  -4.4491
    -4.4169  -4.3692  -4.3472  -4.3022  -4.2377  -4.2238  -4.1884  -4.1561
    -4.1226  -4.1124  -4.0998  -4.0736  -4.0605  -4.0485  -4.0401  -3.6828
    -3.5622  -3.5235  -3.4666  -3.4492  -3.4289  -3.4002  -3.3586  -3.3260
    -3.2897  -3.2839  -3.2527  -3.2382  -3.2170  -3.2030  -3.1374  -3.1161
    -3.0891  -3.0544  -3.0184  -2.9688  -2.9381  -2.9036  -2.8507  -2.7794
    -2.7463  -2.6893  -2.6556  -2.6336  -2.6190  -2.6042  -2.5216  -2.5058
    -2.4601  -2.4295  -2.3745  -2.3334  -2.2755  -2.2576  -2.2434  -2.1595
    -2.1253  -2.1176  -2.0432  -2.0140  -2.0084  -1.9844  -1.9781  -1.9628
    -1.9384  -1.9032  -1.8928  -1.8674  -1.8553  -1.8456  -1.8370  -1.8222
    -1.8097  -1.7736  -1.7303  -1.7199  -1.6972  -1.6480  -1.6342  -1.6264
    -1.5968  -1.5547  -1.5110  -1.4981  -1.4234  -1.3617  -1.3127  -1.2930
    -1.2596  -1.2368  -1.1906  -1.1327  -1.1169  -1.0629  -1.0610  -1.0052
    -0.9755  -0.8885  -0.7283  -0.7239  -0.6371  -0.6277  -0.5183  -0.4570
    -0.4462  -0.4205  -0.4024  -0.3648  -0.2954  -0.1004   0.0048   0.0298
     0.1288   1.3168   1.5777

     occupation numbers 
     1.0000   1.0000   1.0000   1.0000   1.0000   1.0000   1.0000   1.0000
     1.0000   1.0000   1.0000   1.0000   1.0000   1.0000   1.0000   1.0000
     1.0000   1.0000   1.0000   1.0000   1.0000   1.0000   1.0000   1.0000
     1.0000   1.0000   1.0000   1.0000   1.0000   1.0000   1.0000   1.0000
     1.0000   1.0000   1.0000   1.0000   1.0000   1.0000   1.0000   1.0000
     1.0000   1.0000   1.0000   1.0000   1.0000   1.0000   1.0000   1.0000
     1.0000   1.0000   1.0000   1.0000   1.0000   1.0000   1.0000   1.0000
     1.0000   1.0000   1.0000   1.0000   1.0000   1.0000   1.0000   1.0000
     1.0000   1.0000   1.0000   1.0000   1.0000   1.0000   1.0000   1.0000
     1.0000   1.0000   1.0000   1.0000   1.0000   1.0000   1.0000   1.0000
     1.0000   1.0000   1.0000   1.0000   1.0000   1.0000   1.0000   1.0000
     1.0000   1.0000   1.0000   1.0000   1.0000   1.0000   1.0000   1.0000
     1.0000   1.0000   1.0000   1.0000   1.0000   1.0000   1.0000   1.0000
     1.0000   1.0000   1.0000   1.0000   1.0000   1.0000   1.0000   1.0000
     1.0000   1.0000   1.0000   1.0000   1.0000   1.0000   1.0000   1.0000
     1.0000   1.0000   1.0000   1.0000   1.0000   1.0000   1.0000   1.0000
     1.0000   1.0000   1.0000   1.0000   1.0000   1.0000   1.0000   1.0000
     1.0000   1.0000   1.0000   1.0000   1.0000   1.0000   1.0000   1.0000
     1.0000   1.0000   1.0000   1.0000   1.0000   1.0000   1.0000   1.0000
     1.0000   1.0000   1.0000   1.0000   1.0000   1.0000   1.0000   1.0000
     1.0000   1.0000   1.0000   1.0000   1.0000   1.0000   1.0000   1.0000
     1.0000   1.0000   1.0000   1.0000   1.0000   1.0000   1.0000   1.0000
     1.0000   1.0000   1.0000   1.0000   1.0000   1.0000   1.0000   1.0000
     1.0000   1.0000   1.0000   1.0000   1.0000   1.0000   1.0000   1.0000
     1.0000   1.0000   1.0000   1.0000   1.0000   1.0000   1.0000   1.0000
     1.0000   1.0000   1.0000   1.0000   1.0000   1.0000   1.0000   1.0000
     1.0000   1.0000   1.0000   1.0000   1.0000   1.0000   1.0000   1.0000
     1.0000   1.0000   1.0000   1.0000   1.0000   1.0000   1.0000   1.0000
     1.0000   1.0000   1.0000   1.0000   1.0000   1.0000   1.0000   1.0000
     1.0000   1.0000   1.0000   1.0000   1.0000   1.0000   1.0000   1.0000
     1.0000   1.0000   1.0000

          k =-0.2000 0.3464 0.0000 (112231 PWs)   bands (ev):

   -73.8127 -73.8099 -73.8067 -73.8047 -73.8018 -73.8009 -73.7987 -73.7966
   -73.7920 -73.7900 -73.7870 -73.7851 -73.7831 -73.7505 -73.7456 -73.7360
   -38.2083 -38.1982 -38.1968 -38.1753 -38.1717 -38.1603 -38.1516 -38.1454
   -38.1288 -38.1215 -38.1091 -38.0731 -38.0569 -38.0516 -38.0440 -38.0332
   -38.0283 -38.0246 -38.0212 -38.0164 -38.0122 -38.0042 -37.9997 -37.9958
   -37.9923 -37.9893 -37.9874 -37.9845 -37.9825 -37.9800 -37.9783 -37.9771
   -37.9726 -37.9696 -37.9656 -37.9612 -37.9544 -37.9514 -37.9478 -37.9431
   -37.9376 -37.9285 -37.9226 -37.9176 -37.8995 -37.8946 -37.8827 -37.8692
   -21.6060 -15.5081 -14.4717 -14.0992 -14.0562 -13.5703 -13.5534 -13.1719
   -13.1156 -13.0059 -12.9317 -12.8048 -12.7878 -12.7028 -12.6691 -12.6162
   -12.5816 -12.5732 -12.5653 -12.4514 -12.4226 -12.3902 -12.3758 -12.3068
   -12.2883 -12.2704 -12.2479 -12.2231 -12.2193 -12.1530 -12.1463 -12.1048
   -12.0919 -12.0318  -7.9439  -7.6627  -6.2028  -6.1831  -6.1456  -6.1188
    -6.0998  -5.7656  -5.7347  -5.7136  -5.6963  -5.6230  -5.5991  -5.5605
    -5.5044  -5.4727  -5.3531  -5.3278  -5.2968  -5.2621  -5.2388  -5.2180
    -5.0944  -4.9107  -4.8914  -4.7935  -4.7526  -4.6057  -4.5143  -4.4446
    -4.3924  -4.3415  -4.3321  -4.3063  -4.2774  -4.2577  -4.2426  -4.2245
    -4.1612  -4.1270  -4.1081  -4.0901  -4.0510  -3.7732  -3.7371  -3.7258
    -3.7059  -3.6892  -3.6187  -3.5052  -3.4207  -3.3804  -3.3716  -3.3078
    -3.2933  -3.2407  -3.2305  -3.2012  -3.1639  -3.1444  -3.1252  -3.0811
    -3.0609  -3.0101  -2.9719  -2.9431  -2.9314  -2.9242  -2.9209  -2.8990
    -2.7959  -2.7436  -2.7204  -2.6762  -2.6286  -2.5651  -2.5304  -2.4758
    -2.4618  -2.4081  -2.3876  -2.3638  -2.3204  -2.2200  -2.1952  -2.1557
    -2.1355  -2.1209  -2.1058  -2.0819  -2.0357  -1.9877  -1.9810  -1.9414
    -1.9183  -1.8989  -1.8673  -1.8539  -1.8238  -1.8157  -1.8003  -1.7917
    -1.7504  -1.7235  -1.7034  -1.6795  -1.6535  -1.6364  -1.5869  -1.5808
    -1.5586  -1.5464  -1.5284  -1.5089  -1.4417  -1.3947  -1.3827  -1.3443
    -1.2877  -1.2465  -1.1953  -1.1711  -1.1562  -1.1229  -1.0455  -1.0082
    -0.8738  -0.8349  -0.6849  -0.6684  -0.6352  -0.6252  -0.6075  -0.5402
    -0.5334  -0.4264  -0.3828  -0.2549  -0.2035  -0.1961  -0.1583   0.0756
     0.1423   1.2966   1.5832

     occupation numbers 
     1.0000   1.0000   1.0000   1.0000   1.0000   1.0000   1.0000   1.0000
     1.0000   1.0000   1.0000   1.0000   1.0000   1.0000   1.0000   1.0000
     1.0000   1.0000   1.0000   1.0000   1.0000   1.0000   1.0000   1.0000
     1.0000   1.0000   1.0000   1.0000   1.0000   1.0000   1.0000   1.0000
     1.0000   1.0000   1.0000   1.0000   1.0000   1.0000   1.0000   1.0000
     1.0000   1.0000   1.0000   1.0000   1.0000   1.0000   1.0000   1.0000
     1.0000   1.0000   1.0000   1.0000   1.0000   1.0000   1.0000   1.0000
     1.0000   1.0000   1.0000   1.0000   1.0000   1.0000   1.0000   1.0000
     1.0000   1.0000   1.0000   1.0000   1.0000   1.0000   1.0000   1.0000
     1.0000   1.0000   1.0000   1.0000   1.0000   1.0000   1.0000   1.0000
     1.0000   1.0000   1.0000   1.0000   1.0000   1.0000   1.0000   1.0000
     1.0000   1.0000   1.0000   1.0000   1.0000   1.0000   1.0000   1.0000
     1.0000   1.0000   1.0000   1.0000   1.0000   1.0000   1.0000   1.0000
     1.0000   1.0000   1.0000   1.0000   1.0000   1.0000   1.0000   1.0000
     1.0000   1.0000   1.0000   1.0000   1.0000   1.0000   1.0000   1.0000
     1.0000   1.0000   1.0000   1.0000   1.0000   1.0000   1.0000   1.0000
     1.0000   1.0000   1.0000   1.0000   1.0000   1.0000   1.0000   1.0000
     1.0000   1.0000   1.0000   1.0000   1.0000   1.0000   1.0000   1.0000
     1.0000   1.0000   1.0000   1.0000   1.0000   1.0000   1.0000   1.0000
     1.0000   1.0000   1.0000   1.0000   1.0000   1.0000   1.0000   1.0000
     1.0000   1.0000   1.0000   1.0000   1.0000   1.0000   1.0000   1.0000
     1.0000   1.0000   1.0000   1.0000   1.0000   1.0000   1.0000   1.0000
     1.0000   1.0000   1.0000   1.0000   1.0000   1.0000   1.0000   1.0000
     1.0000   1.0000   1.0000   1.0000   1.0000   1.0000   1.0000   1.0000
     1.0000   1.0000   1.0000   1.0000   1.0000   1.0000   1.0000   1.0000
     1.0000   1.0000   1.0000   1.0000   1.0000   1.0000   1.0000   1.0000
     1.0000   1.0000   1.0000   1.0000   1.0000   1.0000   1.0000   1.0000
     1.0000   1.0000   1.0000   1.0000   1.0000   1.0000   1.0000   1.0000
     1.0000   1.0000   1.0000   1.0000   1.0000   1.0000   1.0000   1.0000
     1.0000   1.0000   1.0000   1.0000   1.0000   1.0000   1.0000   1.0000
     1.0000   1.0000   1.0000

          k = 0.4000-0.0000 0.0000 (112231 PWs)   bands (ev):

   -73.8126 -73.8101 -73.8067 -73.8045 -73.8019 -73.8005 -73.7990 -73.7967
   -73.7916 -73.7903 -73.7870 -73.7851 -73.7831 -73.7505 -73.7456 -73.7360
   -38.2083 -38.1989 -38.1956 -38.1751 -38.1719 -38.1617 -38.1521 -38.1455
   -38.1281 -38.1201 -38.1085 -38.0728 -38.0578 -38.0522 -38.0438 -38.0340
   -38.0268 -38.0248 -38.0213 -38.0179 -38.0100 -38.0053 -38.0000 -37.9946
   -37.9922 -37.9895 -37.9873 -37.9850 -37.9839 -37.9813 -37.9781 -37.9761
   -37.9712 -37.9707 -37.9654 -37.9615 -37.9544 -37.9509 -37.9476 -37.9428
   -37.9382 -37.9278 -37.9239 -37.9181 -37.8976 -37.8943 -37.8815 -37.8712
   -21.6060 -15.5081 -14.4718 -14.0957 -14.0598 -13.5648 -13.5597 -13.1669
   -13.1189 -13.0098 -12.9255 -12.8008 -12.7919 -12.7075 -12.6782 -12.5985
   -12.5957 -12.5703 -12.5573 -12.4531 -12.4198 -12.4090 -12.3610 -12.3039
   -12.2894 -12.2673 -12.2506 -12.2310 -12.2164 -12.1539 -12.1437 -12.1026
   -12.0934 -12.0323  -7.9439  -7.6627  -6.2016  -6.1780  -6.1516  -6.1159
    -6.1052  -5.7552  -5.7395  -5.7175  -5.6844  -5.6335  -5.6055  -5.5581
    -5.5024  -5.4700  -5.3486  -5.3317  -5.2895  -5.2685  -5.2412  -5.2261
    -5.0940  -4.8986  -4.8833  -4.8069  -4.7529  -4.5689  -4.5357  -4.4626
    -4.4065  -4.3436  -4.3348  -4.3101  -4.2724  -4.2612  -4.2404  -4.2077
    -4.1721  -4.1144  -4.1070  -4.0868  -4.0511  -3.7623  -3.7318  -3.7245
    -3.7051  -3.6957  -3.6298  -3.4844  -3.4280  -3.4001  -3.3695  -3.3252
    -3.2869  -3.2437  -3.2338  -3.1997  -3.1744  -3.1420  -3.1246  -3.0798
    -3.0409  -3.0036  -2.9667  -2.9493  -2.9382  -2.9213  -2.9052  -2.8972
    -2.7874  -2.7578  -2.7199  -2.6602  -2.6311  -2.5848  -2.5475  -2.4707
    -2.4652  -2.4182  -2.3855  -2.3443  -2.3188  -2.2249  -2.1780  -2.1604
    -2.1295  -2.1216  -2.1058  -2.0994  -2.0113  -1.9922  -1.9738  -1.9486
    -1.9245  -1.8986  -1.8802  -1.8625  -1.8522  -1.8192  -1.7986  -1.7752
    -1.7542  -1.7151  -1.6938  -1.6726  -1.6586  -1.6275  -1.5928  -1.5699
    -1.5544  -1.5445  -1.5303  -1.5050  -1.4474  -1.4104  -1.3673  -1.3379
    -1.2856  -1.2651  -1.1995  -1.1769  -1.1502  -1.1101  -1.0496  -1.0060
    -0.8649  -0.8468  -0.6791  -0.6717  -0.6363  -0.6200  -0.6118  -0.5385
    -0.5326  -0.4408  -0.3802  -0.2496  -0.2043  -0.1911  -0.1598   0.0729
     0.1423   1.3263   1.5524

     occupation numbers 
     1.0000   1.0000   1.0000   1.0000   1.0000   1.0000   1.0000   1.0000
     1.0000   1.0000   1.0000   1.0000   1.0000   1.0000   1.0000   1.0000
     1.0000   1.0000   1.0000   1.0000   1.0000   1.0000   1.0000   1.0000
     1.0000   1.0000   1.0000   1.0000   1.0000   1.0000   1.0000   1.0000
     1.0000   1.0000   1.0000   1.0000   1.0000   1.0000   1.0000   1.0000
     1.0000   1.0000   1.0000   1.0000   1.0000   1.0000   1.0000   1.0000
     1.0000   1.0000   1.0000   1.0000   1.0000   1.0000   1.0000   1.0000
     1.0000   1.0000   1.0000   1.0000   1.0000   1.0000   1.0000   1.0000
     1.0000   1.0000   1.0000   1.0000   1.0000   1.0000   1.0000   1.0000
     1.0000   1.0000   1.0000   1.0000   1.0000   1.0000   1.0000   1.0000
     1.0000   1.0000   1.0000   1.0000   1.0000   1.0000   1.0000   1.0000
     1.0000   1.0000   1.0000   1.0000   1.0000   1.0000   1.0000   1.0000
     1.0000   1.0000   1.0000   1.0000   1.0000   1.0000   1.0000   1.0000
     1.0000   1.0000   1.0000   1.0000   1.0000   1.0000   1.0000   1.0000
     1.0000   1.0000   1.0000   1.0000   1.0000   1.0000   1.0000   1.0000
     1.0000   1.0000   1.0000   1.0000   1.0000   1.0000   1.0000   1.0000
     1.0000   1.0000   1.0000   1.0000   1.0000   1.0000   1.0000   1.0000
     1.0000   1.0000   1.0000   1.0000   1.0000   1.0000   1.0000   1.0000
     1.0000   1.0000   1.0000   1.0000   1.0000   1.0000   1.0000   1.0000
     1.0000   1.0000   1.0000   1.0000   1.0000   1.0000   1.0000   1.0000
     1.0000   1.0000   1.0000   1.0000   1.0000   1.0000   1.0000   1.0000
     1.0000   1.0000   1.0000   1.0000   1.0000   1.0000   1.0000   1.0000
     1.0000   1.0000   1.0000   1.0000   1.0000   1.0000   1.0000   1.0000
     1.0000   1.0000   1.0000   1.0000   1.0000   1.0000   1.0000   1.0000
     1.0000   1.0000   1.0000   1.0000   1.0000   1.0000   1.0000   1.0000
     1.0000   1.0000   1.0000   1.0000   1.0000   1.0000   1.0000   1.0000
     1.0000   1.0000   1.0000   1.0000   1.0000   1.0000   1.0000   1.0000
     1.0000   1.0000   1.0000   1.0000   1.0000   1.0000   1.0000   1.0000
     1.0000   1.0000   1.0000   1.0000   1.0000   1.0000   1.0000   1.0000
     1.0000   1.0000   1.0000   1.0000   1.0000   1.0000   1.0000   1.0000
     1.0000   1.0000   1.0000

          k =-0.4000 0.4619 0.0000 (112237 PWs)   bands (ev):

   -73.8125 -73.8101 -73.8067 -73.8048 -73.8018 -73.8004 -73.7990 -73.7967
   -73.7918 -73.7902 -73.7870 -73.7851 -73.7831 -73.7505 -73.7456 -73.7360
   -38.1979 -38.1911 -38.1816 -38.1783 -38.1757 -38.1694 -38.1620 -38.1451
   -38.1423 -38.1287 -38.0904 -38.0862 -38.0810 -38.0481 -38.0408 -38.0372
   -38.0291 -38.0273 -38.0171 -38.0089 -38.0042 -38.0013 -37.9997 -37.9963
   -37.9952 -37.9924 -37.9896 -37.9841 -37.9820 -37.9782 -37.9708 -37.9676
   -37.9656 -37.9640 -37.9572 -37.9538 -37.9507 -37.9489 -37.9459 -37.9437
   -37.9416 -37.9342 -37.9299 -37.9229 -37.9108 -37.8921 -37.8813 -37.8755
   -21.6060 -15.5081 -14.3354 -14.2855 -14.1120 -13.5928 -13.2947 -13.2910
   -12.9579 -12.9456 -12.8830 -12.8530 -12.8239 -12.7974 -12.7926 -12.6619
   -12.6305 -12.5924 -12.4903 -12.4799 -12.3841 -12.3717 -12.3444 -12.3223
   -12.3057 -12.2936 -12.2573 -12.2310 -12.2257 -12.1302 -12.1162 -12.1112
   -12.0762 -12.0127  -7.9439  -7.6627  -6.1966  -6.0570  -6.0214  -5.9658
    -5.9115  -5.8868  -5.8738  -5.8559  -5.8045  -5.7411  -5.6857  -5.6223
    -5.6067  -5.5376  -5.3542  -5.2830  -5.2440  -5.2132  -5.1982  -5.1651
    -5.1541  -4.8509  -4.8292  -4.7423  -4.6168  -4.5866  -4.5409  -4.5216
    -4.4878  -4.4232  -4.3809  -4.3224  -4.3049  -4.2386  -4.2236  -4.2056
    -4.1901  -4.1605  -4.1167  -4.0909  -3.9536  -3.9435  -3.7902  -3.6698
    -3.6292  -3.5863  -3.4314  -3.3950  -3.3605  -3.3226  -3.3064  -3.2786
    -3.2754  -3.2640  -3.2388  -3.2285  -3.2167  -3.2106  -3.1464  -3.1177
    -3.0937  -3.0822  -3.0556  -3.0439  -2.9945  -2.9504  -2.8477  -2.8138
    -2.7417  -2.7271  -2.7094  -2.6804  -2.6285  -2.6000  -2.5089  -2.4175
    -2.3977  -2.3277  -2.3197  -2.3147  -2.2648  -2.1958  -2.1714  -2.1582
    -2.1440  -2.0867  -2.0771  -2.0486  -2.0255  -1.9759  -1.9654  -1.9459
    -1.9291  -1.9153  -1.8917  -1.8801  -1.8656  -1.8518  -1.8414  -1.8396
    -1.8166  -1.8038  -1.7726  -1.7326  -1.7049  -1.6978  -1.6700  -1.6510
    -1.6233  -1.5822  -1.5339  -1.5030  -1.4811  -1.4584  -1.4181  -1.3144
    -1.2823  -1.2338  -1.1679  -1.1131  -1.0923  -1.0770  -1.0423  -0.9744
    -0.8107  -0.7846  -0.6991  -0.6882  -0.6545  -0.6430  -0.5965  -0.5805
    -0.5640  -0.4116  -0.2774  -0.2712  -0.1758  -0.1158  -0.0740   0.0943
     0.1905   1.3348   1.5695

     occupation numbers 
     1.0000   1.0000   1.0000   1.0000   1.0000   1.0000   1.0000   1.0000
     1.0000   1.0000   1.0000   1.0000   1.0000   1.0000   1.0000   1.0000
     1.0000   1.0000   1.0000   1.0000   1.0000   1.0000   1.0000   1.0000
     1.0000   1.0000   1.0000   1.0000   1.0000   1.0000   1.0000   1.0000
     1.0000   1.0000   1.0000   1.0000   1.0000   1.0000   1.0000   1.0000
     1.0000   1.0000   1.0000   1.0000   1.0000   1.0000   1.0000   1.0000
     1.0000   1.0000   1.0000   1.0000   1.0000   1.0000   1.0000   1.0000
     1.0000   1.0000   1.0000   1.0000   1.0000   1.0000   1.0000   1.0000
     1.0000   1.0000   1.0000   1.0000   1.0000   1.0000   1.0000   1.0000
     1.0000   1.0000   1.0000   1.0000   1.0000   1.0000   1.0000   1.0000
     1.0000   1.0000   1.0000   1.0000   1.0000   1.0000   1.0000   1.0000
     1.0000   1.0000   1.0000   1.0000   1.0000   1.0000   1.0000   1.0000
     1.0000   1.0000   1.0000   1.0000   1.0000   1.0000   1.0000   1.0000
     1.0000   1.0000   1.0000   1.0000   1.0000   1.0000   1.0000   1.0000
     1.0000   1.0000   1.0000   1.0000   1.0000   1.0000   1.0000   1.0000
     1.0000   1.0000   1.0000   1.0000   1.0000   1.0000   1.0000   1.0000
     1.0000   1.0000   1.0000   1.0000   1.0000   1.0000   1.0000   1.0000
     1.0000   1.0000   1.0000   1.0000   1.0000   1.0000   1.0000   1.0000
     1.0000   1.0000   1.0000   1.0000   1.0000   1.0000   1.0000   1.0000
     1.0000   1.0000   1.0000   1.0000   1.0000   1.0000   1.0000   1.0000
     1.0000   1.0000   1.0000   1.0000   1.0000   1.0000   1.0000   1.0000
     1.0000   1.0000   1.0000   1.0000   1.0000   1.0000   1.0000   1.0000
     1.0000   1.0000   1.0000   1.0000   1.0000   1.0000   1.0000   1.0000
     1.0000   1.0000   1.0000   1.0000   1.0000   1.0000   1.0000   1.0000
     1.0000   1.0000   1.0000   1.0000   1.0000   1.0000   1.0000   1.0000
     1.0000   1.0000   1.0000   1.0000   1.0000   1.0000   1.0000   1.0000
     1.0000   1.0000   1.0000   1.0000   1.0000   1.0000   1.0000   1.0000
     1.0000   1.0000   1.0000   1.0000   1.0000   1.0000   1.0000   1.0000
     1.0000   1.0000   1.0000   1.0000   1.0000   1.0000   1.0000   1.0000
     1.0000   1.0000   1.0000   1.0000   1.0000   1.0000   1.0000   1.0000
     1.0000   1.0000   1.0000

          k = 0.6000 0.1155 0.0000 (112237 PWs)   bands (ev):

   -73.8123 -73.8105 -73.8067 -73.8044 -73.8019 -73.8006 -73.7990 -73.7967
   -73.7917 -73.7903 -73.7869 -73.7853 -73.7831 -73.7505 -73.7456 -73.7360
   -38.1966 -38.1927 -38.1825 -38.1798 -38.1729 -38.1693 -38.1615 -38.1449
   -38.1431 -38.1285 -38.0898 -38.0882 -38.0806 -38.0477 -38.0409 -38.0370
   -38.0292 -38.0275 -38.0167 -38.0082 -38.0050 -38.0020 -37.9990 -37.9965
   -37.9956 -37.9910 -37.9893 -37.9850 -37.9821 -37.9782 -37.9707 -37.9678
   -37.9655 -37.9648 -37.9570 -37.9537 -37.9512 -37.9491 -37.9463 -37.9436
   -37.9377 -37.9348 -37.9281 -37.9254 -37.9119 -37.8929 -37.8828 -37.8733
   -21.6060 -15.5081 -14.3347 -14.2864 -14.1118 -13.5928 -13.3019 -13.2838
   -12.9637 -12.9397 -12.8779 -12.8565 -12.8243 -12.7978 -12.7932 -12.6644
   -12.6294 -12.5906 -12.5002 -12.4698 -12.3908 -12.3684 -12.3405 -12.3177
   -12.3066 -12.2957 -12.2605 -12.2315 -12.2266 -12.1280 -12.1171 -12.1116
   -12.0754 -12.0130  -7.9439  -7.6627  -6.1966  -6.0540  -6.0164  -5.9649
    -5.9250  -5.9030  -5.8733  -5.8316  -5.8037  -5.7461  -5.6876  -5.6200
    -5.6089  -5.5342  -5.3531  -5.2793  -5.2527  -5.2219  -5.1934  -5.1689
    -5.1449  -4.8530  -4.8359  -4.6922  -4.6438  -4.6063  -4.5481  -4.5108
    -4.4909  -4.4320  -4.3814  -4.3180  -4.2988  -4.2386  -4.2280  -4.1962
    -4.1885  -4.1642  -4.1164  -4.0925  -3.9543  -3.9439  -3.7865  -3.6674
    -3.6307  -3.5772  -3.4335  -3.3731  -3.3643  -3.3322  -3.3005  -3.2838
    -3.2811  -3.2585  -3.2424  -3.2313  -3.2175  -3.1997  -3.1770  -3.1401
    -3.0840  -3.0758  -3.0500  -3.0184  -3.0045  -2.9629  -2.8461  -2.8103
    -2.7509  -2.7292  -2.7225  -2.6554  -2.6388  -2.5621  -2.5188  -2.4650
    -2.3922  -2.3325  -2.3125  -2.2940  -2.2438  -2.2121  -2.1712  -2.1488
    -2.1269  -2.1021  -2.0738  -2.0450  -2.0169  -1.9811  -1.9657  -1.9561
    -1.9353  -1.9099  -1.9001  -1.8788  -1.8697  -1.8591  -1.8503  -1.8415
    -1.8117  -1.8004  -1.7713  -1.7362  -1.7100  -1.6929  -1.6629  -1.6412
    -1.6243  -1.6028  -1.5357  -1.5190  -1.4733  -1.4314  -1.4035  -1.3263
    -1.2914  -1.2278  -1.1583  -1.1364  -1.0940  -1.0565  -1.0230  -0.9926
    -0.8072  -0.7911  -0.6945  -0.6928  -0.6556  -0.6491  -0.5972  -0.5920
    -0.5495  -0.4131  -0.2794  -0.2643  -0.1733  -0.1208  -0.0733   0.0951
     0.1909   1.3244   1.5821

     occupation numbers 
     1.0000   1.0000   1.0000   1.0000   1.0000   1.0000   1.0000   1.0000
     1.0000   1.0000   1.0000   1.0000   1.0000   1.0000   1.0000   1.0000
     1.0000   1.0000   1.0000   1.0000   1.0000   1.0000   1.0000   1.0000
     1.0000   1.0000   1.0000   1.0000   1.0000   1.0000   1.0000   1.0000
     1.0000   1.0000   1.0000   1.0000   1.0000   1.0000   1.0000   1.0000
     1.0000   1.0000   1.0000   1.0000   1.0000   1.0000   1.0000   1.0000
     1.0000   1.0000   1.0000   1.0000   1.0000   1.0000   1.0000   1.0000
     1.0000   1.0000   1.0000   1.0000   1.0000   1.0000   1.0000   1.0000
     1.0000   1.0000   1.0000   1.0000   1.0000   1.0000   1.0000   1.0000
     1.0000   1.0000   1.0000   1.0000   1.0000   1.0000   1.0000   1.0000
     1.0000   1.0000   1.0000   1.0000   1.0000   1.0000   1.0000   1.0000
     1.0000   1.0000   1.0000   1.0000   1.0000   1.0000   1.0000   1.0000
     1.0000   1.0000   1.0000   1.0000   1.0000   1.0000   1.0000   1.0000
     1.0000   1.0000   1.0000   1.0000   1.0000   1.0000   1.0000   1.0000
     1.0000   1.0000   1.0000   1.0000   1.0000   1.0000   1.0000   1.0000
     1.0000   1.0000   1.0000   1.0000   1.0000   1.0000   1.0000   1.0000
     1.0000   1.0000   1.0000   1.0000   1.0000   1.0000   1.0000   1.0000
     1.0000   1.0000   1.0000   1.0000   1.0000   1.0000   1.0000   1.0000
     1.0000   1.0000   1.0000   1.0000   1.0000   1.0000   1.0000   1.0000
     1.0000   1.0000   1.0000   1.0000   1.0000   1.0000   1.0000   1.0000
     1.0000   1.0000   1.0000   1.0000   1.0000   1.0000   1.0000   1.0000
     1.0000   1.0000   1.0000   1.0000   1.0000   1.0000   1.0000   1.0000
     1.0000   1.0000   1.0000   1.0000   1.0000   1.0000   1.0000   1.0000
     1.0000   1.0000   1.0000   1.0000   1.0000   1.0000   1.0000   1.0000
     1.0000   1.0000   1.0000   1.0000   1.0000   1.0000   1.0000   1.0000
     1.0000   1.0000   1.0000   1.0000   1.0000   1.0000   1.0000   1.0000
     1.0000   1.0000   1.0000   1.0000   1.0000   1.0000   1.0000   1.0000
     1.0000   1.0000   1.0000   1.0000   1.0000   1.0000   1.0000   1.0000
     1.0000   1.0000   1.0000   1.0000   1.0000   1.0000   1.0000   1.0000
     1.0000   1.0000   1.0000   1.0000   1.0000   1.0000   1.0000   1.0000
     1.0000   1.0000   1.0000

 ------ SPIN DOWN ----------


          k = 0.0000 0.0000 0.0000 (112117 PWs)   bands (ev):

   -73.8097 -73.8052 -73.8023 -73.8004 -73.7983 -73.7975 -73.7942 -73.7919
   -73.7896 -73.7848 -73.7838 -73.7819 -73.7779 -73.7369 -73.7274 -73.7244
   -38.2118 -38.2107 -38.2087 -38.1526 -38.1519 -38.1478 -38.1432 -38.1420
   -38.1307 -38.0516 -38.0465 -38.0439 -38.0433 -38.0373 -38.0343 -38.0330
   -38.0202 -38.0183 -38.0165 -38.0152 -38.0125 -38.0123 -38.0109 -38.0080
   -38.0048 -38.0016 -38.0001 -37.9952 -37.9884 -37.9848 -37.9823 -37.9809
   -37.9794 -37.9722 -37.9481 -37.9472 -37.9443 -37.9406 -37.9311 -37.9208
   -37.9147 -37.9037 -37.9016 -37.9000 -37.8975 -37.8868 -37.8543 -37.8523
   -21.6047 -15.5069 -14.5906 -13.7016 -13.6871 -13.6671 -13.6384 -13.6245
   -13.6153 -12.9752 -12.7009 -12.6702 -12.6462 -12.6317 -12.5967 -12.5760
   -12.5283 -12.4995 -12.4638 -12.4510 -12.4394 -12.4376 -12.4166 -12.4150
   -12.4113 -12.2161 -12.1940 -12.1843 -12.1676 -12.1519 -12.1481 -12.1438
   -12.1418 -12.1394  -7.9419  -7.6610  -6.3318  -6.3186  -6.3010  -6.2719
    -6.1876  -5.5959  -5.5642  -5.5403  -5.5246  -5.5204  -5.4879  -5.4337
    -5.4009  -5.3822  -5.3069  -5.2758  -5.2557  -5.0948  -5.0857  -5.0578
    -5.0531  -5.0491  -5.0483  -4.9923  -4.9917  -4.9833  -4.5072  -4.4279
    -4.3879  -4.3389  -4.2853  -4.2762  -4.2602  -4.2390  -4.2257  -4.1721
    -4.0730  -4.0023  -3.9713  -3.9562  -3.9299  -3.7843  -3.7517  -3.7478
    -3.6941  -3.6720  -3.6690  -3.6012  -3.5039  -3.4642  -3.3989  -3.3952
    -3.3678  -3.3608  -3.2731  -3.2152  -3.1889  -3.1751  -3.1533  -3.1355
    -3.1227  -3.1179  -3.1035  -3.1010  -3.0364  -2.9208  -2.7885  -2.7445
    -2.6841  -2.6628  -2.6157  -2.5814  -2.5687  -2.5010  -2.4875  -2.4585
    -2.4536  -2.4265  -2.4235  -2.4189  -2.3862  -2.3257  -2.2699  -2.1831
    -2.1121  -2.0500  -1.9599  -1.9566  -1.9256  -1.9121  -1.8609  -1.8249
    -1.7968  -1.7767  -1.7699  -1.7593  -1.7531  -1.7434  -1.7404  -1.7364
    -1.7280  -1.6954  -1.6941  -1.6519  -1.6424  -1.6303  -1.6277  -1.5941
    -1.5694  -1.5218  -1.5114  -1.4847  -1.4439  -1.4047  -1.3653  -1.3477
    -1.2861  -1.2593  -1.1803  -1.0836  -1.0350  -1.0225  -1.0054  -0.9866
    -0.7183  -0.6829  -0.6787  -0.6784  -0.6654  -0.6607  -0.6386  -0.6321
    -0.6157  -0.3883  -0.3770  -0.3671  -0.3518  -0.3351  -0.3256  -0.2898
     0.2231   1.3074   1.6800

     occupation numbers 
     1.0000   1.0000   1.0000   1.0000   1.0000   1.0000   1.0000   1.0000
     1.0000   1.0000   1.0000   1.0000   1.0000   1.0000   1.0000   1.0000
     1.0000   1.0000   1.0000   1.0000   1.0000   1.0000   1.0000   1.0000
     1.0000   1.0000   1.0000   1.0000   1.0000   1.0000   1.0000   1.0000
     1.0000   1.0000   1.0000   1.0000   1.0000   1.0000   1.0000   1.0000
     1.0000   1.0000   1.0000   1.0000   1.0000   1.0000   1.0000   1.0000
     1.0000   1.0000   1.0000   1.0000   1.0000   1.0000   1.0000   1.0000
     1.0000   1.0000   1.0000   1.0000   1.0000   1.0000   1.0000   1.0000
     1.0000   1.0000   1.0000   1.0000   1.0000   1.0000   1.0000   1.0000
     1.0000   1.0000   1.0000   1.0000   1.0000   1.0000   1.0000   1.0000
     1.0000   1.0000   1.0000   1.0000   1.0000   1.0000   1.0000   1.0000
     1.0000   1.0000   1.0000   1.0000   1.0000   1.0000   1.0000   1.0000
     1.0000   1.0000   1.0000   1.0000   1.0000   1.0000   1.0000   1.0000
     1.0000   1.0000   1.0000   1.0000   1.0000   1.0000   1.0000   1.0000
     1.0000   1.0000   1.0000   1.0000   1.0000   1.0000   1.0000   1.0000
     1.0000   1.0000   1.0000   1.0000   1.0000   1.0000   1.0000   1.0000
     1.0000   1.0000   1.0000   1.0000   1.0000   1.0000   1.0000   1.0000
     1.0000   1.0000   1.0000   1.0000   1.0000   1.0000   1.0000   1.0000
     1.0000   1.0000   1.0000   1.0000   1.0000   1.0000   1.0000   1.0000
     1.0000   1.0000   1.0000   1.0000   1.0000   1.0000   1.0000   1.0000
     1.0000   1.0000   1.0000   1.0000   1.0000   1.0000   1.0000   1.0000
     1.0000   1.0000   1.0000   1.0000   1.0000   1.0000   1.0000   1.0000
     1.0000   1.0000   1.0000   1.0000   1.0000   1.0000   1.0000   1.0000
     1.0000   1.0000   1.0000   1.0000   1.0000   1.0000   1.0000   1.0000
     1.0000   1.0000   1.0000   1.0000   1.0000   1.0000   1.0000   1.0000
     1.0000   1.0000   1.0000   1.0000   1.0000   1.0000   1.0000   1.0000
     1.0000   1.0000   1.0000   1.0000   1.0000   1.0000   1.0000   1.0000
     1.0000   1.0000   1.0000   1.0000   1.0000   1.0000   1.0000   1.0000
     1.0000   1.0000   1.0000   1.0000   1.0000   1.0000   1.0000   1.0000
     1.0000   1.0000   1.0000   1.0000   1.0000   1.0000   1.0000   1.0000
     1.0000   1.0000   0.0000

          k = 0.0000 0.2309 0.0000 (112171 PWs)   bands (ev):

   -73.8096 -73.8052 -73.8025 -73.8003 -73.7984 -73.7972 -73.7941 -73.7918
   -73.7897 -73.7848 -73.7838 -73.7820 -73.7779 -73.7369 -73.7274 -73.7244
   -38.2070 -38.2052 -38.2022 -38.1562 -38.1547 -38.1533 -38.1461 -38.1356
   -38.1275 -38.0922 -38.0668 -38.0655 -38.0422 -38.0383 -38.0335 -38.0226
   -38.0212 -38.0160 -38.0131 -38.0118 -38.0090 -38.0061 -38.0046 -38.0011
   -37.9951 -37.9904 -37.9899 -37.9864 -37.9838 -37.9825 -37.9798 -37.9790
   -37.9751 -37.9721 -37.9512 -37.9488 -37.9447 -37.9415 -37.9313 -37.9217
   -37.9212 -37.9103 -37.9064 -37.8985 -37.8946 -37.8853 -37.8600 -37.8549
   -21.6047 -15.5069 -14.5489 -13.9687 -13.7945 -13.7785 -13.4844 -13.4546
   -13.3177 -12.9591 -12.7958 -12.7278 -12.6887 -12.6805 -12.6485 -12.5788
   -12.5478 -12.5349 -12.4875 -12.4708 -12.4496 -12.4289 -12.4179 -12.3095
   -12.2785 -12.2561 -12.2377 -12.2083 -12.1788 -12.1684 -12.1615 -12.1467
   -12.0897 -12.0740  -7.9419  -7.6610  -6.2707  -6.2601  -6.2296  -6.2267
    -6.1833  -5.6548  -5.6354  -5.6188  -5.5487  -5.5101  -5.4816  -5.4628
    -5.4186  -5.4083  -5.3859  -5.3133  -5.3090  -5.2785  -5.2618  -5.0644
    -5.0596  -5.0088  -4.9950  -4.9468  -4.7316  -4.7269  -4.5759  -4.4689
    -4.4401  -4.3765  -4.3137  -4.2765  -4.1988  -4.1530  -4.1380  -4.1119
    -4.0918  -4.0536  -4.0355  -3.9936  -3.9774  -3.9031  -3.9007  -3.8931
    -3.6558  -3.5629  -3.5315  -3.4978  -3.4582  -3.4345  -3.4295  -3.3758
    -3.3566  -3.3055  -3.2847  -3.2710  -3.2589  -3.1989  -3.1849  -3.1418
    -3.0699  -2.9768  -2.9330  -2.9178  -2.8389  -2.7715  -2.7518  -2.7370
    -2.7113  -2.7035  -2.6879  -2.6643  -2.6387  -2.6223  -2.5780  -2.5339
    -2.4974  -2.4912  -2.4600  -2.4254  -2.3439  -2.2979  -2.1821  -2.1527
    -2.1003  -2.0571  -2.0045  -1.9894  -1.9637  -1.9440  -1.9181  -1.8964
    -1.8773  -1.8485  -1.8360  -1.8119  -1.7851  -1.7554  -1.7428  -1.7305
    -1.7138  -1.6904  -1.6741  -1.6479  -1.6319  -1.5958  -1.5743  -1.5345
    -1.5186  -1.4839  -1.4723  -1.4442  -1.4243  -1.3602  -1.3276  -1.3146
    -1.2892  -1.2677  -1.2284  -1.2113  -1.1462  -1.0577  -1.0348  -1.0056
    -0.8834  -0.7694  -0.7510  -0.7345  -0.5589  -0.5548  -0.5377  -0.5237
    -0.5107  -0.4978  -0.3983  -0.3675  -0.3517  -0.2379  -0.1610  -0.1306
     0.2051   1.3133   1.7111

     occupation numbers 
     1.0000   1.0000   1.0000   1.0000   1.0000   1.0000   1.0000   1.0000
     1.0000   1.0000   1.0000   1.0000   1.0000   1.0000   1.0000   1.0000
     1.0000   1.0000   1.0000   1.0000   1.0000   1.0000   1.0000   1.0000
     1.0000   1.0000   1.0000   1.0000   1.0000   1.0000   1.0000   1.0000
     1.0000   1.0000   1.0000   1.0000   1.0000   1.0000   1.0000   1.0000
     1.0000   1.0000   1.0000   1.0000   1.0000   1.0000   1.0000   1.0000
     1.0000   1.0000   1.0000   1.0000   1.0000   1.0000   1.0000   1.0000
     1.0000   1.0000   1.0000   1.0000   1.0000   1.0000   1.0000   1.0000
     1.0000   1.0000   1.0000   1.0000   1.0000   1.0000   1.0000   1.0000
     1.0000   1.0000   1.0000   1.0000   1.0000   1.0000   1.0000   1.0000
     1.0000   1.0000   1.0000   1.0000   1.0000   1.0000   1.0000   1.0000
     1.0000   1.0000   1.0000   1.0000   1.0000   1.0000   1.0000   1.0000
     1.0000   1.0000   1.0000   1.0000   1.0000   1.0000   1.0000   1.0000
     1.0000   1.0000   1.0000   1.0000   1.0000   1.0000   1.0000   1.0000
     1.0000   1.0000   1.0000   1.0000   1.0000   1.0000   1.0000   1.0000
     1.0000   1.0000   1.0000   1.0000   1.0000   1.0000   1.0000   1.0000
     1.0000   1.0000   1.0000   1.0000   1.0000   1.0000   1.0000   1.0000
     1.0000   1.0000   1.0000   1.0000   1.0000   1.0000   1.0000   1.0000
     1.0000   1.0000   1.0000   1.0000   1.0000   1.0000   1.0000   1.0000
     1.0000   1.0000   1.0000   1.0000   1.0000   1.0000   1.0000   1.0000
     1.0000   1.0000   1.0000   1.0000   1.0000   1.0000   1.0000   1.0000
     1.0000   1.0000   1.0000   1.0000   1.0000   1.0000   1.0000   1.0000
     1.0000   1.0000   1.0000   1.0000   1.0000   1.0000   1.0000   1.0000
     1.0000   1.0000   1.0000   1.0000   1.0000   1.0000   1.0000   1.0000
     1.0000   1.0000   1.0000   1.0000   1.0000   1.0000   1.0000   1.0000
     1.0000   1.0000   1.0000   1.0000   1.0000   1.0000   1.0000   1.0000
     1.0000   1.0000   1.0000   1.0000   1.0000   1.0000   1.0000   1.0000
     1.0000   1.0000   1.0000   1.0000   1.0000   1.0000   1.0000   1.0000
     1.0000   1.0000   1.0000   1.0000   1.0000   1.0000   1.0000   1.0000
     1.0000   1.0000   1.0000   1.0000   1.0000   1.0000   1.0000   1.0000
     1.0000   1.0000   0.0000

          k = 0.0000 0.4619 0.0000 (112236 PWs)   bands (ev):

   -73.8095 -73.8053 -73.8028 -73.8002 -73.7986 -73.7970 -73.7940 -73.7917
   -73.7899 -73.7848 -73.7838 -73.7820 -73.7779 -73.7369 -73.7274 -73.7244
   -38.1965 -38.1923 -38.1806 -38.1735 -38.1684 -38.1540 -38.1504 -38.1344
   -38.1199 -38.1128 -38.0918 -38.0891 -38.0522 -38.0459 -38.0386 -38.0289
   -38.0229 -38.0115 -38.0059 -38.0030 -37.9987 -37.9975 -37.9943 -37.9933
   -37.9905 -37.9873 -37.9870 -37.9834 -37.9798 -37.9781 -37.9721 -37.9690
   -37.9627 -37.9563 -37.9543 -37.9462 -37.9408 -37.9370 -37.9346 -37.9293
   -37.9280 -37.9181 -37.9134 -37.9049 -37.8947 -37.8799 -37.8740 -37.8583
   -21.6047 -15.5069 -14.4271 -14.2258 -13.8640 -13.8466 -13.2551 -13.2233
   -13.0106 -12.9919 -12.9632 -12.9092 -12.8260 -12.7222 -12.6978 -12.6821
   -12.5130 -12.5056 -12.4540 -12.4431 -12.4297 -12.4189 -12.3758 -12.3621
   -12.3439 -12.2779 -12.2088 -12.1951 -12.1708 -12.1526 -12.1509 -12.1465
   -12.0505 -12.0332  -7.9419  -7.6610  -6.1960  -6.1157  -6.1012  -6.0825
    -6.0166  -5.8634  -5.8514  -5.8264  -5.7038  -5.5237  -5.4910  -5.4781
    -5.4510  -5.4382  -5.4292  -5.3833  -5.3659  -5.3164  -5.2931  -5.0595
    -5.0542  -5.0215  -5.0021  -4.7984  -4.6170  -4.5123  -4.4744  -4.4308
    -4.3862  -4.3665  -4.3405  -4.3027  -4.2363  -4.2215  -4.1837  -4.1520
    -4.1211  -4.1101  -4.0955  -4.0691  -4.0590  -4.0441  -4.0339  -3.6796
    -3.5622  -3.5000  -3.4678  -3.4331  -3.4087  -3.3790  -3.3594  -3.3022
    -3.2814  -3.2719  -3.2535  -3.2287  -3.2111  -3.1790  -3.1489  -3.0986
    -3.0541  -3.0420  -2.9975  -2.9461  -2.9284  -2.9006  -2.8379  -2.7563
    -2.7183  -2.6886  -2.6397  -2.6235  -2.5882  -2.5493  -2.5225  -2.4755
    -2.4352  -2.4209  -2.3851  -2.3062  -2.2691  -2.2425  -2.2333  -2.1657
    -2.0988  -2.0780  -2.0298  -2.0044  -1.9976  -1.9862  -1.9658  -1.9302
    -1.9137  -1.8926  -1.8699  -1.8598  -1.8450  -1.8329  -1.8243  -1.8174
    -1.7894  -1.7557  -1.7185  -1.6996  -1.6776  -1.6486  -1.6185  -1.6049
    -1.5768  -1.5427  -1.5117  -1.4820  -1.4149  -1.3769  -1.2924  -1.2749
    -1.2196  -1.1911  -1.1809  -1.1346  -1.1087  -1.0873  -1.0343  -0.9914
    -0.9624  -0.8801  -0.7232  -0.7083  -0.6307  -0.6108  -0.4740  -0.4457
    -0.4340  -0.4224  -0.3887  -0.3653  -0.2943  -0.0776   0.0110   0.0407
     0.1587   1.3220   1.7621

     occupation numbers 
     1.0000   1.0000   1.0000   1.0000   1.0000   1.0000   1.0000   1.0000
     1.0000   1.0000   1.0000   1.0000   1.0000   1.0000   1.0000   1.0000
     1.0000   1.0000   1.0000   1.0000   1.0000   1.0000   1.0000   1.0000
     1.0000   1.0000   1.0000   1.0000   1.0000   1.0000   1.0000   1.0000
     1.0000   1.0000   1.0000   1.0000   1.0000   1.0000   1.0000   1.0000
     1.0000   1.0000   1.0000   1.0000   1.0000   1.0000   1.0000   1.0000
     1.0000   1.0000   1.0000   1.0000   1.0000   1.0000   1.0000   1.0000
     1.0000   1.0000   1.0000   1.0000   1.0000   1.0000   1.0000   1.0000
     1.0000   1.0000   1.0000   1.0000   1.0000   1.0000   1.0000   1.0000
     1.0000   1.0000   1.0000   1.0000   1.0000   1.0000   1.0000   1.0000
     1.0000   1.0000   1.0000   1.0000   1.0000   1.0000   1.0000   1.0000
     1.0000   1.0000   1.0000   1.0000   1.0000   1.0000   1.0000   1.0000
     1.0000   1.0000   1.0000   1.0000   1.0000   1.0000   1.0000   1.0000
     1.0000   1.0000   1.0000   1.0000   1.0000   1.0000   1.0000   1.0000
     1.0000   1.0000   1.0000   1.0000   1.0000   1.0000   1.0000   1.0000
     1.0000   1.0000   1.0000   1.0000   1.0000   1.0000   1.0000   1.0000
     1.0000   1.0000   1.0000   1.0000   1.0000   1.0000   1.0000   1.0000
     1.0000   1.0000   1.0000   1.0000   1.0000   1.0000   1.0000   1.0000
     1.0000   1.0000   1.0000   1.0000   1.0000   1.0000   1.0000   1.0000
     1.0000   1.0000   1.0000   1.0000   1.0000   1.0000   1.0000   1.0000
     1.0000   1.0000   1.0000   1.0000   1.0000   1.0000   1.0000   1.0000
     1.0000   1.0000   1.0000   1.0000   1.0000   1.0000   1.0000   1.0000
     1.0000   1.0000   1.0000   1.0000   1.0000   1.0000   1.0000   1.0000
     1.0000   1.0000   1.0000   1.0000   1.0000   1.0000   1.0000   1.0000
     1.0000   1.0000   1.0000   1.0000   1.0000   1.0000   1.0000   1.0000
     1.0000   1.0000   1.0000   1.0000   1.0000   1.0000   1.0000   1.0000
     1.0000   1.0000   1.0000   1.0000   1.0000   1.0000   1.0000   1.0000
     1.0000   1.0000   1.0000   1.0000   1.0000   1.0000   1.0000   1.0000
     1.0000   1.0000   1.0000   1.0000   1.0000   1.0000   1.0000   1.0000
     1.0000   1.0000   1.0000   1.0000   1.0000   1.0000   1.0000   1.0000
     1.0000   1.0000   0.0000

          k = 0.2000 0.3464 0.0000 (112231 PWs)   bands (ev):

   -73.8095 -73.8055 -73.8026 -73.8003 -73.7983 -73.7970 -73.7943 -73.7919
   -73.7896 -73.7849 -73.7837 -73.7820 -73.7779 -73.7369 -73.7274 -73.7244
   -38.2008 -38.1917 -38.1910 -38.1682 -38.1630 -38.1541 -38.1441 -38.1370
   -38.1222 -38.1116 -38.1009 -38.0659 -38.0489 -38.0434 -38.0391 -38.0276
   -38.0228 -38.0181 -38.0128 -38.0101 -38.0067 -38.0012 -37.9945 -37.9928
   -37.9874 -37.9841 -37.9826 -37.9804 -37.9781 -37.9755 -37.9722 -37.9710
   -37.9656 -37.9615 -37.9531 -37.9477 -37.9449 -37.9422 -37.9333 -37.9290
   -37.9225 -37.9161 -37.9131 -37.9047 -37.8917 -37.8848 -37.8696 -37.8571
   -21.6047 -15.5069 -14.4670 -14.0940 -14.0528 -13.5587 -13.5566 -13.1645
   -13.1124 -13.0010 -12.9272 -12.8009 -12.7819 -12.7021 -12.6656 -12.5964
   -12.5870 -12.5698 -12.5647 -12.4496 -12.4180 -12.3835 -12.3695 -12.3057
   -12.2838 -12.2655 -12.2460 -12.2256 -12.2148 -12.1481 -12.1436 -12.1010
   -12.0898 -12.0296  -7.9419  -7.6610  -6.1982  -6.1671  -6.1400  -6.1158
    -6.0969  -5.7496  -5.7266  -5.7116  -5.6712  -5.6359  -5.5939  -5.5554
    -5.4967  -5.4651  -5.3464  -5.3239  -5.2759  -5.2666  -5.2345  -5.2177
    -5.0873  -4.8952  -4.8808  -4.8056  -4.7445  -4.5884  -4.4787  -4.4534
    -4.3865  -4.3571  -4.3293  -4.2938  -4.2685  -4.2551  -4.2250  -4.2171
    -4.1639  -4.1139  -4.0990  -4.0839  -4.0485  -3.7529  -3.7258  -3.7165
    -3.7088  -3.6836  -3.5992  -3.4857  -3.4181  -3.3863  -3.3410  -3.3103
    -3.2777  -3.2358  -3.2133  -3.1945  -3.1581  -3.1420  -3.0902  -3.0832
    -3.0288  -2.9968  -2.9610  -2.9397  -2.9315  -2.9139  -2.8992  -2.8866
    -2.7898  -2.7148  -2.6849  -2.6379  -2.6001  -2.5348  -2.4996  -2.4668
    -2.4510  -2.4214  -2.3761  -2.3505  -2.3002  -2.2049  -2.1672  -2.1500
    -2.1164  -2.1150  -2.0780  -2.0677  -1.9930  -1.9775  -1.9613  -1.9337
    -1.9126  -1.8886  -1.8647  -1.8415  -1.8257  -1.8143  -1.7927  -1.7642
    -1.7199  -1.7060  -1.7008  -1.6596  -1.6529  -1.6059  -1.5781  -1.5644
    -1.5561  -1.5298  -1.5178  -1.4903  -1.4107  -1.3788  -1.3643  -1.3514
    -1.2757  -1.2120  -1.1960  -1.1718  -1.1450  -1.1004  -1.0192  -0.9928
    -0.8639  -0.8323  -0.6704  -0.6605  -0.6264  -0.6171  -0.6037  -0.5288
    -0.5201  -0.4147  -0.3638  -0.2453  -0.1961  -0.1868  -0.1386   0.0846
     0.1704   1.3357   1.7325

     occupation numbers 
     1.0000   1.0000   1.0000   1.0000   1.0000   1.0000   1.0000   1.0000
     1.0000   1.0000   1.0000   1.0000   1.0000   1.0000   1.0000   1.0000
     1.0000   1.0000   1.0000   1.0000   1.0000   1.0000   1.0000   1.0000
     1.0000   1.0000   1.0000   1.0000   1.0000   1.0000   1.0000   1.0000
     1.0000   1.0000   1.0000   1.0000   1.0000   1.0000   1.0000   1.0000
     1.0000   1.0000   1.0000   1.0000   1.0000   1.0000   1.0000   1.0000
     1.0000   1.0000   1.0000   1.0000   1.0000   1.0000   1.0000   1.0000
     1.0000   1.0000   1.0000   1.0000   1.0000   1.0000   1.0000   1.0000
     1.0000   1.0000   1.0000   1.0000   1.0000   1.0000   1.0000   1.0000
     1.0000   1.0000   1.0000   1.0000   1.0000   1.0000   1.0000   1.0000
     1.0000   1.0000   1.0000   1.0000   1.0000   1.0000   1.0000   1.0000
     1.0000   1.0000   1.0000   1.0000   1.0000   1.0000   1.0000   1.0000
     1.0000   1.0000   1.0000   1.0000   1.0000   1.0000   1.0000   1.0000
     1.0000   1.0000   1.0000   1.0000   1.0000   1.0000   1.0000   1.0000
     1.0000   1.0000   1.0000   1.0000   1.0000   1.0000   1.0000   1.0000
     1.0000   1.0000   1.0000   1.0000   1.0000   1.0000   1.0000   1.0000
     1.0000   1.0000   1.0000   1.0000   1.0000   1.0000   1.0000   1.0000
     1.0000   1.0000   1.0000   1.0000   1.0000   1.0000   1.0000   1.0000
     1.0000   1.0000   1.0000   1.0000   1.0000   1.0000   1.0000   1.0000
     1.0000   1.0000   1.0000   1.0000   1.0000   1.0000   1.0000   1.0000
     1.0000   1.0000   1.0000   1.0000   1.0000   1.0000   1.0000   1.0000
     1.0000   1.0000   1.0000   1.0000   1.0000   1.0000   1.0000   1.0000
     1.0000   1.0000   1.0000   1.0000   1.0000   1.0000   1.0000   1.0000
     1.0000   1.0000   1.0000   1.0000   1.0000   1.0000   1.0000   1.0000
     1.0000   1.0000   1.0000   1.0000   1.0000   1.0000   1.0000   1.0000
     1.0000   1.0000   1.0000   1.0000   1.0000   1.0000   1.0000   1.0000
     1.0000   1.0000   1.0000   1.0000   1.0000   1.0000   1.0000   1.0000
     1.0000   1.0000   1.0000   1.0000   1.0000   1.0000   1.0000   1.0000
     1.0000   1.0000   1.0000   1.0000   1.0000   1.0000   1.0000   1.0000
     1.0000   1.0000   1.0000   1.0000   1.0000   1.0000   1.0000   1.0000
     1.0000   1.0000   0.0000

          k = 0.2000 0.5774 0.0000 (112237 PWs)   bands (ev):

   -73.8094 -73.8055 -73.8028 -73.8002 -73.7984 -73.7970 -73.7941 -73.7918
   -73.7898 -73.7848 -73.7837 -73.7820 -73.7779 -73.7369 -73.7274 -73.7244
   -38.1916 -38.1846 -38.1759 -38.1718 -38.1660 -38.1621 -38.1540 -38.1388
   -38.1347 -38.1186 -38.0813 -38.0800 -38.0721 -38.0406 -38.0369 -38.0303
   -38.0249 -38.0185 -38.0092 -38.0056 -37.9995 -37.9958 -37.9939 -37.9919
   -37.9908 -37.9889 -37.9842 -37.9802 -37.9777 -37.9720 -37.9648 -37.9608
   -37.9557 -37.9514 -37.9491 -37.9462 -37.9451 -37.9375 -37.9338 -37.9302
   -37.9271 -37.9202 -37.9160 -37.9119 -37.9001 -37.8825 -37.8702 -37.8617
   -21.6047 -15.5069 -14.3272 -14.2853 -14.1073 -13.5876 -13.2916 -13.2867
   -12.9432 -12.9399 -12.8809 -12.8457 -12.8334 -12.7955 -12.7860 -12.6506
   -12.6234 -12.5955 -12.4839 -12.4773 -12.3756 -12.3641 -12.3505 -12.3172
   -12.3027 -12.2909 -12.2514 -12.2270 -12.2259 -12.1239 -12.1139 -12.1115
   -12.0727 -12.0101  -7.9419  -7.6610  -6.1945  -6.0407  -5.9939  -5.9772
    -5.9106  -5.8855  -5.8662  -5.8395  -5.8009  -5.7356  -5.6773  -5.6139
    -5.6054  -5.5327  -5.3537  -5.2560  -5.2460  -5.2090  -5.1939  -5.1618
    -5.1457  -4.8464  -4.8227  -4.7391  -4.6227  -4.5666  -4.5369  -4.5097
    -4.4641  -4.4071  -4.3876  -4.3076  -4.3013  -4.2311  -4.2239  -4.2038
    -4.1776  -4.1567  -4.1144  -4.0880  -3.9448  -3.9414  -3.7807  -3.6523
    -3.6346  -3.5575  -3.4228  -3.3789  -3.3463  -3.3136  -3.2947  -3.2750
    -3.2604  -3.2514  -3.2332  -3.2236  -3.2061  -3.1912  -3.1312  -3.1125
    -3.0879  -3.0700  -3.0521  -3.0201  -2.9885  -2.9183  -2.8634  -2.8079
    -2.7257  -2.6969  -2.6742  -2.6518  -2.5950  -2.5394  -2.4900  -2.4383
    -2.3806  -2.3226  -2.3102  -2.2960  -2.2408  -2.1860  -2.1628  -2.1204
    -2.1045  -2.0895  -2.0642  -2.0424  -2.0021  -1.9693  -1.9497  -1.9386
    -1.9202  -1.9009  -1.8815  -1.8650  -1.8571  -1.8438  -1.8338  -1.8239
    -1.8084  -1.7876  -1.7655  -1.7268  -1.6960  -1.6715  -1.6542  -1.6316
    -1.5982  -1.5569  -1.5392  -1.4868  -1.4681  -1.4534  -1.3885  -1.3164
    -1.2624  -1.1810  -1.1489  -1.1300  -1.0845  -1.0685  -0.9950  -0.9750
    -0.8023  -0.7873  -0.6909  -0.6786  -0.6456  -0.6313  -0.5813  -0.5703
    -0.5522  -0.3879  -0.2673  -0.2580  -0.1758  -0.1127  -0.0524   0.1260
     0.2013   1.3439   1.7454

     occupation numbers 
     1.0000   1.0000   1.0000   1.0000   1.0000   1.0000   1.0000   1.0000
     1.0000   1.0000   1.0000   1.0000   1.0000   1.0000   1.0000   1.0000
     1.0000   1.0000   1.0000   1.0000   1.0000   1.0000   1.0000   1.0000
     1.0000   1.0000   1.0000   1.0000   1.0000   1.0000   1.0000   1.0000
     1.0000   1.0000   1.0000   1.0000   1.0000   1.0000   1.0000   1.0000
     1.0000   1.0000   1.0000   1.0000   1.0000   1.0000   1.0000   1.0000
     1.0000   1.0000   1.0000   1.0000   1.0000   1.0000   1.0000   1.0000
     1.0000   1.0000   1.0000   1.0000   1.0000   1.0000   1.0000   1.0000
     1.0000   1.0000   1.0000   1.0000   1.0000   1.0000   1.0000   1.0000
     1.0000   1.0000   1.0000   1.0000   1.0000   1.0000   1.0000   1.0000
     1.0000   1.0000   1.0000   1.0000   1.0000   1.0000   1.0000   1.0000
     1.0000   1.0000   1.0000   1.0000   1.0000   1.0000   1.0000   1.0000
     1.0000   1.0000   1.0000   1.0000   1.0000   1.0000   1.0000   1.0000
     1.0000   1.0000   1.0000   1.0000   1.0000   1.0000   1.0000   1.0000
     1.0000   1.0000   1.0000   1.0000   1.0000   1.0000   1.0000   1.0000
     1.0000   1.0000   1.0000   1.0000   1.0000   1.0000   1.0000   1.0000
     1.0000   1.0000   1.0000   1.0000   1.0000   1.0000   1.0000   1.0000
     1.0000   1.0000   1.0000   1.0000   1.0000   1.0000   1.0000   1.0000
     1.0000   1.0000   1.0000   1.0000   1.0000   1.0000   1.0000   1.0000
     1.0000   1.0000   1.0000   1.0000   1.0000   1.0000   1.0000   1.0000
     1.0000   1.0000   1.0000   1.0000   1.0000   1.0000   1.0000   1.0000
     1.0000   1.0000   1.0000   1.0000   1.0000   1.0000   1.0000   1.0000
     1.0000   1.0000   1.0000   1.0000   1.0000   1.0000   1.0000   1.0000
     1.0000   1.0000   1.0000   1.0000   1.0000   1.0000   1.0000   1.0000
     1.0000   1.0000   1.0000   1.0000   1.0000   1.0000   1.0000   1.0000
     1.0000   1.0000   1.0000   1.0000   1.0000   1.0000   1.0000   1.0000
     1.0000   1.0000   1.0000   1.0000   1.0000   1.0000   1.0000   1.0000
     1.0000   1.0000   1.0000   1.0000   1.0000   1.0000   1.0000   1.0000
     1.0000   1.0000   1.0000   1.0000   1.0000   1.0000   1.0000   1.0000
     1.0000   1.0000   1.0000   1.0000   1.0000   1.0000   1.0000   1.0000
     1.0000   1.0000   0.0000

          k =-0.2000 0.1155 0.0000 (112171 PWs)   bands (ev):

   -73.8096 -73.8053 -73.8024 -73.8005 -73.7981 -73.7975 -73.7941 -73.7918
   -73.7897 -73.7848 -73.7838 -73.7819 -73.7779 -73.7369 -73.7274 -73.7244
   -38.2066 -38.2063 -38.2017 -38.1578 -38.1545 -38.1519 -38.1463 -38.1348
   -38.1277 -38.0916 -38.0677 -38.0655 -38.0422 -38.0384 -38.0333 -38.0241
   -38.0181 -38.0163 -38.0153 -38.0139 -38.0073 -38.0056 -38.0043 -38.0009
   -37.9951 -37.9902 -37.9886 -37.9872 -37.9840 -37.9827 -37.9804 -37.9786
   -37.9751 -37.9721 -37.9511 -37.9481 -37.9454 -37.9414 -37.9313 -37.9235
   -37.9197 -37.9097 -37.9056 -37.8992 -37.8952 -37.8851 -37.8594 -37.8555
   -21.6047 -15.5069 -14.5489 -13.9679 -13.7937 -13.7813 -13.4712 -13.4666
   -13.3180 -12.9595 -12.7830 -12.7487 -12.6844 -12.6747 -12.6507 -12.5795
   -12.5573 -12.5139 -12.4896 -12.4720 -12.4614 -12.4262 -12.4169 -12.3003
   -12.2877 -12.2551 -12.2379 -12.2065 -12.1803 -12.1688 -12.1619 -12.1454
   -12.0890 -12.0748  -7.9419  -7.6610  -6.2746  -6.2543  -6.2347  -6.2234
    -6.1833  -5.6638  -5.6277  -5.6150  -5.5395  -5.5215  -5.4812  -5.4614
    -5.4284  -5.4095  -5.3758  -5.3199  -5.3039  -5.2738  -5.2685  -5.0716
    -5.0551  -5.0073  -4.9929  -4.9434  -4.7318  -4.7282  -4.5583  -4.4995
    -4.4353  -4.3623  -4.3309  -4.2688  -4.1970  -4.1531  -4.1382  -4.1148
    -4.0916  -4.0568  -4.0325  -3.9883  -3.9757  -3.9070  -3.8969  -3.8883
    -3.6510  -3.5773  -3.5252  -3.4922  -3.4668  -3.4513  -3.4364  -3.3663
    -3.3577  -3.3053  -3.2867  -3.2695  -3.2502  -3.1966  -3.1854  -3.1448
    -3.0709  -2.9640  -2.9405  -2.9081  -2.8097  -2.7848  -2.7600  -2.7342
    -2.7117  -2.6992  -2.6868  -2.6767  -2.6585  -2.6309  -2.5767  -2.5343
    -2.4910  -2.4739  -2.4569  -2.4233  -2.3507  -2.2977  -2.1744  -2.1610
    -2.1095  -2.0615  -2.0086  -1.9881  -1.9597  -1.9492  -1.9187  -1.8948
    -1.8693  -1.8498  -1.8278  -1.8125  -1.7958  -1.7651  -1.7470  -1.7193
    -1.7003  -1.6900  -1.6707  -1.6490  -1.6394  -1.5945  -1.5606  -1.5391
    -1.5107  -1.4906  -1.4838  -1.4268  -1.4181  -1.3536  -1.3387  -1.3179
    -1.3010  -1.2673  -1.2396  -1.2104  -1.1444  -1.0674  -1.0318  -0.9927
    -0.8890  -0.7645  -0.7464  -0.7264  -0.5736  -0.5580  -0.5375  -0.5225
    -0.5060  -0.4971  -0.4009  -0.3707  -0.3461  -0.2369  -0.1604  -0.1327
     0.2037   1.3356   1.6855

     occupation numbers 
     1.0000   1.0000   1.0000   1.0000   1.0000   1.0000   1.0000   1.0000
     1.0000   1.0000   1.0000   1.0000   1.0000   1.0000   1.0000   1.0000
     1.0000   1.0000   1.0000   1.0000   1.0000   1.0000   1.0000   1.0000
     1.0000   1.0000   1.0000   1.0000   1.0000   1.0000   1.0000   1.0000
     1.0000   1.0000   1.0000   1.0000   1.0000   1.0000   1.0000   1.0000
     1.0000   1.0000   1.0000   1.0000   1.0000   1.0000   1.0000   1.0000
     1.0000   1.0000   1.0000   1.0000   1.0000   1.0000   1.0000   1.0000
     1.0000   1.0000   1.0000   1.0000   1.0000   1.0000   1.0000   1.0000
     1.0000   1.0000   1.0000   1.0000   1.0000   1.0000   1.0000   1.0000
     1.0000   1.0000   1.0000   1.0000   1.0000   1.0000   1.0000   1.0000
     1.0000   1.0000   1.0000   1.0000   1.0000   1.0000   1.0000   1.0000
     1.0000   1.0000   1.0000   1.0000   1.0000   1.0000   1.0000   1.0000
     1.0000   1.0000   1.0000   1.0000   1.0000   1.0000   1.0000   1.0000
     1.0000   1.0000   1.0000   1.0000   1.0000   1.0000   1.0000   1.0000
     1.0000   1.0000   1.0000   1.0000   1.0000   1.0000   1.0000   1.0000
     1.0000   1.0000   1.0000   1.0000   1.0000   1.0000   1.0000   1.0000
     1.0000   1.0000   1.0000   1.0000   1.0000   1.0000   1.0000   1.0000
     1.0000   1.0000   1.0000   1.0000   1.0000   1.0000   1.0000   1.0000
     1.0000   1.0000   1.0000   1.0000   1.0000   1.0000   1.0000   1.0000
     1.0000   1.0000   1.0000   1.0000   1.0000   1.0000   1.0000   1.0000
     1.0000   1.0000   1.0000   1.0000   1.0000   1.0000   1.0000   1.0000
     1.0000   1.0000   1.0000   1.0000   1.0000   1.0000   1.0000   1.0000
     1.0000   1.0000   1.0000   1.0000   1.0000   1.0000   1.0000   1.0000
     1.0000   1.0000   1.0000   1.0000   1.0000   1.0000   1.0000   1.0000
     1.0000   1.0000   1.0000   1.0000   1.0000   1.0000   1.0000   1.0000
     1.0000   1.0000   1.0000   1.0000   1.0000   1.0000   1.0000   1.0000
     1.0000   1.0000   1.0000   1.0000   1.0000   1.0000   1.0000   1.0000
     1.0000   1.0000   1.0000   1.0000   1.0000   1.0000   1.0000   1.0000
     1.0000   1.0000   1.0000   1.0000   1.0000   1.0000   1.0000   1.0000
     1.0000   1.0000   1.0000   1.0000   1.0000   1.0000   1.0000   1.0000
     1.0000   1.0000   0.0000

          k = 0.2000 0.1155 0.0000 (112171 PWs)   bands (ev):

   -73.8096 -73.8053 -73.8023 -73.8004 -73.7982 -73.7973 -73.7943 -73.7919
   -73.7896 -73.7849 -73.7837 -73.7820 -73.7779 -73.7369 -73.7274 -73.7244
   -38.2072 -38.2051 -38.2022 -38.1590 -38.1541 -38.1511 -38.1456 -38.1349
   -38.1283 -38.0918 -38.0679 -38.0653 -38.0423 -38.0373 -38.0347 -38.0240
   -38.0186 -38.0163 -38.0146 -38.0130 -38.0083 -38.0055 -38.0035 -38.0010
   -37.9954 -37.9901 -37.9891 -37.9858 -37.9837 -37.9828 -37.9817 -37.9785
   -37.9750 -37.9720 -37.9502 -37.9493 -37.9455 -37.9411 -37.9313 -37.9236
   -37.9193 -37.9093 -37.9062 -37.8992 -37.8950 -37.8854 -37.8613 -37.8537
   -21.6047 -15.5069 -14.5489 -13.9680 -13.7930 -13.7818 -13.4701 -13.4684
   -13.3173 -12.9596 -12.7829 -12.7480 -12.6838 -12.6763 -12.6511 -12.5793
   -12.5584 -12.5127 -12.4873 -12.4738 -12.4613 -12.4282 -12.4160 -12.2959
   -12.2876 -12.2579 -12.2410 -12.2021 -12.1858 -12.1665 -12.1643 -12.1425
   -12.0863 -12.0773  -7.9419  -7.6610  -6.2687  -6.2568  -6.2373  -6.2247
    -6.1833  -5.6566  -5.6332  -5.6117  -5.5394  -5.5267  -5.4802  -5.4630
    -5.4328  -5.4145  -5.3628  -5.3193  -5.3068  -5.2742  -5.2671  -5.0689
    -5.0621  -5.0057  -4.9961  -4.9376  -4.7331  -4.7285  -4.5521  -4.4994
    -4.4301  -4.3831  -4.3302  -4.2634  -4.1959  -4.1538  -4.1404  -4.1153
    -4.0911  -4.0477  -4.0321  -3.9950  -3.9747  -3.9043  -3.9006  -3.8906
    -3.6438  -3.5577  -3.5410  -3.4978  -3.4580  -3.4485  -3.4317  -3.3733
    -3.3637  -3.3008  -3.2915  -3.2738  -3.2423  -3.2028  -3.1881  -3.1387
    -3.0792  -2.9774  -2.9309  -2.8961  -2.8070  -2.7862  -2.7654  -2.7359
    -2.7228  -2.6996  -2.6883  -2.6771  -2.6456  -2.6183  -2.5693  -2.5375
    -2.5156  -2.4786  -2.4624  -2.4104  -2.3473  -2.2903  -2.1848  -2.1597
    -2.1034  -2.0623  -2.0064  -1.9793  -1.9542  -1.9424  -1.9105  -1.8967
    -1.8889  -1.8630  -1.8243  -1.8155  -1.7930  -1.7696  -1.7547  -1.7274
    -1.7009  -1.6805  -1.6669  -1.6428  -1.6240  -1.6056  -1.5797  -1.5269
    -1.5215  -1.4924  -1.4436  -1.4341  -1.4142  -1.3890  -1.3410  -1.3013
    -1.2967  -1.2859  -1.2352  -1.1944  -1.1487  -1.0497  -1.0330  -1.0080
    -0.8866  -0.7546  -0.7451  -0.7407  -0.5845  -0.5490  -0.5371  -0.5219
    -0.5087  -0.5013  -0.3968  -0.3722  -0.3411  -0.2378  -0.1565  -0.1364
     0.2044   1.3303   1.6923

     occupation numbers 
     1.0000   1.0000   1.0000   1.0000   1.0000   1.0000   1.0000   1.0000
     1.0000   1.0000   1.0000   1.0000   1.0000   1.0000   1.0000   1.0000
     1.0000   1.0000   1.0000   1.0000   1.0000   1.0000   1.0000   1.0000
     1.0000   1.0000   1.0000   1.0000   1.0000   1.0000   1.0000   1.0000
     1.0000   1.0000   1.0000   1.0000   1.0000   1.0000   1.0000   1.0000
     1.0000   1.0000   1.0000   1.0000   1.0000   1.0000   1.0000   1.0000
     1.0000   1.0000   1.0000   1.0000   1.0000   1.0000   1.0000   1.0000
     1.0000   1.0000   1.0000   1.0000   1.0000   1.0000   1.0000   1.0000
     1.0000   1.0000   1.0000   1.0000   1.0000   1.0000   1.0000   1.0000
     1.0000   1.0000   1.0000   1.0000   1.0000   1.0000   1.0000   1.0000
     1.0000   1.0000   1.0000   1.0000   1.0000   1.0000   1.0000   1.0000
     1.0000   1.0000   1.0000   1.0000   1.0000   1.0000   1.0000   1.0000
     1.0000   1.0000   1.0000   1.0000   1.0000   1.0000   1.0000   1.0000
     1.0000   1.0000   1.0000   1.0000   1.0000   1.0000   1.0000   1.0000
     1.0000   1.0000   1.0000   1.0000   1.0000   1.0000   1.0000   1.0000
     1.0000   1.0000   1.0000   1.0000   1.0000   1.0000   1.0000   1.0000
     1.0000   1.0000   1.0000   1.0000   1.0000   1.0000   1.0000   1.0000
     1.0000   1.0000   1.0000   1.0000   1.0000   1.0000   1.0000   1.0000
     1.0000   1.0000   1.0000   1.0000   1.0000   1.0000   1.0000   1.0000
     1.0000   1.0000   1.0000   1.0000   1.0000   1.0000   1.0000   1.0000
     1.0000   1.0000   1.0000   1.0000   1.0000   1.0000   1.0000   1.0000
     1.0000   1.0000   1.0000   1.0000   1.0000   1.0000   1.0000   1.0000
     1.0000   1.0000   1.0000   1.0000   1.0000   1.0000   1.0000   1.0000
     1.0000   1.0000   1.0000   1.0000   1.0000   1.0000   1.0000   1.0000
     1.0000   1.0000   1.0000   1.0000   1.0000   1.0000   1.0000   1.0000
     1.0000   1.0000   1.0000   1.0000   1.0000   1.0000   1.0000   1.0000
     1.0000   1.0000   1.0000   1.0000   1.0000   1.0000   1.0000   1.0000
     1.0000   1.0000   1.0000   1.0000   1.0000   1.0000   1.0000   1.0000
     1.0000   1.0000   1.0000   1.0000   1.0000   1.0000   1.0000   1.0000
     1.0000   1.0000   1.0000   1.0000   1.0000   1.0000   1.0000   1.0000
     1.0000   1.0000   0.0000

          k =-0.4000 0.2309 0.0000 (112236 PWs)   bands (ev):

   -73.8094 -73.8055 -73.8025 -73.8005 -73.7978 -73.7975 -73.7940 -73.7918
   -73.7897 -73.7849 -73.7837 -73.7819 -73.7780 -73.7369 -73.7274 -73.7244
   -38.1960 -38.1934 -38.1801 -38.1748 -38.1682 -38.1525 -38.1504 -38.1343
   -38.1188 -38.1128 -38.0931 -38.0892 -38.0525 -38.0463 -38.0385 -38.0299
   -38.0196 -38.0157 -38.0030 -38.0026 -38.0008 -37.9989 -37.9950 -37.9919
   -37.9896 -37.9868 -37.9859 -37.9842 -37.9808 -37.9772 -37.9720 -37.9698
   -37.9630 -37.9557 -37.9530 -37.9468 -37.9405 -37.9377 -37.9352 -37.9318
   -37.9243 -37.9186 -37.9126 -37.9048 -37.8955 -37.8806 -37.8731 -37.8588
   -21.6047 -15.5069 -14.4274 -14.2251 -13.8610 -13.8508 -13.2410 -13.2358
   -13.0154 -12.9892 -12.9676 -12.9034 -12.8257 -12.7244 -12.6966 -12.6784
   -12.5258 -12.4998 -12.4540 -12.4459 -12.4238 -12.4184 -12.3794 -12.3565
   -12.3460 -12.2759 -12.2145 -12.1925 -12.1698 -12.1548 -12.1488 -12.1459
   -12.0501 -12.0340  -7.9419  -7.6610  -6.1958  -6.1212  -6.0994  -6.0804
    -6.0137  -5.8667  -5.8476  -5.8284  -5.7022  -5.5208  -5.5019  -5.4765
    -5.4455  -5.4377  -5.4298  -5.3810  -5.3717  -5.3086  -5.3010  -5.0711
    -5.0491  -5.0157  -4.9990  -4.7937  -4.5949  -4.5402  -4.4675  -4.4317
    -4.4040  -4.3640  -4.3440  -4.3003  -4.2365  -4.2132  -4.1878  -4.1525
    -4.1141  -4.1055  -4.0935  -4.0676  -4.0605  -4.0442  -4.0334  -3.6732
    -3.5599  -3.5121  -3.4650  -3.4462  -3.4160  -3.3864  -3.3481  -3.3090
    -3.2823  -3.2715  -3.2512  -3.2339  -3.2058  -3.1877  -3.1374  -3.1076
    -3.0587  -3.0288  -3.0021  -2.9412  -2.9219  -2.8898  -2.8163  -2.7551
    -2.7104  -2.6929  -2.6444  -2.6191  -2.5853  -2.5703  -2.5430  -2.4728
    -2.4196  -2.4138  -2.3845  -2.3221  -2.2704  -2.2428  -2.2341  -2.1575
    -2.1116  -2.0890  -2.0436  -2.0210  -2.0014  -1.9827  -1.9461  -1.9129
    -1.8989  -1.8859  -1.8756  -1.8578  -1.8499  -1.8415  -1.8301  -1.8119
    -1.7982  -1.7489  -1.7147  -1.6829  -1.6773  -1.6510  -1.6367  -1.6026
    -1.5761  -1.5439  -1.4881  -1.4599  -1.4374  -1.3441  -1.3158  -1.2858
    -1.2546  -1.2032  -1.1641  -1.1186  -1.1089  -1.0911  -1.0633  -0.9771
    -0.9529  -0.8651  -0.7235  -0.7073  -0.6292  -0.6120  -0.4924  -0.4439
    -0.4365  -0.4145  -0.3937  -0.3634  -0.2814  -0.0875   0.0121   0.0433
     0.1541   1.3822   1.6929

     occupation numbers 
     1.0000   1.0000   1.0000   1.0000   1.0000   1.0000   1.0000   1.0000
     1.0000   1.0000   1.0000   1.0000   1.0000   1.0000   1.0000   1.0000
     1.0000   1.0000   1.0000   1.0000   1.0000   1.0000   1.0000   1.0000
     1.0000   1.0000   1.0000   1.0000   1.0000   1.0000   1.0000   1.0000
     1.0000   1.0000   1.0000   1.0000   1.0000   1.0000   1.0000   1.0000
     1.0000   1.0000   1.0000   1.0000   1.0000   1.0000   1.0000   1.0000
     1.0000   1.0000   1.0000   1.0000   1.0000   1.0000   1.0000   1.0000
     1.0000   1.0000   1.0000   1.0000   1.0000   1.0000   1.0000   1.0000
     1.0000   1.0000   1.0000   1.0000   1.0000   1.0000   1.0000   1.0000
     1.0000   1.0000   1.0000   1.0000   1.0000   1.0000   1.0000   1.0000
     1.0000   1.0000   1.0000   1.0000   1.0000   1.0000   1.0000   1.0000
     1.0000   1.0000   1.0000   1.0000   1.0000   1.0000   1.0000   1.0000
     1.0000   1.0000   1.0000   1.0000   1.0000   1.0000   1.0000   1.0000
     1.0000   1.0000   1.0000   1.0000   1.0000   1.0000   1.0000   1.0000
     1.0000   1.0000   1.0000   1.0000   1.0000   1.0000   1.0000   1.0000
     1.0000   1.0000   1.0000   1.0000   1.0000   1.0000   1.0000   1.0000
     1.0000   1.0000   1.0000   1.0000   1.0000   1.0000   1.0000   1.0000
     1.0000   1.0000   1.0000   1.0000   1.0000   1.0000   1.0000   1.0000
     1.0000   1.0000   1.0000   1.0000   1.0000   1.0000   1.0000   1.0000
     1.0000   1.0000   1.0000   1.0000   1.0000   1.0000   1.0000   1.0000
     1.0000   1.0000   1.0000   1.0000   1.0000   1.0000   1.0000   1.0000
     1.0000   1.0000   1.0000   1.0000   1.0000   1.0000   1.0000   1.0000
     1.0000   1.0000   1.0000   1.0000   1.0000   1.0000   1.0000   1.0000
     1.0000   1.0000   1.0000   1.0000   1.0000   1.0000   1.0000   1.0000
     1.0000   1.0000   1.0000   1.0000   1.0000   1.0000   1.0000   1.0000
     1.0000   1.0000   1.0000   1.0000   1.0000   1.0000   1.0000   1.0000
     1.0000   1.0000   1.0000   1.0000   1.0000   1.0000   1.0000   1.0000
     1.0000   1.0000   1.0000   1.0000   1.0000   1.0000   1.0000   1.0000
     1.0000   1.0000   1.0000   1.0000   1.0000   1.0000   1.0000   1.0000
     1.0000   1.0000   1.0000   1.0000   1.0000   1.0000   1.0000   1.0000
     1.0000   1.0000   0.0000

          k = 0.4000 0.2309 0.0000 (112236 PWs)   bands (ev):

   -73.8094 -73.8057 -73.8024 -73.8005 -73.7980 -73.7970 -73.7945 -73.7919
   -73.7894 -73.7850 -73.7836 -73.7820 -73.7779 -73.7369 -73.7274 -73.7244
   -38.1947 -38.1943 -38.1806 -38.1762 -38.1666 -38.1518 -38.1507 -38.1350
   -38.1182 -38.1126 -38.0941 -38.0895 -38.0510 -38.0476 -38.0383 -38.0301
   -38.0201 -38.0139 -38.0034 -38.0025 -38.0014 -37.9991 -37.9951 -37.9925
   -37.9877 -37.9873 -37.9855 -37.9832 -37.9819 -37.9775 -37.9721 -37.9696
   -37.9646 -37.9551 -37.9532 -37.9464 -37.9395 -37.9378 -37.9354 -37.9309
   -37.9232 -37.9196 -37.9135 -37.9058 -37.8934 -37.8816 -37.8764 -37.8562
   -21.6047 -15.5069 -14.4273 -14.2253 -13.8604 -13.8512 -13.2406 -13.2369
   -13.0123 -12.9888 -12.9697 -12.9026 -12.8263 -12.7221 -12.6985 -12.6792
   -12.5334 -12.4920 -12.4581 -12.4432 -12.4228 -12.4183 -12.3800 -12.3551
   -12.3437 -12.2758 -12.2215 -12.1905 -12.1716 -12.1538 -12.1490 -12.1433
   -12.0472 -12.0365  -7.9419  -7.6610  -6.1957  -6.1117  -6.1029  -6.0790
    -6.0264  -5.8595  -5.8477  -5.8252  -5.7068  -5.5224  -5.5011  -5.4793
    -5.4407  -5.4395  -5.4316  -5.3806  -5.3735  -5.3062  -5.2998  -5.0638
    -5.0604  -5.0141  -5.0033  -4.7667  -4.6043  -4.5487  -4.4740  -4.4416
    -4.4102  -4.3632  -4.3402  -4.2966  -4.2309  -4.2175  -4.1834  -4.1498
    -4.1175  -4.1078  -4.0945  -4.0690  -4.0559  -4.0420  -4.0346  -3.6610
    -3.5533  -3.5125  -3.4539  -3.4404  -3.4200  -3.3906  -3.3503  -3.3173
    -3.2826  -3.2687  -3.2454  -3.2283  -3.2106  -3.1952  -3.1268  -3.1085
    -3.0682  -3.0482  -3.0085  -2.9416  -2.9201  -2.8941  -2.8246  -2.7557
    -2.7099  -2.6747  -2.6313  -2.6099  -2.6045  -2.5893  -2.5007  -2.4851
    -2.4449  -2.4204  -2.3624  -2.3220  -2.2647  -2.2491  -2.2338  -2.1381
    -2.1080  -2.0957  -2.0289  -2.0009  -1.9919  -1.9734  -1.9641  -1.9487
    -1.9216  -1.8911  -1.8769  -1.8563  -1.8437  -1.8379  -1.8297  -1.8096
    -1.7978  -1.7629  -1.7120  -1.6978  -1.6813  -1.6296  -1.6175  -1.6107
    -1.5870  -1.5402  -1.4975  -1.4850  -1.4027  -1.3518  -1.2990  -1.2798
    -1.2425  -1.2244  -1.1817  -1.1263  -1.1097  -1.0506  -1.0420  -0.9879
    -0.9627  -0.8733  -0.7196  -0.7137  -0.6287  -0.6183  -0.5002  -0.4475
    -0.4386  -0.4119  -0.3961  -0.3520  -0.2760  -0.0883   0.0141   0.0394
     0.1567   1.3657   1.7139

     occupation numbers 
     1.0000   1.0000   1.0000   1.0000   1.0000   1.0000   1.0000   1.0000
     1.0000   1.0000   1.0000   1.0000   1.0000   1.0000   1.0000   1.0000
     1.0000   1.0000   1.0000   1.0000   1.0000   1.0000   1.0000   1.0000
     1.0000   1.0000   1.0000   1.0000   1.0000   1.0000   1.0000   1.0000
     1.0000   1.0000   1.0000   1.0000   1.0000   1.0000   1.0000   1.0000
     1.0000   1.0000   1.0000   1.0000   1.0000   1.0000   1.0000   1.0000
     1.0000   1.0000   1.0000   1.0000   1.0000   1.0000   1.0000   1.0000
     1.0000   1.0000   1.0000   1.0000   1.0000   1.0000   1.0000   1.0000
     1.0000   1.0000   1.0000   1.0000   1.0000   1.0000   1.0000   1.0000
     1.0000   1.0000   1.0000   1.0000   1.0000   1.0000   1.0000   1.0000
     1.0000   1.0000   1.0000   1.0000   1.0000   1.0000   1.0000   1.0000
     1.0000   1.0000   1.0000   1.0000   1.0000   1.0000   1.0000   1.0000
     1.0000   1.0000   1.0000   1.0000   1.0000   1.0000   1.0000   1.0000
     1.0000   1.0000   1.0000   1.0000   1.0000   1.0000   1.0000   1.0000
     1.0000   1.0000   1.0000   1.0000   1.0000   1.0000   1.0000   1.0000
     1.0000   1.0000   1.0000   1.0000   1.0000   1.0000   1.0000   1.0000
     1.0000   1.0000   1.0000   1.0000   1.0000   1.0000   1.0000   1.0000
     1.0000   1.0000   1.0000   1.0000   1.0000   1.0000   1.0000   1.0000
     1.0000   1.0000   1.0000   1.0000   1.0000   1.0000   1.0000   1.0000
     1.0000   1.0000   1.0000   1.0000   1.0000   1.0000   1.0000   1.0000
     1.0000   1.0000   1.0000   1.0000   1.0000   1.0000   1.0000   1.0000
     1.0000   1.0000   1.0000   1.0000   1.0000   1.0000   1.0000   1.0000
     1.0000   1.0000   1.0000   1.0000   1.0000   1.0000   1.0000   1.0000
     1.0000   1.0000   1.0000   1.0000   1.0000   1.0000   1.0000   1.0000
     1.0000   1.0000   1.0000   1.0000   1.0000   1.0000   1.0000   1.0000
     1.0000   1.0000   1.0000   1.0000   1.0000   1.0000   1.0000   1.0000
     1.0000   1.0000   1.0000   1.0000   1.0000   1.0000   1.0000   1.0000
     1.0000   1.0000   1.0000   1.0000   1.0000   1.0000   1.0000   1.0000
     1.0000   1.0000   1.0000   1.0000   1.0000   1.0000   1.0000   1.0000
     1.0000   1.0000   1.0000   1.0000   1.0000   1.0000   1.0000   1.0000
     1.0000   1.0000   0.0000

          k =-0.2000 0.3464 0.0000 (112231 PWs)   bands (ev):

   -73.8095 -73.8054 -73.8027 -73.8003 -73.7983 -73.7972 -73.7940 -73.7918
   -73.7898 -73.7848 -73.7838 -73.7820 -73.7780 -73.7369 -73.7274 -73.7244
   -38.2010 -38.1924 -38.1899 -38.1678 -38.1627 -38.1546 -38.1442 -38.1375
   -38.1217 -38.1136 -38.0981 -38.0653 -38.0502 -38.0438 -38.0393 -38.0272
   -38.0230 -38.0178 -38.0125 -38.0113 -38.0063 -38.0002 -37.9945 -37.9922
   -37.9889 -37.9843 -37.9825 -37.9801 -37.9784 -37.9741 -37.9721 -37.9710
   -37.9650 -37.9631 -37.9530 -37.9476 -37.9447 -37.9424 -37.9329 -37.9297
   -37.9225 -37.9158 -37.9127 -37.9071 -37.8903 -37.8838 -37.8682 -37.8589
   -21.6047 -15.5069 -14.4671 -14.0934 -14.0534 -13.5657 -13.5491 -13.1654
   -13.1127 -13.0010 -12.9270 -12.7998 -12.7830 -12.6978 -12.6663 -12.6108
   -12.5772 -12.5701 -12.5620 -12.4471 -12.4192 -12.3858 -12.3720 -12.3030
   -12.2853 -12.2668 -12.2445 -12.2203 -12.2169 -12.1499 -12.1432 -12.1018
   -12.0898 -12.0293  -7.9419  -7.6610  -6.1987  -6.1763  -6.1337  -6.1133
    -6.0940  -5.7532  -5.7258  -5.7081  -5.6894  -5.6185  -5.5943  -5.5525
    -5.4989  -5.4679  -5.3471  -5.3214  -5.2907  -5.2574  -5.2330  -5.2108
    -5.0891  -4.9042  -4.8854  -4.7868  -4.7490  -4.5930  -4.4999  -4.4337
    -4.3863  -4.3355  -4.3256  -4.2998  -4.2731  -4.2513  -4.2362  -4.2174
    -4.1556  -4.1212  -4.1028  -4.0859  -4.0465  -3.7616  -3.7299  -3.7189
    -3.6996  -3.6821  -3.6004  -3.4952  -3.4099  -3.3717  -3.3607  -3.2968
    -3.2770  -3.2325  -3.2191  -3.1930  -3.1551  -3.1393  -3.1070  -3.0747
    -3.0484  -2.9973  -2.9517  -2.9341  -2.9192  -2.9147  -2.9042  -2.8901
    -2.7713  -2.7145  -2.6821  -2.6621  -2.5932  -2.5419  -2.5085  -2.4634
    -2.4483  -2.3963  -2.3756  -2.3522  -2.3082  -2.2039  -2.1853  -2.1417
    -2.1195  -2.1124  -2.0943  -2.0625  -2.0181  -1.9727  -1.9606  -1.9238
    -1.8982  -1.8856  -1.8550  -1.8388  -1.8120  -1.8063  -1.7921  -1.7807
    -1.7329  -1.7089  -1.6852  -1.6642  -1.6368  -1.6204  -1.5749  -1.5723
    -1.5502  -1.5393  -1.5138  -1.4889  -1.4223  -1.3845  -1.3733  -1.3338
    -1.2701  -1.2343  -1.1839  -1.1636  -1.1463  -1.1055  -1.0330  -0.9797
    -0.8666  -0.8225  -0.6773  -0.6604  -0.6242  -0.6140  -0.5986  -0.5291
    -0.5250  -0.4045  -0.3735  -0.2473  -0.1944  -0.1859  -0.1403   0.0852
     0.1688   1.3437   1.7220

     occupation numbers 
     1.0000   1.0000   1.0000   1.0000   1.0000   1.0000   1.0000   1.0000
     1.0000   1.0000   1.0000   1.0000   1.0000   1.0000   1.0000   1.0000
     1.0000   1.0000   1.0000   1.0000   1.0000   1.0000   1.0000   1.0000
     1.0000   1.0000   1.0000   1.0000   1.0000   1.0000   1.0000   1.0000
     1.0000   1.0000   1.0000   1.0000   1.0000   1.0000   1.0000   1.0000
     1.0000   1.0000   1.0000   1.0000   1.0000   1.0000   1.0000   1.0000
     1.0000   1.0000   1.0000   1.0000   1.0000   1.0000   1.0000   1.0000
     1.0000   1.0000   1.0000   1.0000   1.0000   1.0000   1.0000   1.0000
     1.0000   1.0000   1.0000   1.0000   1.0000   1.0000   1.0000   1.0000
     1.0000   1.0000   1.0000   1.0000   1.0000   1.0000   1.0000   1.0000
     1.0000   1.0000   1.0000   1.0000   1.0000   1.0000   1.0000   1.0000
     1.0000   1.0000   1.0000   1.0000   1.0000   1.0000   1.0000   1.0000
     1.0000   1.0000   1.0000   1.0000   1.0000   1.0000   1.0000   1.0000
     1.0000   1.0000   1.0000   1.0000   1.0000   1.0000   1.0000   1.0000
     1.0000   1.0000   1.0000   1.0000   1.0000   1.0000   1.0000   1.0000
     1.0000   1.0000   1.0000   1.0000   1.0000   1.0000   1.0000   1.0000
     1.0000   1.0000   1.0000   1.0000   1.0000   1.0000   1.0000   1.0000
     1.0000   1.0000   1.0000   1.0000   1.0000   1.0000   1.0000   1.0000
     1.0000   1.0000   1.0000   1.0000   1.0000   1.0000   1.0000   1.0000
     1.0000   1.0000   1.0000   1.0000   1.0000   1.0000   1.0000   1.0000
     1.0000   1.0000   1.0000   1.0000   1.0000   1.0000   1.0000   1.0000
     1.0000   1.0000   1.0000   1.0000   1.0000   1.0000   1.0000   1.0000
     1.0000   1.0000   1.0000   1.0000   1.0000   1.0000   1.0000   1.0000
     1.0000   1.0000   1.0000   1.0000   1.0000   1.0000   1.0000   1.0000
     1.0000   1.0000   1.0000   1.0000   1.0000   1.0000   1.0000   1.0000
     1.0000   1.0000   1.0000   1.0000   1.0000   1.0000   1.0000   1.0000
     1.0000   1.0000   1.0000   1.0000   1.0000   1.0000   1.0000   1.0000
     1.0000   1.0000   1.0000   1.0000   1.0000   1.0000   1.0000   1.0000
     1.0000   1.0000   1.0000   1.0000   1.0000   1.0000   1.0000   1.0000
     1.0000   1.0000   1.0000   1.0000   1.0000   1.0000   1.0000   1.0000
     1.0000   1.0000   0.0000

          k = 0.4000-0.0000 0.0000 (112231 PWs)   bands (ev):

   -73.8095 -73.8056 -73.8024 -73.8005 -73.7979 -73.7974 -73.7943 -73.7919
   -73.7895 -73.7850 -73.7837 -73.7820 -73.7779 -73.7369 -73.7274 -73.7244
   -38.2011 -38.1921 -38.1904 -38.1676 -38.1638 -38.1545 -38.1440 -38.1366
   -38.1205 -38.1121 -38.1015 -38.0662 -38.0492 -38.0435 -38.0391 -38.0282
   -38.0216 -38.0184 -38.0134 -38.0113 -38.0062 -38.0012 -37.9949 -37.9905
   -37.9883 -37.9846 -37.9822 -37.9808 -37.9778 -37.9752 -37.9720 -37.9711
   -37.9645 -37.9614 -37.9536 -37.9481 -37.9456 -37.9415 -37.9329 -37.9310
   -37.9207 -37.9158 -37.9128 -37.9056 -37.8916 -37.8851 -37.8691 -37.8575
   -21.6047 -15.5069 -14.4671 -14.0912 -14.0556 -13.5593 -13.5562 -13.1616
   -13.1149 -13.0047 -12.9215 -12.7970 -12.7859 -12.7019 -12.6739 -12.5953
   -12.5916 -12.5675 -12.5530 -12.4494 -12.4156 -12.4042 -12.3575 -12.3012
   -12.2857 -12.2636 -12.2467 -12.2289 -12.2140 -12.1507 -12.1404 -12.1003
   -12.0907 -12.0298  -7.9419  -7.6610  -6.1979  -6.1700  -6.1407  -6.1086
    -6.1003  -5.7458  -5.7309  -5.7122  -5.6770  -5.6259  -5.5998  -5.5512
    -5.4967  -5.4653  -5.3434  -5.3266  -5.2820  -5.2633  -5.2352  -5.2198
    -5.0884  -4.8916  -4.8787  -4.8003  -4.7483  -4.5563  -4.5236  -4.4488
    -4.3987  -4.3375  -4.3296  -4.3029  -4.2679  -4.2559  -4.2337  -4.2008
    -4.1668  -4.1098  -4.1015  -4.0821  -4.0460  -3.7520  -3.7245  -3.7178
    -3.6980  -3.6886  -3.6104  -3.4754  -3.4190  -3.3873  -3.3608  -3.3075
    -3.2738  -3.2357  -3.2232  -3.1925  -3.1646  -3.1345  -3.1145  -3.0710
    -3.0280  -2.9813  -2.9581  -2.9393  -2.9307  -2.9083  -2.8929  -2.8844
    -2.7590  -2.7308  -2.6843  -2.6353  -2.6056  -2.5634  -2.5224  -2.4574
    -2.4524  -2.4054  -2.3747  -2.3309  -2.3076  -2.2103  -2.1693  -2.1415
    -2.1174  -2.1130  -2.0925  -2.0795  -1.9908  -1.9737  -1.9597  -1.9275
    -1.9117  -1.8864  -1.8636  -1.8505  -1.8368  -1.8098  -1.7866  -1.7604
    -1.7402  -1.6995  -1.6783  -1.6613  -1.6398  -1.6133  -1.5822  -1.5624
    -1.5434  -1.5340  -1.5146  -1.4880  -1.4361  -1.3982  -1.3537  -1.3257
    -1.2728  -1.2483  -1.1891  -1.1674  -1.1414  -1.0938  -1.0347  -0.9787
    -0.8561  -0.8366  -0.6717  -0.6629  -0.6243  -0.6105  -0.6025  -0.5285
    -0.5239  -0.4226  -0.3669  -0.2401  -0.1953  -0.1811  -0.1432   0.0827
     0.1684   1.3740   1.6895

     occupation numbers 
     1.0000   1.0000   1.0000   1.0000   1.0000   1.0000   1.0000   1.0000
     1.0000   1.0000   1.0000   1.0000   1.0000   1.0000   1.0000   1.0000
     1.0000   1.0000   1.0000   1.0000   1.0000   1.0000   1.0000   1.0000
     1.0000   1.0000   1.0000   1.0000   1.0000   1.0000   1.0000   1.0000
     1.0000   1.0000   1.0000   1.0000   1.0000   1.0000   1.0000   1.0000
     1.0000   1.0000   1.0000   1.0000   1.0000   1.0000   1.0000   1.0000
     1.0000   1.0000   1.0000   1.0000   1.0000   1.0000   1.0000   1.0000
     1.0000   1.0000   1.0000   1.0000   1.0000   1.0000   1.0000   1.0000
     1.0000   1.0000   1.0000   1.0000   1.0000   1.0000   1.0000   1.0000
     1.0000   1.0000   1.0000   1.0000   1.0000   1.0000   1.0000   1.0000
     1.0000   1.0000   1.0000   1.0000   1.0000   1.0000   1.0000   1.0000
     1.0000   1.0000   1.0000   1.0000   1.0000   1.0000   1.0000   1.0000
     1.0000   1.0000   1.0000   1.0000   1.0000   1.0000   1.0000   1.0000
     1.0000   1.0000   1.0000   1.0000   1.0000   1.0000   1.0000   1.0000
     1.0000   1.0000   1.0000   1.0000   1.0000   1.0000   1.0000   1.0000
     1.0000   1.0000   1.0000   1.0000   1.0000   1.0000   1.0000   1.0000
     1.0000   1.0000   1.0000   1.0000   1.0000   1.0000   1.0000   1.0000
     1.0000   1.0000   1.0000   1.0000   1.0000   1.0000   1.0000   1.0000
     1.0000   1.0000   1.0000   1.0000   1.0000   1.0000   1.0000   1.0000
     1.0000   1.0000   1.0000   1.0000   1.0000   1.0000   1.0000   1.0000
     1.0000   1.0000   1.0000   1.0000   1.0000   1.0000   1.0000   1.0000
     1.0000   1.0000   1.0000   1.0000   1.0000   1.0000   1.0000   1.0000
     1.0000   1.0000   1.0000   1.0000   1.0000   1.0000   1.0000   1.0000
     1.0000   1.0000   1.0000   1.0000   1.0000   1.0000   1.0000   1.0000
     1.0000   1.0000   1.0000   1.0000   1.0000   1.0000   1.0000   1.0000
     1.0000   1.0000   1.0000   1.0000   1.0000   1.0000   1.0000   1.0000
     1.0000   1.0000   1.0000   1.0000   1.0000   1.0000   1.0000   1.0000
     1.0000   1.0000   1.0000   1.0000   1.0000   1.0000   1.0000   1.0000
     1.0000   1.0000   1.0000   1.0000   1.0000   1.0000   1.0000   1.0000
     1.0000   1.0000   1.0000   1.0000   1.0000   1.0000   1.0000   1.0000
     1.0000   1.0000   0.0000

          k =-0.4000 0.4619 0.0000 (112237 PWs)   bands (ev):

   -73.8094 -73.8056 -73.8026 -73.8004 -73.7980 -73.7973 -73.7941 -73.7918
   -73.7897 -73.7849 -73.7837 -73.7820 -73.7779 -73.7369 -73.7274 -73.7244
   -38.1914 -38.1854 -38.1755 -38.1730 -38.1653 -38.1615 -38.1535 -38.1385
   -38.1347 -38.1185 -38.0822 -38.0790 -38.0731 -38.0401 -38.0366 -38.0310
   -38.0237 -38.0200 -38.0113 -38.0031 -38.0005 -37.9958 -37.9937 -37.9916
   -37.9896 -37.9885 -37.9851 -37.9806 -37.9773 -37.9720 -37.9647 -37.9614
   -37.9558 -37.9511 -37.9482 -37.9465 -37.9450 -37.9382 -37.9336 -37.9318
   -37.9261 -37.9195 -37.9151 -37.9117 -37.9010 -37.8825 -37.8699 -37.8621
   -21.6047 -15.5069 -14.3290 -14.2829 -14.1079 -13.5883 -13.2896 -13.2867
   -12.9508 -12.9403 -12.8779 -12.8493 -12.8201 -12.7946 -12.7893 -12.6564
   -12.6273 -12.5887 -12.4860 -12.4764 -12.3796 -12.3673 -12.3397 -12.3183
   -12.3035 -12.2916 -12.2537 -12.2282 -12.2230 -12.1266 -12.1138 -12.1080
   -12.0736 -12.0103  -7.9419  -7.6610  -6.1944  -6.0415  -6.0075  -5.9607
    -5.9055  -5.8814  -5.8681  -5.8496  -5.8007  -5.7362  -5.6773  -5.6165
    -5.6011  -5.5331  -5.3493  -5.2737  -5.2382  -5.2077  -5.1920  -5.1595
    -5.1483  -4.8439  -4.8233  -4.7328  -4.6116  -4.5757  -4.5339  -4.5130
    -4.4799  -4.4147  -4.3727  -4.3149  -4.2977  -4.2332  -4.2185  -4.1990
    -4.1844  -4.1548  -4.1129  -4.0863  -3.9471  -3.9391  -3.7806  -3.6582
    -3.6112  -3.5785  -3.4176  -3.3817  -3.3459  -3.3129  -3.2945  -3.2700
    -3.2660  -3.2567  -3.2330  -3.2214  -3.2112  -3.2032  -3.1354  -3.1116
    -3.0860  -3.0695  -3.0492  -3.0312  -2.9771  -2.9145  -2.8324  -2.7935
    -2.7252  -2.6971  -2.6808  -2.6585  -2.6012  -2.5784  -2.4811  -2.4008
    -2.3845  -2.3154  -2.3113  -2.3052  -2.2544  -2.1755  -2.1611  -2.1455
    -2.1243  -2.0785  -2.0643  -2.0350  -2.0131  -1.9595  -1.9463  -1.9307
    -1.9174  -1.9042  -1.8808  -1.8663  -1.8534  -1.8424  -1.8353  -1.8291
    -1.8031  -1.7947  -1.7603  -1.7177  -1.6912  -1.6775  -1.6505  -1.6343
    -1.6081  -1.5669  -1.5151  -1.4899  -1.4695  -1.4477  -1.3984  -1.2962
    -1.2622  -1.2218  -1.1544  -1.1045  -1.0827  -1.0646  -1.0294  -0.9505
    -0.8038  -0.7759  -0.6899  -0.6790  -0.6452  -0.6322  -0.5890  -0.5697
    -0.5530  -0.3880  -0.2672  -0.2624  -0.1641  -0.1079  -0.0653   0.1267
     0.1997   1.3819   1.7037

     occupation numbers 
     1.0000   1.0000   1.0000   1.0000   1.0000   1.0000   1.0000   1.0000
     1.0000   1.0000   1.0000   1.0000   1.0000   1.0000   1.0000   1.0000
     1.0000   1.0000   1.0000   1.0000   1.0000   1.0000   1.0000   1.0000
     1.0000   1.0000   1.0000   1.0000   1.0000   1.0000   1.0000   1.0000
     1.0000   1.0000   1.0000   1.0000   1.0000   1.0000   1.0000   1.0000
     1.0000   1.0000   1.0000   1.0000   1.0000   1.0000   1.0000   1.0000
     1.0000   1.0000   1.0000   1.0000   1.0000   1.0000   1.0000   1.0000
     1.0000   1.0000   1.0000   1.0000   1.0000   1.0000   1.0000   1.0000
     1.0000   1.0000   1.0000   1.0000   1.0000   1.0000   1.0000   1.0000
     1.0000   1.0000   1.0000   1.0000   1.0000   1.0000   1.0000   1.0000
     1.0000   1.0000   1.0000   1.0000   1.0000   1.0000   1.0000   1.0000
     1.0000   1.0000   1.0000   1.0000   1.0000   1.0000   1.0000   1.0000
     1.0000   1.0000   1.0000   1.0000   1.0000   1.0000   1.0000   1.0000
     1.0000   1.0000   1.0000   1.0000   1.0000   1.0000   1.0000   1.0000
     1.0000   1.0000   1.0000   1.0000   1.0000   1.0000   1.0000   1.0000
     1.0000   1.0000   1.0000   1.0000   1.0000   1.0000   1.0000   1.0000
     1.0000   1.0000   1.0000   1.0000   1.0000   1.0000   1.0000   1.0000
     1.0000   1.0000   1.0000   1.0000   1.0000   1.0000   1.0000   1.0000
     1.0000   1.0000   1.0000   1.0000   1.0000   1.0000   1.0000   1.0000
     1.0000   1.0000   1.0000   1.0000   1.0000   1.0000   1.0000   1.0000
     1.0000   1.0000   1.0000   1.0000   1.0000   1.0000   1.0000   1.0000
     1.0000   1.0000   1.0000   1.0000   1.0000   1.0000   1.0000   1.0000
     1.0000   1.0000   1.0000   1.0000   1.0000   1.0000   1.0000   1.0000
     1.0000   1.0000   1.0000   1.0000   1.0000   1.0000   1.0000   1.0000
     1.0000   1.0000   1.0000   1.0000   1.0000   1.0000   1.0000   1.0000
     1.0000   1.0000   1.0000   1.0000   1.0000   1.0000   1.0000   1.0000
     1.0000   1.0000   1.0000   1.0000   1.0000   1.0000   1.0000   1.0000
     1.0000   1.0000   1.0000   1.0000   1.0000   1.0000   1.0000   1.0000
     1.0000   1.0000   1.0000   1.0000   1.0000   1.0000   1.0000   1.0000
     1.0000   1.0000   1.0000   1.0000   1.0000   1.0000   1.0000   1.0000
     1.0000   1.0000   0.0000

          k = 0.6000 0.1155 0.0000 (112237 PWs)   bands (ev):

   -73.8094 -73.8057 -73.8026 -73.8004 -73.7980 -73.7970 -73.7944 -73.7919
   -73.7895 -73.7850 -73.7836 -73.7820 -73.7779 -73.7369 -73.7274 -73.7244
   -38.1905 -38.1861 -38.1764 -38.1731 -38.1648 -38.1611 -38.1532 -38.1385
   -38.1352 -38.1182 -38.0821 -38.0795 -38.0736 -38.0388 -38.0367 -38.0312
   -38.0236 -38.0203 -38.0103 -38.0036 -38.0011 -37.9954 -37.9940 -37.9922
   -37.9897 -37.9873 -37.9850 -37.9811 -37.9774 -37.9720 -37.9648 -37.9608
   -37.9572 -37.9508 -37.9480 -37.9467 -37.9443 -37.9387 -37.9332 -37.9306
   -37.9251 -37.9200 -37.9150 -37.9131 -37.9005 -37.8834 -37.8721 -37.8597
   -21.6047 -15.5069 -14.3284 -14.2835 -14.1078 -13.5883 -13.2970 -13.2793
   -12.9572 -12.9336 -12.8730 -12.8531 -12.8203 -12.7947 -12.7901 -12.6593
   -12.6259 -12.5870 -12.4961 -12.4659 -12.3865 -12.3635 -12.3359 -12.3145
   -12.3038 -12.2936 -12.2570 -12.2286 -12.2239 -12.1246 -12.1144 -12.1083
   -12.0730 -12.0105  -7.9419  -7.6610  -6.1944  -6.0381  -6.0041  -5.9587
    -5.9160  -5.8981  -5.8690  -5.8267  -5.7995  -5.7412  -5.6795  -5.6141
    -5.6034  -5.5295  -5.3477  -5.2708  -5.2467  -5.2148  -5.1888  -5.1625
    -5.1395  -4.8462  -4.8299  -4.6828  -4.6359  -4.5978  -4.5407  -4.5040
    -4.4804  -4.4248  -4.3725  -4.3123  -4.2902  -4.2335  -4.2238  -4.1902
    -4.1814  -4.1589  -4.1124  -4.0882  -3.9489  -3.9383  -3.7774  -3.6560
    -3.6131  -3.5702  -3.4189  -3.3588  -3.3495  -3.3216  -3.2871  -3.2772
    -3.2739  -3.2503  -3.2350  -3.2238  -3.2116  -3.1916  -3.1661  -3.1313
    -3.0771  -3.0684  -3.0453  -3.0096  -2.9814  -2.9257  -2.8293  -2.7918
    -2.7307  -2.7097  -2.6857  -2.6323  -2.6124  -2.5418  -2.4923  -2.4459
    -2.3799  -2.3218  -2.3064  -2.2845  -2.2353  -2.1875  -2.1631  -2.1324
    -2.1086  -2.0893  -2.0662  -2.0260  -2.0019  -1.9688  -1.9537  -1.9406
    -1.9218  -1.8921  -1.8872  -1.8701  -1.8598  -1.8510  -1.8436  -1.8279
    -1.8008  -1.7874  -1.7625  -1.7206  -1.6892  -1.6773  -1.6443  -1.6249
    -1.6080  -1.5879  -1.5193  -1.5066  -1.4608  -1.4206  -1.3840  -1.3079
    -1.2711  -1.2141  -1.1479  -1.1265  -1.0875  -1.0423  -1.0073  -0.9698
    -0.8005  -0.7799  -0.6863  -0.6839  -0.6458  -0.6398  -0.5884  -0.5821
    -0.5389  -0.3894  -0.2699  -0.2561  -0.1618  -0.1112  -0.0646   0.1271
     0.2002   1.3720   1.7159

     occupation numbers 
     1.0000   1.0000   1.0000   1.0000   1.0000   1.0000   1.0000   1.0000
     1.0000   1.0000   1.0000   1.0000   1.0000   1.0000   1.0000   1.0000
     1.0000   1.0000   1.0000   1.0000   1.0000   1.0000   1.0000   1.0000
     1.0000   1.0000   1.0000   1.0000   1.0000   1.0000   1.0000   1.0000
     1.0000   1.0000   1.0000   1.0000   1.0000   1.0000   1.0000   1.0000
     1.0000   1.0000   1.0000   1.0000   1.0000   1.0000   1.0000   1.0000
     1.0000   1.0000   1.0000   1.0000   1.0000   1.0000   1.0000   1.0000
     1.0000   1.0000   1.0000   1.0000   1.0000   1.0000   1.0000   1.0000
     1.0000   1.0000   1.0000   1.0000   1.0000   1.0000   1.0000   1.0000
     1.0000   1.0000   1.0000   1.0000   1.0000   1.0000   1.0000   1.0000
     1.0000   1.0000   1.0000   1.0000   1.0000   1.0000   1.0000   1.0000
     1.0000   1.0000   1.0000   1.0000   1.0000   1.0000   1.0000   1.0000
     1.0000   1.0000   1.0000   1.0000   1.0000   1.0000   1.0000   1.0000
     1.0000   1.0000   1.0000   1.0000   1.0000   1.0000   1.0000   1.0000
     1.0000   1.0000   1.0000   1.0000   1.0000   1.0000   1.0000   1.0000
     1.0000   1.0000   1.0000   1.0000   1.0000   1.0000   1.0000   1.0000
     1.0000   1.0000   1.0000   1.0000   1.0000   1.0000   1.0000   1.0000
     1.0000   1.0000   1.0000   1.0000   1.0000   1.0000   1.0000   1.0000
     1.0000   1.0000   1.0000   1.0000   1.0000   1.0000   1.0000   1.0000
     1.0000   1.0000   1.0000   1.0000   1.0000   1.0000   1.0000   1.0000
     1.0000   1.0000   1.0000   1.0000   1.0000   1.0000   1.0000   1.0000
     1.0000   1.0000   1.0000   1.0000   1.0000   1.0000   1.0000   1.0000
     1.0000   1.0000   1.0000   1.0000   1.0000   1.0000   1.0000   1.0000
     1.0000   1.0000   1.0000   1.0000   1.0000   1.0000   1.0000   1.0000
     1.0000   1.0000   1.0000   1.0000   1.0000   1.0000   1.0000   1.0000
     1.0000   1.0000   1.0000   1.0000   1.0000   1.0000   1.0000   1.0000
     1.0000   1.0000   1.0000   1.0000   1.0000   1.0000   1.0000   1.0000
     1.0000   1.0000   1.0000   1.0000   1.0000   1.0000   1.0000   1.0000
     1.0000   1.0000   1.0000   1.0000   1.0000   1.0000   1.0000   1.0000
     1.0000   1.0000   1.0000   1.0000   1.0000   1.0000   1.0000   1.0000
     1.0000   1.0000   0.0000

     highest occupied, lowest unoccupied level (ev):     1.6211    1.6800

!    total energy              =  -16138.55501377 Ry
     total all-electron energy =   -595550.628219 Ry
     estimated scf accuracy    <          9.0E-11 Ry

     The total energy is the sum of the following terms:
     one-electron contribution =  -18311.83704364 Ry
     hartree contribution      =    9259.75613896 Ry
     xc contribution           =    -931.75147780 Ry
     ewald contribution        =    6415.26714078 Ry
     DFT-D3 Dispersion         =      -0.65559078 Ry
     one-center paw contrib.   =  -12569.33418128 Ry
      -> PAW hartree energy AE =      92.00293755 Ry
      -> PAW hartree energy PS =     -91.51088331 Ry
      -> PAW xc energy AE      =    -644.66492404 Ry
      -> PAW xc energy PS      =      38.62152447 Ry
      -> total E_H with PAW    =    9260.24819320 Ry
      -> total E_XC with PAW   =   -1537.79487737 Ry

     total magnetization       =     1.00 Bohr mag/cell
     absolute magnetization    =     1.12 Bohr mag/cell

     convergence has been achieved in  32 iterations

     negative rho (up, down):  4.795E-03 5.162E-03

     Forces acting on atoms (cartesian axes, Ry/au):

     atom    1 type  2   force =    -0.00000308   -0.00009547   -0.00015677
     atom    2 type  2   force =    -0.00019116    0.00002060    0.00012206
     atom    3 type  2   force =    -0.00027820   -0.00017167   -0.00000038
     atom    4 type  2   force =     0.00027841    0.00028113    0.00006417
     atom    5 type  2   force =    -0.00001591   -0.00023700   -0.00002909
     atom    6 type  2   force =    -0.00000828    0.00013077   -0.00001698
     atom    7 type  2   force =     0.00011102   -0.00005027    0.00004474
     atom    8 type  2   force =     0.00012916    0.00009056    0.00005692
     atom    9 type  2   force =    -0.00021111   -0.00006991    0.00006219
     atom   10 type  2   force =     0.00008814    0.00007622    0.00011079
     atom   11 type  2   force =    -0.00015540    0.00018248    0.00005018
     atom   12 type  2   force =    -0.00000556    0.00005831   -0.00012859
     atom   13 type  2   force =    -0.00013563    0.00015530    0.00008187
     atom   14 type  2   force =     0.00011123    0.00002303    0.00000109
     atom   15 type  2   force =     0.00005655   -0.00015680   -0.00012806
     atom   16 type  2   force =    -0.00023874   -0.00015805   -0.00007912
     atom   17 type  1   force =    -0.00008592    0.00017268   -0.00002312
     atom   18 type  1   force =    -0.00005988   -0.00018459   -0.00004974
     atom   19 type  1   force =    -0.00010594    0.00010801   -0.00002269
     atom   20 type  1   force =     0.00012218   -0.00001651   -0.00007145
     atom   21 type  1   force =    -0.00009031    0.00000507    0.00006167
     atom   22 type  1   force =    -0.00003008   -0.00001622   -0.00035082
     atom   23 type  1   force =    -0.00008228    0.00000313   -0.00003092
     atom   24 type  1   force =     0.00012347    0.00000582    0.00002910
     atom   25 type  1   force =    -0.00001770   -0.00004026    0.00001423
     atom   26 type  1   force =     0.00004960   -0.00007090   -0.00008525
     atom   27 type  1   force =     0.00012437    0.00005664    0.00003829
     atom   28 type  1   force =    -0.00029119    0.00004762   -0.00037926
     atom   29 type  1   force =    -0.00002229   -0.00012888   -0.00012487
     atom   30 type  1   force =    -0.00007669   -0.00000616    0.00008319
     atom   31 type  1   force =    -0.00023014   -0.00006067   -0.00003754
     atom   32 type  1   force =     0.00025951    0.00007704   -0.00016798
     atom   33 type  1   force =     0.00002696    0.00004851   -0.00015043
     atom   34 type  1   force =     0.00001357    0.00006209    0.00004136
     atom   35 type  1   force =     0.00002296    0.00000316   -0.00003373
     atom   36 type  1   force =    -0.00003658   -0.00004577    0.00004898
     atom   37 type  1   force =    -0.00011547    0.00001453   -0.00012164
     atom   38 type  1   force =     0.00008214   -0.00015963    0.00000771
     atom   39 type  1   force =     0.00014948    0.00003109   -0.00000074
     atom   40 type  1   force =     0.00011114   -0.00003611    0.00007084
     atom   41 type  1   force =    -0.00011643    0.00004985    0.00006819
     atom   42 type  1   force =     0.00004530    0.00005913   -0.00000052
     atom   43 type  1   force =    -0.00025480    0.00001168    0.00015020
     atom   44 type  1   force =    -0.00007538    0.00009772   -0.00037435
     atom   45 type  1   force =    -0.00009685   -0.00004501    0.00005562
     atom   46 type  1   force =     0.00001028    0.00003993   -0.00015218
     atom   47 type  1   force =    -0.00004720   -0.00017269   -0.00016351
     atom   48 type  1   force =    -0.00002799    0.00005213    0.00016384
     atom   49 type  3   force =     0.00119893    0.00022852   -0.00075437
     atom   50 type  3   force =    -0.00033450   -0.00076559    0.00054987
     atom   51 type  3   force =    -0.00033421   -0.00013971   -0.00011527
     atom   52 type  3   force =     0.00032711    0.00030863    0.00054644
     atom   53 type  3   force =    -0.00016623    0.00040867    0.00001242
     atom   54 type  4   force =     0.00013178   -0.00029416    0.00031621
     atom   55 type  5   force =     0.00321500   -0.00463374    0.03134662
     atom   56 type  6   force =     0.00019039    0.00023070   -0.00028449
     atom   57 type  6   force =    -0.00273516    0.00474205   -0.03045392
     atom   58 type  6   force =    -0.00030230   -0.00012704    0.00028896
     The non-local contrib.  to forces
     atom    1 type  2   force =    -0.00047715    0.00023300   -0.00009399
     atom    2 type  2   force =     0.00035122   -0.00015294   -0.00019566
     atom    3 type  2   force =    -0.00390417   -0.00385961    0.00604150
     atom    4 type  2   force =    -0.00236849   -0.00004840    0.00310568
     atom    5 type  2   force =    -0.00054640    0.00925190    0.00834697
     atom    6 type  2   force =     0.00405782   -0.00046942    0.01267588
     atom    7 type  2   force =     0.00357994   -0.00280578    0.00568633
     atom    8 type  2   force =     0.00047663    0.00022960    0.00051044
     atom    9 type  2   force =     0.00018720    0.00103311    0.00331370
     atom   10 type  2   force =    -0.00362684    0.00165581    0.01380828
     atom   11 type  2   force =    -0.00039517   -0.00030844    0.01549668
     atom   12 type  2   force =     0.00588077   -0.00339572    0.00755501
     atom   13 type  2   force =    -0.00013940    0.00028962   -0.00031577
     atom   14 type  2   force =     0.00074890    0.00161420    0.00307796
     atom   15 type  2   force =    -0.00070562   -0.00209175    0.00703028
     atom   16 type  2   force =    -0.00284853   -0.00022434    0.00572141
     atom   17 type  1   force =     0.00084438    0.00126627   -0.27569127
     atom   18 type  1   force =     0.00429845    0.00241332   -0.27653825
     atom   19 type  1   force =     0.00094573    0.00009413   -0.27531045
     atom   20 type  1   force =    -0.00088300   -0.00063974   -0.27638745
     atom   21 type  1   force =    -0.00026064    0.00141773   -0.27543438
     atom   22 type  1   force =     0.01178494    0.02366263   -0.15686627
     atom   23 type  1   force =    -0.00158598   -0.00213476   -0.18693554
     atom   24 type  1   force =     0.00276138   -0.00129640   -0.27539804
     atom   25 type  1   force =     0.00010621   -0.00085298   -0.27672966
     atom   26 type  1   force =     0.00292286    0.00949431   -0.25645932
     atom   27 type  1   force =     0.01804761    0.00617441   -0.22548993
     atom   28 type  1   force =     0.01927604   -0.01749349   -0.19318097
     atom   29 type  1   force =     0.00088153   -0.00184107   -0.27488580
     atom   30 type  1   force =    -0.00197471    0.00125517   -0.27602443
     atom   31 type  1   force =    -0.02385370   -0.01167397   -0.21274987
     atom   32 type  1   force =    -0.00970922   -0.00781945   -0.24416423
     atom   33 type  1   force =    -0.00022776    0.00031177    0.27620625
     atom   34 type  1   force =     0.00171638    0.00244235    0.27671176
     atom   35 type  1   force =     0.00154493   -0.00050181    0.27626062
     atom   36 type  1   force =    -0.00083189   -0.00082467    0.27579143
     atom   37 type  1   force =     0.00033345    0.00197095    0.27559432
     atom   38 type  1   force =     0.00295540    0.00260128    0.27712352
     atom   39 type  1   force =     0.00249579    0.00067869    0.27697444
     atom   40 type  1   force =     0.00206768   -0.00164869    0.27527739
     atom   41 type  1   force =     0.00022145    0.00048699    0.27662895
     atom   42 type  1   force =    -0.00263888    0.00246281    0.27557957
     atom   43 type  1   force =    -0.00193853   -0.00056408    0.27972458
     atom   44 type  1   force =     0.00087018   -0.00430291    0.27698483
     atom   45 type  1   force =    -0.00063912   -0.00172413    0.27607904
     atom   46 type  1   force =    -0.00124960   -0.00047756    0.27625808
     atom   47 type  1   force =    -0.00341500   -0.00009086    0.27524456
     atom   48 type  1   force =    -0.00234493   -0.00163161    0.27539218
     atom   49 type  3   force =    -0.18524181    0.03065190   -0.05821493
     atom   50 type  3   force =    -0.00796347   -0.13034702   -0.07510857
     atom   51 type  3   force =     0.19349638   -0.01593269   -0.09610094
     atom   52 type  3   force =     0.02103392    0.14054049   -0.09344213
     atom   53 type  3   force =     0.01979046    0.02829279    0.14996486
     atom   54 type  4   force =    -0.87091236   -0.27502936    0.92848665
     atom   55 type  5   force =     1.87785942    0.55156772   -1.53552304
     atom   56 type  6   force =    -0.00673411   -0.07208657   -0.06512813
     atom   57 type  6   force =     0.01276124   -0.01639329    0.10688275
     atom   58 type  6   force =    -0.02971217    0.08342715   -0.04094421
     The ionic contribution  to forces
     atom    1 type  2   force =    -0.93920666   -0.19539896   -8.51159168
     atom    2 type  2   force =    -0.97082409   -1.15691345   -8.87923910
     atom    3 type  2   force =     1.92239456    0.65015624   -9.43917723
     atom    4 type  2   force =     1.76656197    1.72479700   -9.24108446
     atom    5 type  2   force =    -0.76034358   -3.39368790  -10.32481626
     atom    6 type  2   force =    -3.93386734   -3.11163165  -14.38016937
     atom    7 type  2   force =    -3.78887393    1.11521611  -12.06207642
     atom    8 type  2   force =    -0.45950127    0.22252793   -8.34354748
     atom    9 type  2   force =     1.12823209   -2.55046056  -10.29866396
     atom   10 type  2   force =     1.18867630   -3.57190816  -19.43080262
     atom   11 type  2   force =    -2.00151996    2.17426553  -20.50104811
     atom   12 type  2   force =    -1.90159724    2.98545016  -10.56596808
     atom   13 type  2   force =     0.52980118    0.57646126   -8.41934818
     atom   14 type  2   force =     3.83222495   -2.05741986  -11.86098837
     atom   15 type  2   force =     3.84698714    1.90207498  -17.31766799
     atom   16 type  2   force =     0.57158135    4.70749472  -12.98682849
     atom   17 type  1   force =    -0.14013069   -0.66129088   32.26091082
     atom   18 type  1   force =    -2.24098709   -1.69625804   31.29371320
     atom   19 type  1   force =    -1.12751558    0.05265564   31.69889031
     atom   20 type  1   force =     1.01158924    0.86392864   32.41898206
     atom   21 type  1   force =     0.17389725   -1.94589853   32.03468770
     atom   22 type  1   force =    -2.23795534   -5.30456346   25.62217651
     atom   23 type  1   force =    -4.76109545    0.06283359   24.69167900
     atom   24 type  1   force =    -2.11307014    1.73094744   31.40535787
     atom   25 type  1   force =    -0.02603376    0.43231199   32.25596671
     atom   26 type  1   force =     2.91747166   -4.06815809   28.41142020
     atom   27 type  1   force =     1.27400046   -0.00855836   20.49420921
     atom   28 type  1   force =    -2.26289231    5.24373796   26.48561594
     atom   29 type  1   force =     0.01965819    1.75657342   32.08056462
     atom   30 type  1   force =     1.12881315   -0.96850375   32.14850978
     atom   31 type  1   force =     4.85878696    0.33656791   28.22809431
     atom   32 type  1   force =     3.17840554    3.98389222   28.83936684
     atom   33 type  1   force =    -0.05127103   -0.12666984  -39.07979059
     atom   34 type  1   force =    -0.56945139   -0.42784243  -39.19339451
     atom   35 type  1   force =    -0.28914643   -0.04257039  -39.24721675
     atom   36 type  1   force =     0.27302350    0.22243730  -39.08969433
     atom   37 type  1   force =    -0.01844235   -0.48724989  -39.20246195
     atom   38 type  1   force =    -0.41733595   -0.93184916  -40.31536092
     atom   39 type  1   force =    -0.90997720   -0.05708895  -40.68613153
     atom   40 type  1   force =    -0.52223110    0.40397006  -39.34367966
     atom   41 type  1   force =     0.05823259    0.12833616  -39.16727997
     atom   42 type  1   force =     0.64039354   -0.72202339  -40.20915299
     atom   43 type  1   force =     0.29413399    0.05131804  -41.17763704
     atom   44 type  1   force =    -0.25866296    0.97336198  -40.32952564
     atom   45 type  1   force =     0.01554858    0.50324892  -39.10164793
     atom   46 type  1   force =     0.32790554   -0.23270041  -39.01114291
     atom   47 type  1   force =     0.87995363   -0.02484963  -39.93791124
     atom   48 type  1   force =     0.55132340    0.76661250  -40.07712001
     atom   49 type  3   force =   -21.27133605    3.67811139   58.90486486
     atom   50 type  3   force =    -1.58249844  -20.68299890   58.08593041
     atom   51 type  3   force =    21.71681017   -2.58738094   61.19717108
     atom   52 type  3   force =     2.76171894   20.97920188   58.84385262
     atom   53 type  3   force =     7.91612624    2.06844283   63.36629437
     atom   54 type  4   force =     4.43065307    0.01985127   20.58082143
     atom   55 type  5   force =   -13.31768674   -2.94622758   24.99048720
     atom   56 type  6   force =     0.54278512    2.65523841    5.38851001
     atom   57 type  6   force =    -2.26589372    0.21158963    1.18501320
     atom   58 type  6   force =     1.38165753   -3.22350999    4.81907547
     The local contribution  to forces
     atom    1 type  2   force =     0.93928862    0.19553182    8.51150901
     atom    2 type  2   force =     0.97033175    1.15655956    8.87930841
     atom    3 type  2   force =    -1.91910431   -0.64710476    9.43389984
     atom    4 type  2   force =    -1.76430730   -1.72433609    9.23835850
     atom    5 type  2   force =     0.76048373    3.38426272   10.31606585
     atom    6 type  2   force =     3.92907921    3.11075592   14.36508601
     atom    7 type  2   force =     3.78406883   -1.11213145   12.05472744
     atom    8 type  2   force =     0.45910655   -0.22275206    8.34348919
     atom    9 type  2   force =    -1.12839138    2.54886481   10.29490482
     atom   10 type  2   force =    -1.18484268    3.57074234   19.41411229
     atom   11 type  2   force =     2.00249860   -2.17359361   20.48070831
     atom   12 type  2   force =     1.89591849   -2.98185186   10.55803122
     atom   13 type  2   force =    -0.52957671   -0.57631257    8.41948069
     atom   14 type  2   force =    -3.83135122    2.05558228   11.85579433
     atom   15 type  2   force =    -3.84566539   -1.89993738   17.30596427
     atom   16 type  2   force =    -0.56908403   -4.70580049   12.97874243
     atom   17 type  1   force =     0.13917376    0.65996163  -31.98662697
     atom   18 type  1   force =     2.23599017    1.69316179  -31.01905826
     atom   19 type  1   force =     1.12617368   -0.05257864  -31.42522633
     atom   20 type  1   force =    -1.01021917   -0.86299543  -32.14406496
     atom   21 type  1   force =    -0.17362305    1.94387480  -31.76065893
     atom   22 type  1   force =     2.22606512    5.28015073  -25.46517155
     atom   23 type  1   force =     4.76121331   -0.06075366  -24.50446092
     atom   24 type  1   force =     2.10973456   -1.72908186  -31.13172223
     atom   25 type  1   force =     0.02579947   -0.43135940  -31.98061173
     atom   26 type  1   force =    -2.92051788    4.05907525  -28.15499219
     atom   27 type  1   force =    -1.29056539    0.00206944  -20.26705081
     atom   28 type  1   force =     2.24384319   -5.22557625  -26.29267943
     atom   29 type  1   force =    -0.02049213   -1.75434850  -31.80723221
     atom   30 type  1   force =    -1.12656133    0.96695416  -31.87386106
     atom   31 type  1   force =    -4.83522518   -0.32539050  -28.01488740
     atom   32 type  1   force =    -3.16920226   -3.97561577  -28.59555846
     atom   33 type  1   force =     0.05149754    0.12639806   38.80440932
     atom   34 type  1   force =     0.56775618    0.42551477   38.91772518
     atom   35 type  1   force =     0.28763452    0.04303871   38.97188405
     atom   36 type  1   force =    -0.27225536   -0.22168794   38.81492803
     atom   37 type  1   force =     0.01800487    0.48537549   38.92771038
     atom   38 type  1   force =     0.41444947    0.92906599   40.03902301
     atom   39 type  1   force =     0.90758160    0.05642847   40.40992725
     atom   40 type  1   force =     0.52036844   -0.40237804   39.06941861
     atom   41 type  1   force =    -0.05853397   -0.12874363   38.89170870
     atom   42 type  1   force =    -0.63768008    0.71962500   39.93438309
     atom   43 type  1   force =    -0.29246484   -0.05074172   40.89883749
     atom   44 type  1   force =     0.25772435   -0.96895613   40.05296449
     atom   45 type  1   force =    -0.01502507   -0.50157947   38.82661143
     atom   46 type  1   force =    -0.32668632    0.23319308   38.73573512
     atom   47 type  1   force =    -0.87662518    0.02473210   39.66329333
     atom   48 type  1   force =    -0.54900251   -0.76490973   39.80266659
     atom   49 type  3   force =    21.45439427   -3.70732511  -58.83644620
     atom   50 type  3   force =     1.59398760   20.81228187  -58.00109196
     atom   51 type  3   force =   -21.90739129    2.60173395  -61.09408200
     atom   52 type  3   force =    -2.77970736  -21.11726725  -58.74151677
     atom   53 type  3   force =    -7.93456163   -2.09536941  -63.51067982
     atom   54 type  4   force =    -3.57768744    0.25024899  -21.49602539
     atom   55 type  5   force =    11.46179471    2.39480519  -23.43435092
     atom   56 type  6   force =    -0.53591796   -2.58305279   -5.32387830
     atom   57 type  6   force =     2.25061414   -0.19030926   -1.32245210
     atom   58 type  6   force =    -1.35236458    3.14017826   -4.77798249
     The core correction contribution to forces
     atom    1 type  2   force =     0.00025840   -0.00049032   -0.00037505
     atom    2 type  2   force =    -0.00015664    0.00035559   -0.00024278
     atom    3 type  2   force =     0.00079680    0.00078272   -0.00149946
     atom    4 type  2   force =     0.00075000    0.00025993   -0.00095121
     atom    5 type  2   force =     0.00021105   -0.00078070   -0.00060726
     atom    6 type  2   force =    -0.00028792    0.00076553   -0.00009491
     atom    7 type  2   force =     0.00050611   -0.00013479    0.00031899
     atom    8 type  2   force =    -0.00002388    0.00012254   -0.00061783
     atom    9 type  2   force =     0.00000916   -0.00005584   -0.00027231
     atom   10 type  2   force =    -0.00007067   -0.00142518    0.00039424
     atom   11 type  2   force =    -0.00120944    0.00051116    0.00110104
     atom   12 type  2   force =    -0.00068068    0.00050313   -0.00079378
     atom   13 type  2   force =    -0.00018231   -0.00017939   -0.00006083
     atom   14 type  2   force =    -0.00063523   -0.00026411    0.00047226
     atom   15 type  2   force =     0.00047401    0.00032354    0.00113480
     atom   16 type  2   force =     0.00026055   -0.00055950    0.00045807
     atom   17 type  1   force =    -0.00005255   -0.00000714    0.00196439
     atom   18 type  1   force =    -0.00015927   -0.00008414    0.00203894
     atom   19 type  1   force =    -0.00004826   -0.00005480    0.00197198
     atom   20 type  1   force =    -0.00000398    0.00000149    0.00198991
     atom   21 type  1   force =    -0.00003879   -0.00003577    0.00197215
     atom   22 type  1   force =    -0.00009191   -0.00042207   -0.00039862
     atom   23 type  1   force =     0.00004378    0.00006855   -0.00003699
     atom   24 type  1   force =    -0.00006797    0.00004308    0.00198198
     atom   25 type  1   force =     0.00005179    0.00002230    0.00198591
     atom   26 type  1   force =    -0.00002310   -0.00024127    0.00142865
     atom   27 type  1   force =    -0.00045581   -0.00005864    0.00111574
     atom   28 type  1   force =    -0.00029987    0.00038005    0.00020247
     atom   29 type  1   force =    -0.00002092    0.00009988    0.00197879
     atom   30 type  1   force =     0.00008020   -0.00003694    0.00200913
     atom   31 type  1   force =     0.00051820    0.00026387    0.00063657
     atom   32 type  1   force =     0.00016234    0.00019479    0.00122925
     atom   33 type  1   force =     0.00001670   -0.00000388   -0.00193172
     atom   34 type  1   force =    -0.00003147   -0.00005413   -0.00198876
     atom   35 type  1   force =     0.00000239    0.00003626   -0.00193358
     atom   36 type  1   force =     0.00001921    0.00002510   -0.00191690
     atom   37 type  1   force =     0.00000513   -0.00004334   -0.00192604
     atom   38 type  1   force =     0.00001038    0.00001043   -0.00197392
     atom   39 type  1   force =     0.00002915    0.00002669   -0.00197958
     atom   40 type  1   force =    -0.00005856    0.00000926   -0.00192177
     atom   41 type  1   force =    -0.00003625   -0.00001301   -0.00194748
     atom   42 type  1   force =    -0.00002455   -0.00003853   -0.00193312
     atom   43 type  1   force =     0.00000311   -0.00001102   -0.00220840
     atom   44 type  1   force =    -0.00002526    0.00001964   -0.00198748
     atom   45 type  1   force =     0.00001198    0.00001601   -0.00195927
     atom   46 type  1   force =     0.00003339    0.00000915   -0.00196661
     atom   47 type  1   force =     0.00004952    0.00003143   -0.00190556
     atom   48 type  1   force =     0.00002345    0.00000553   -0.00189397
     atom   49 type  3   force =     0.00424268   -0.00132957   -0.00309891
     atom   50 type  3   force =    -0.00144950    0.00369854   -0.00370535
     atom   51 type  3   force =    -0.00464040    0.00092904   -0.00153473
     atom   52 type  3   force =    -0.00174433   -0.00488759   -0.00188057
     atom   53 type  3   force =    -0.00270141   -0.00114120   -0.00360130
     atom   54 type  4   force =     0.01797741    0.00455828   -0.01221893
     atom   55 type  5   force =    -0.01844743   -0.00483834    0.01172787
     atom   56 type  6   force =     0.00000000    0.00000000    0.00000000
     atom   57 type  6   force =     0.00000000    0.00000000    0.00000000
     atom   58 type  6   force =     0.00000000    0.00000000    0.00000000
     The Hubbard contrib.    to forces
     atom    1 type  2   force =     0.00000000    0.00000000    0.00000000
     atom    2 type  2   force =     0.00000000    0.00000000    0.00000000
     atom    3 type  2   force =     0.00000000    0.00000000    0.00000000
     atom    4 type  2   force =     0.00000000    0.00000000    0.00000000
     atom    5 type  2   force =     0.00000000    0.00000000    0.00000000
     atom    6 type  2   force =     0.00000000    0.00000000    0.00000000
     atom    7 type  2   force =     0.00000000    0.00000000    0.00000000
     atom    8 type  2   force =     0.00000000    0.00000000    0.00000000
     atom    9 type  2   force =     0.00000000    0.00000000    0.00000000
     atom   10 type  2   force =     0.00000000    0.00000000    0.00000000
     atom   11 type  2   force =     0.00000000    0.00000000    0.00000000
     atom   12 type  2   force =     0.00000000    0.00000000    0.00000000
     atom   13 type  2   force =     0.00000000    0.00000000    0.00000000
     atom   14 type  2   force =     0.00000000    0.00000000    0.00000000
     atom   15 type  2   force =     0.00000000    0.00000000    0.00000000
     atom   16 type  2   force =     0.00000000    0.00000000    0.00000000
     atom   17 type  1   force =     0.00000000    0.00000000    0.00000000
     atom   18 type  1   force =     0.00000000    0.00000000    0.00000000
     atom   19 type  1   force =     0.00000000    0.00000000    0.00000000
     atom   20 type  1   force =     0.00000000    0.00000000    0.00000000
     atom   21 type  1   force =     0.00000000    0.00000000    0.00000000
     atom   22 type  1   force =     0.00000000    0.00000000    0.00000000
     atom   23 type  1   force =     0.00000000    0.00000000    0.00000000
     atom   24 type  1   force =     0.00000000    0.00000000    0.00000000
     atom   25 type  1   force =     0.00000000    0.00000000    0.00000000
     atom   26 type  1   force =     0.00000000    0.00000000    0.00000000
     atom   27 type  1   force =     0.00000000    0.00000000    0.00000000
     atom   28 type  1   force =     0.00000000    0.00000000    0.00000000
     atom   29 type  1   force =     0.00000000    0.00000000    0.00000000
     atom   30 type  1   force =     0.00000000    0.00000000    0.00000000
     atom   31 type  1   force =     0.00000000    0.00000000    0.00000000
     atom   32 type  1   force =     0.00000000    0.00000000    0.00000000
     atom   33 type  1   force =     0.00000000    0.00000000    0.00000000
     atom   34 type  1   force =     0.00000000    0.00000000    0.00000000
     atom   35 type  1   force =     0.00000000    0.00000000    0.00000000
     atom   36 type  1   force =     0.00000000    0.00000000    0.00000000
     atom   37 type  1   force =     0.00000000    0.00000000    0.00000000
     atom   38 type  1   force =     0.00000000    0.00000000    0.00000000
     atom   39 type  1   force =     0.00000000    0.00000000    0.00000000
     atom   40 type  1   force =     0.00000000    0.00000000    0.00000000
     atom   41 type  1   force =     0.00000000    0.00000000    0.00000000
     atom   42 type  1   force =     0.00000000    0.00000000    0.00000000
     atom   43 type  1   force =     0.00000000    0.00000000    0.00000000
     atom   44 type  1   force =     0.00000000    0.00000000    0.00000000
     atom   45 type  1   force =     0.00000000    0.00000000    0.00000000
     atom   46 type  1   force =     0.00000000    0.00000000    0.00000000
     atom   47 type  1   force =     0.00000000    0.00000000    0.00000000
     atom   48 type  1   force =     0.00000000    0.00000000    0.00000000
     atom   49 type  3   force =     0.00000000    0.00000000    0.00000000
     atom   50 type  3   force =     0.00000000    0.00000000    0.00000000
     atom   51 type  3   force =     0.00000000    0.00000000    0.00000000
     atom   52 type  3   force =     0.00000000    0.00000000    0.00000000
     atom   53 type  3   force =     0.00000000    0.00000000    0.00000000
     atom   54 type  4   force =     0.00000000    0.00000000    0.00000000
     atom   55 type  5   force =     0.00000000    0.00000000    0.00000000
     atom   56 type  6   force =     0.00000000    0.00000000    0.00000000
     atom   57 type  6   force =     0.00000000    0.00000000    0.00000000
     atom   58 type  6   force =     0.00000000    0.00000000    0.00000000
     The SCF correction term to forces
     atom    1 type  2   force =    -0.00000679   -0.00000153   -0.00000198
     atom    2 type  2   force =    -0.00000616    0.00000326   -0.00000155
     atom    3 type  2   force =    -0.00000351   -0.00000497   -0.00000134
     atom    4 type  2   force =    -0.00000499   -0.00000932   -0.00000135
     atom    5 type  2   force =    -0.00000544   -0.00000128   -0.00000088
     atom    6 type  2   force =    -0.00000659    0.00000321    0.00000089
     atom    7 type  2   force =    -0.00000715   -0.00000356    0.00000068
     atom    8 type  2   force =    -0.00000356   -0.00001182   -0.00000117
     atom    9 type  2   force =     0.00000816    0.00000523   -0.00000139
     atom   10 type  2   force =     0.00000699    0.00000859    0.00000057
     atom   11 type  2   force =     0.00000352    0.00000145    0.00000123
     atom   12 type  2   force =     0.00000397   -0.00000206   -0.00000065
     atom   13 type  2   force =     0.00000480    0.00000458   -0.00000298
     atom   14 type  2   force =     0.00000601    0.00000813   -0.00000116
     atom   15 type  2   force =     0.00000649    0.00000008   -0.00000033
     atom   16 type  2   force =     0.00000434   -0.00000037   -0.00000089
     atom   17 type  1   force =    -0.00000381   -0.00000217    0.00000071
     atom   18 type  1   force =    -0.00000294    0.00000021   -0.00000018
     atom   19 type  1   force =    -0.00000229    0.00000004   -0.00000299
     atom   20 type  1   force =    -0.00000250   -0.00000477   -0.00000157
     atom   21 type  1   force =     0.00000067   -0.00000080    0.00000396
     atom   22 type  1   force =     0.00000020    0.00000290    0.00000401
     atom   23 type  1   force =    -0.00000118    0.00000134    0.00000191
     atom   24 type  1   force =     0.00000019   -0.00000337    0.00000084
     atom   25 type  1   force =     0.00000230    0.00000055    0.00000071
     atom   26 type  1   force =     0.00000238    0.00000359    0.00000061
     atom   27 type  1   force =     0.00000182    0.00000109    0.00000056
     atom   28 type  1   force =     0.00000131   -0.00000076    0.00000043
     atom   29 type  1   force =     0.00000086    0.00000033   -0.00000157
     atom   30 type  1   force =     0.00000044    0.00000239   -0.00000244
     atom   31 type  1   force =     0.00000174    0.00000081   -0.00000335
     atom   32 type  1   force =     0.00000107   -0.00000126   -0.00000158
     atom   33 type  1   force =    -0.00000409   -0.00000238   -0.00000081
     atom   34 type  1   force =    -0.00000374   -0.00000055    0.00000048
     atom   35 type  1   force =    -0.00000285   -0.00000016    0.00000339
     atom   36 type  1   force =    -0.00000254   -0.00000459    0.00000156
     atom   37 type  1   force =     0.00000073   -0.00000112   -0.00000405
     atom   38 type  1   force =     0.00000012    0.00000192   -0.00000310
     atom   39 type  1   force =    -0.00000164    0.00000130   -0.00000034
     atom   40 type  1   force =    -0.00000020   -0.00000269   -0.00000053
     atom   41 type  1   force =     0.00000264    0.00000084   -0.00000096
     atom   42 type  1   force =     0.00000298    0.00000300   -0.00000021
     atom   43 type  1   force =     0.00000228    0.00000123    0.00000060
     atom   44 type  1   force =     0.00000146    0.00000033    0.00000019
     atom   45 type  1   force =     0.00000069    0.00000068    0.00000129
     atom   46 type  1   force =     0.00000060    0.00000190    0.00000222
     atom   47 type  1   force =     0.00000216    0.00000074    0.00000370
     atom   48 type  1   force =     0.00000128   -0.00000068    0.00000194
     atom   49 type  3   force =     0.00000037   -0.00000075    0.00000683
     atom   50 type  3   force =    -0.00000006    0.00000346    0.00000639
     atom   51 type  3   force =    -0.00000153    0.00000113    0.00000340
     atom   52 type  3   force =     0.00000060   -0.00000214    0.00000488
     atom   53 type  3   force =    -0.00000110    0.00000010   -0.00000115
     atom   54 type  4   force =    -0.00000082    0.00000019   -0.00000194
     atom   55 type  5   force =    -0.00000024    0.00000045   -0.00000242
     atom   56 type  6   force =    -0.00000007    0.00000000   -0.00000024
     atom   57 type  6   force =     0.00000016    0.00000005   -0.00000001
     atom   58 type  6   force =    -0.00000007    0.00000006   -0.00000023

     DFT-D3 dispersion contribution to forces:
     atom    1 type  2   force =     0.00014031    0.00003168    0.00039724
     atom    2 type  2   force =     0.00011258    0.00016975    0.00049307
     atom    3 type  2   force =    -0.00045775   -0.00014013    0.00073662
     atom    4 type  2   force =    -0.00035296   -0.00038083    0.00063734
     atom    5 type  2   force =     0.00018455    0.00071942    0.00098281
     atom    6 type  2   force =     0.00101636    0.00070834    0.00248483
     atom    7 type  2   force =     0.00083704   -0.00018965    0.00138806
     atom    8 type  2   force =     0.00007451   -0.00002446    0.00022408
     atom    9 type  2   force =    -0.00025653    0.00054451    0.00078165
     atom   10 type  2   force =    -0.00005515    0.00100398    0.00259836
     atom   11 type  2   force =     0.00046686   -0.00069245    0.00379136
     atom   12 type  2   force =     0.00046896   -0.00064417    0.00104801
     atom   13 type  2   force =    -0.00004337   -0.00010703    0.00032927
     atom   14 type  2   force =    -0.00088236    0.00050356    0.00164640
     atom   15 type  2   force =    -0.00104026   -0.00052511    0.00341123
     atom   16 type  2   force =    -0.00015260   -0.00106690    0.00182868
     atom   17 type  1   force =     0.00008280    0.00024613   -0.00058047
     atom   18 type  1   force =     0.00080062    0.00058344   -0.00020487
     atom   19 type  1   force =     0.00034061   -0.00000720   -0.00034488
     atom   20 type  1   force =    -0.00035860   -0.00030555   -0.00058911
     atom   21 type  1   force =    -0.00006592    0.00064880   -0.00050851
     atom   22 type  1   force =     0.00016673    0.00115420   -0.00009456
     atom   23 type  1   force =     0.00134305   -0.00001077   -0.00027807
     atom   24 type  1   force =     0.00076526   -0.00060192   -0.00019099
     atom   25 type  1   force =     0.00005611   -0.00016155   -0.00059739
     atom   26 type  1   force =     0.00019350   -0.00024353   -0.00148286
     atom   27 type  1   force =    -0.00090449    0.00042986   -0.00274615
     atom   28 type  1   force =    -0.00021973   -0.00099874   -0.00033739
     atom   29 type  1   force =    -0.00005000   -0.00061177   -0.00054837
     atom   30 type  1   force =    -0.00043462    0.00032397   -0.00054747
     atom   31 type  1   force =    -0.00045834    0.00017238   -0.00112747
     atom   32 type  1   force =     0.00060185   -0.00057232   -0.00103948
     atom   33 type  1   force =     0.00001542    0.00001595    0.00095744
     atom   34 type  1   force =     0.00002742    0.00000324    0.00098754
     atom   35 type  1   force =    -0.00000980    0.00000171    0.00096885
     atom   36 type  1   force =     0.00001033    0.00001019    0.00093951
     atom   37 type  1   force =    -0.00001750   -0.00003640    0.00096603
     atom   38 type  1   force =     0.00000252    0.00001107    0.00119945
     atom   39 type  1   force =     0.00002160   -0.00001393    0.00120934
     atom   40 type  1   force =    -0.00003531    0.00001516    0.00097713
     atom   41 type  1   force =    -0.00000308   -0.00001634    0.00095926
     atom   42 type  1   force =    -0.00000789    0.00003142    0.00112346
     atom   43 type  1   force =     0.00000900    0.00001039    0.00143329
     atom   44 type  1   force =     0.00001666   -0.00002403    0.00118959
     atom   45 type  1   force =     0.00000591   -0.00000586    0.00097139
     atom   46 type  1   force =     0.00000648    0.00001492    0.00096223
     atom   47 type  1   force =    -0.00001250    0.00000469    0.00111201
     atom   48 type  1   force =    -0.00002888   -0.00002272    0.00111744
     atom   49 type  3   force =    -0.00086071    0.00012183   -0.00786569
     atom   50 type  3   force =    -0.00241082   -0.00340239   -0.00548073
     atom   51 type  3   force =     0.00139228    0.00051096   -0.00557176
     atom   52 type  3   force =    -0.00097485    0.00272440   -0.00647126
     atom   53 type  3   force =     0.00118102    0.00018471   -0.00196423
     atom   54 type  4   force =     0.00010173    0.00007762   -0.00074529
     atom   55 type  5   force =    -0.00030490    0.00005998   -0.00099175
     atom   56 type  6   force =     0.00005723    0.00013281    0.00021249
     atom   57 type  6   force =    -0.00021716   -0.00014392    0.00010257
     atom   58 type  6   force =     0.00011680   -0.00022135    0.00014074

     Total force =     0.044479     Total SCF correction =     0.000040

     DFT-D3 dispersion Force =     0.017438


     Computing stress (Cartesian axis) and pressure


     negative rho (up, down):  4.795E-03 5.162E-03
          total   stress  (Ry/bohr**3)                   (kbar)     P=       -1.33
  -0.00001045  -0.00000095   0.00000080           -1.54       -0.14        0.12
  -0.00000095  -0.00000932  -0.00000043           -0.14       -1.37       -0.06
   0.00000080  -0.00000043  -0.00000738            0.12       -0.06       -1.09

     kinetic stress (kbar)   7256.55     -1.13     -9.43
                               -1.13   7273.17     -0.27
                               -9.43     -0.27   7301.81

     local   stress (kbar)-135460.16    -63.68    518.89
                              -63.68-134007.04    220.08
                              518.89    220.08 134097.53

     nonloc. stress (kbar)  -1419.24     -0.12      0.32
                               -0.12  -1420.47      0.34
                                0.32      0.34  -1427.40

     hartree stress (kbar)  68217.22     29.41   -249.11
                               29.41  67561.44   -102.83
                             -249.11   -102.83 -63300.64

     exc-cor stress (kbar)   2000.72      0.00      0.00
                                0.00   2000.30     -0.04
                                0.00     -0.04   2000.26

     corecor stress (kbar)  -3626.55      0.04      0.05
                                0.04  -3626.83      0.01
                                0.05      0.01  -3627.25

     ewald   stress (kbar)  63034.18     35.30   -260.57
                               35.30  62222.28   -117.34
                             -260.57   -117.34 -75042.85

     hubbard stress (kbar)      0.00      0.00      0.00
                                0.00      0.00      0.00
                                0.00      0.00      0.00

     DFT-D   stress (kbar)     -4.26      0.02     -0.04
                                0.02     -4.22      0.01
                               -0.04      0.01     -2.55

     XDM     stress (kbar)      0.00      0.00      0.00
                                0.00      0.00      0.00
                                0.00      0.00      0.00

     dft-nl  stress (kbar)      0.00      0.00      0.00
                                0.00      0.00      0.00
                                0.00      0.00      0.00

     TS-vdW  stress (kbar)      0.00      0.00      0.00
                                0.00      0.00      0.00
                                0.00      0.00      0.00

     MDB     stress (kbar)      0.00      0.00      0.00
                                0.00      0.00      0.00
                                0.00      0.00      0.00

     3D-RISM stress (kbar)      0.00      0.00      0.00
                                0.00      0.00      0.00
                                0.00      0.00      0.00


     Writing all to output data dir ./Ag-WS2-H2NOH.save/ :
     XML data file, charge density, pseudopotentials, collected wavefunctions

     init_run     :    161.00s CPU    164.40s WALL (       1 calls)
     electrons    :  10966.46s CPU  11180.02s WALL (       1 calls)
     forces       :     43.87s CPU     45.41s WALL (       1 calls)
     force_dftd3  :      0.13s CPU      0.15s WALL (       1 calls)
     stress       :    152.80s CPU    157.08s WALL (       1 calls)
     stres_dftd3  :      0.13s CPU      0.15s WALL (       1 calls)

     Called by init_run:
     wfcinit      :    153.27s CPU    156.02s WALL (       1 calls)
     wfcinit:atom :      0.67s CPU      0.68s WALL (      26 calls)
     wfcinit:wfcr :    149.08s CPU    151.72s WALL (      26 calls)
     potinit      :      2.59s CPU      2.70s WALL (       1 calls)
     hinit0       :      1.43s CPU      1.53s WALL (       1 calls)

     Called by electrons:
     c_bands      :   9506.70s CPU   9674.16s WALL (      33 calls)
     sum_band     :   1352.71s CPU   1385.74s WALL (      33 calls)
     v_of_rho     :     17.73s CPU     18.71s WALL (      33 calls)
     v_h          :      0.84s CPU      0.93s WALL (      33 calls)
     v_xc         :     17.91s CPU     18.85s WALL (      35 calls)
     newd         :     50.96s CPU     61.94s WALL (      33 calls)
     PAW_pot      :     34.30s CPU     34.75s WALL (      33 calls)
     mix_rho      :      4.49s CPU      4.80s WALL (      33 calls)
     energy_dftd3 :      0.05s CPU      0.05s WALL (       1 calls)

     Called by c_bands:
     init_us_2    :    119.11s CPU    122.39s WALL (    1794 calls)
     cegterg      :   9357.86s CPU   9522.16s WALL (     858 calls)

     Called by sum_band:
     sum_band:wei :      0.01s CPU      0.01s WALL (      33 calls)
     sum_band:loo :   1254.21s CPU   1274.41s WALL (      33 calls)
     sum_band:buf :     10.24s CPU     10.51s WALL (     858 calls)
     sum_band:ini :     56.49s CPU     58.02s WALL (     858 calls)
     sum_band:cal :    271.81s CPU    279.76s WALL (     858 calls)
     sum_band:bec :      3.20s CPU      3.26s WALL (     858 calls)
     addusdens    :     96.26s CPU    108.91s WALL (      33 calls)
                                        0.00s GPU  (      33 calls)
     addusd:skk   :      1.49s CPU      1.63s WALL (     198 calls)
                                        0.00s GPU  (     198 calls)

     Called by *egterg:
     cdiaghg      :    510.09s CPU    529.42s WALL (    6040 calls)
     cegterg:over :    508.45s CPU    522.12s WALL (    5208 calls)
     cegterg:upda :    248.44s CPU    253.11s WALL (    5208 calls)
     cegterg:last :    473.41s CPU    482.06s WALL (    1863 calls)
     cdiaghg:chol :     43.05s CPU     43.44s WALL (    6040 calls)
     cdiaghg:inve :      7.25s CPU      7.33s WALL (    6040 calls)
     cdiaghg:para :    144.48s CPU    155.37s WALL (   12080 calls)
     h_psi        :   6941.81s CPU   7042.88s WALL (    6092 calls)
     s_psi        :    656.37s CPU    663.93s WALL (    6092 calls)
     g_psi        :     10.01s CPU     10.35s WALL (    5208 calls)

     Called by h_psi:
     h_psi:calbec :    866.42s CPU    890.99s WALL (    6092 calls)
     vloc_psi     :   5377.64s CPU   5443.10s WALL (    6092 calls)
     add_vuspsi   :    670.49s CPU    679.27s WALL (    6092 calls)

     General routines
     calbec       :   1278.01s CPU   1314.50s WALL (    7392 calls)
     fft          :     17.70s CPU     19.10s WALL (     865 calls)
     ffts         :      1.65s CPU      1.76s WALL (     132 calls)
     fftw         :   5719.41s CPU   5782.56s WALL ( 1294766 calls)
     interpolate  :      2.63s CPU      2.79s WALL (      66 calls)

     Parallel routines

     PAW routines
     PAW_pot      :     34.30s CPU     34.75s WALL (      33 calls)

     PWSCF        :  11334.00s CPU  11594.17s WALL


   This run was terminated on:  23:47:37   1Aug2026            

=------------------------------------------------------------------------------=
   JOB DONE.
=------------------------------------------------------------------------------=
