
     Program PWSCF v.7.4.1 starts on  2Aug2026 at  2:23:15 

     This program is part of the open-source Quantum ESPRESSO suite
     for quantum simulation of materials; please cite
         "P. Giannozzi et al., J. Phys.:Condens. Matter 21 395502 (2009);
         "P. Giannozzi et al., J. Phys.:Condens. Matter 29 465901 (2017);
         "P. Giannozzi et al., J. Chem. Phys. 152 154105 (2020);
          URL http://www.quantum-espresso.org", 
     in publications or presentations arising from this work. More details at
     http://www.quantum-espresso.org/quote

     Parallel version (MPI & OpenMP), running on      64 processor cores
     Number of MPI processes:                64
     Threads/MPI process:                     1

     MPI processes distributed on     1 nodes
     96351 MiB available memory on the printing compute node when the environment starts

     Reading input from disp_028_atom58_-1y.in

     Current dimensions of program PWSCF are:
     Max number of different atomic species (ntypx) = 10
     Max number of k-points (npk) =  40000
     Max angular momentum in pseudopotentials (lmaxx) =  4
     file S.pbe-n-kjpaw_psl.1.0.0.UPF: wavefunction(s)  3S 3P renormalized
     file W.pbe-spn-kjpaw_psl.1.0.0.UPF: wavefunction(s)  6S 5P 5D renormalized
     file Ag.pbe-n-kjpaw_psl.1.0.0.UPF: wavefunction(s)  5S 5P renormalized
     file N.pbe-n-kjpaw_psl.1.0.0.UPF: wavefunction(s)  2S renormalized
     file O.pbe-n-kjpaw_psl.1.0.0.UPF: wavefunction(s)  2S 2P renormalized
     file H.pbe-kjpaw_psl.1.0.0.UPF: wavefunction(s)  1S renormalized
     Message from routine setup:
     the system is metallic, specify occupations

     R & G space division:  proc/nbgrp/npool/nimage =      64
     Subspace diagonalization in iterative solution of the eigenvalue problem:
     one sub-group per band group will be used
     ELPA distributed-memory algorithm (size of sub-group:  2*  2 procs)


     Parallelization info
     --------------------
     sticks:   dense  smooth     PW     G-vecs:    dense   smooth      PW
     Min         247     123     32                39673    14017    1874
     Max         248     124     33                39680    14030    1885
     Sum       15841    7909   2065              2539249   897387  120111

     Using Slab Decomposition



     bravais-lattice index     =            0
     lattice parameter (alat)  =      23.9624  a.u.
     unit-cell volume          =   18794.0729 (a.u.)^3
     number of atoms/cell      =           58
     number of atomic types    =            6
     number of electrons       =       485.00 (up: 243.00, down: 242.00)
     number of Kohn-Sham states=          243
     kinetic-energy cutoff     =      50.0000  Ry
     charge density cutoff     =     400.0000  Ry
     scf convergence threshold =      1.0E-10
     mixing beta               =       0.4000
     number of iterations used =            8  plain     mixing
     Exchange-correlation= SLA  PW   PBX  PBC
                           (   1   4   3   4   0   0   0)

     celldm(1)=  23.962422  celldm(2)=   0.000000  celldm(3)=   0.000000
     celldm(4)=   0.000000  celldm(5)=   0.000000  celldm(6)=   0.000000

     crystal axes: (cart. coord. in units of alat)
               a(1) = (   1.000000   0.000000   0.000000 )  
               a(2) = (  -0.500000   0.866025   0.000000 )  
               a(3) = (   0.000000   0.000000   1.577241 )  

     reciprocal axes: (cart. coord. in units 2 pi/alat)
               b(1) = (  1.000000  0.577350 -0.000000 )  
               b(2) = (  0.000000  1.154701  0.000000 )  
               b(3) = (  0.000000 -0.000000  0.634018 )  


     PseudoPot. # 1 for S  read from file:
     /share/work_r640/fmigm008/pseudo/S.pbe-n-kjpaw_psl.1.0.0.UPF
     MD5 check sum: fb45dfebcf3e72a4e1bd4a866ec2e262
     Pseudo is Projector augmented-wave + core cor, Zval =  6.0
     Generated using &quot;atomic&quot; code by A. Dal Corso  v.6.3
     Shape of augmentation charge: PSQ
     Using radial grid of 1151 points,  6 beta functions with: 
                l(1) =   0
                l(2) =   0
                l(3) =   1
                l(4) =   1
                l(5) =   2
                l(6) =   2
     Q(r) pseudized with 0 coefficients 


     PseudoPot. # 2 for W  read from file:
     /share/work_r640/fmigm008/pseudo/W.pbe-spn-kjpaw_psl.1.0.0.UPF
     MD5 check sum: 03c3df5b60893f488392c7401945500a
     Pseudo is Projector augmented-wave + core cor, Zval = 14.0
     Generated using &quot;atomic&quot; code by A. Dal Corso  v.6.2.2
     Shape of augmentation charge: PSQ
     Using radial grid of 1273 points,  6 beta functions with: 
                l(1) =   0
                l(2) =   0
                l(3) =   1
                l(4) =   1
                l(5) =   2
                l(6) =   2
     Q(r) pseudized with 0 coefficients 


     PseudoPot. # 3 for Ag read from file:
     /share/work_r640/fmigm008/pseudo/Ag.pbe-n-kjpaw_psl.1.0.0.UPF
     MD5 check sum: 51099775af2a3182a6a1caffb86952a3
     Pseudo is Projector augmented-wave + core cor, Zval = 11.0
     Generated using &quot;atomic&quot; code by A. Dal Corso  v.6.2.2
     Shape of augmentation charge: PSQ
     Using radial grid of 1237 points,  6 beta functions with: 
                l(1) =   0
                l(2) =   0
                l(3) =   1
                l(4) =   1
                l(5) =   2
                l(6) =   2
     Q(r) pseudized with 0 coefficients 


     PseudoPot. # 4 for N  read from file:
     /share/work_r640/fmigm008/pseudo/N.pbe-n-kjpaw_psl.1.0.0.UPF
     MD5 check sum: 14c48229446f9f2d411169a3abcbc3fa
     Pseudo is Projector augmented-wave + core cor, Zval =  5.0
     Generated using &quot;atomic&quot; code by A. Dal Corso  v.6.3
     Shape of augmentation charge: PSQ
     Using radial grid of 1085 points,  4 beta functions with: 
                l(1) =   0
                l(2) =   0
                l(3) =   1
                l(4) =   1
     Q(r) pseudized with 0 coefficients 


     PseudoPot. # 5 for O  read from file:
     /share/work_r640/fmigm008/pseudo/O.pbe-n-kjpaw_psl.1.0.0.UPF
     MD5 check sum: e99d9cef9b487d1ca56f5b95ecd0fd7a
     Pseudo is Projector augmented-wave + core cor, Zval =  6.0
     Generated using &quot;atomic&quot; code by A. Dal Corso  v.6.3
     Shape of augmentation charge: PSQ
     Using radial grid of 1095 points,  4 beta functions with: 
                l(1) =   0
                l(2) =   0
                l(3) =   1
                l(4) =   1
     Q(r) pseudized with 0 coefficients 


     PseudoPot. # 6 for H  read from file:
     /share/work_r640/fmigm008/pseudo/H.pbe-kjpaw_psl.1.0.0.UPF
     MD5 check sum: d81a744832360e4a8af0b0b5b123bc2a
     Pseudo is Projector augmented-wave, Zval =  1.0
     Generated using &quot;atomic&quot; code by A. Dal Corso  v.6.3MaX
     Shape of augmentation charge: PSQ
     Using radial grid of  929 points,  2 beta functions with: 
                l(1) =   0
                l(2) =   0
     Q(r) pseudized with 0 coefficients 


     atomic species   valence    mass     pseudopotential
     S                 6.00    32.06500     S ( 1.00)
     W                14.00   183.84000     W ( 1.00)
     Ag               11.00   107.87000     Ag( 1.00)
     N                 5.00    14.00700     N ( 1.00)
     O                 6.00    15.99900     O ( 1.00)
     H                 1.00     1.00800     H ( 1.00)

     Starting magnetic structure 
     atomic species   magnetization
     S               0.000
     W               0.000
     Ag              0.000
     N               0.000
     O               0.000
     H               0.000

     No symmetry found


                                    s                        frac. trans.

      isym =  1     identity                                     

 cryst.   s( 1) = (     1          0          0      )
                  (     0          1          0      )
                  (     0          0          1      )

 cart.    s( 1) = (  1.0000000  0.0000000  0.0000000 )
                  (  0.0000000  1.0000000  0.0000000 )
                  (  0.0000000  0.0000000  1.0000000 )


   Cartesian axes

     site n.     atom                  positions (alat units)
         1        W      tau(   1) = (  -0.0028587   0.1395947   0.2444812  )
         2        W      tau(   2) = (  -0.1282026   0.3564836   0.2443568  )
         3        W      tau(   3) = (  -0.2537731   0.5727289   0.2442261  )
         4        W      tau(   4) = (  -0.3783723   0.7888166   0.2441498  )
         5        W      tau(   5) = (   0.2469096   0.1395426   0.2440120  )
         6        W      tau(   6) = (   0.1225026   0.3570726   0.2432304  )
         7        W      tau(   7) = (  -0.0034888   0.5727502   0.2429844  )
         8        W      tau(   8) = (  -0.1283671   0.7891505   0.2439766  )
         9        W      tau(   9) = (   0.4969194   0.1397378   0.2430413  )
        10        W      tau(  10) = (   0.3721499   0.3552416   0.2405337  )
        11        W      tau(  11) = (   0.2452295   0.5727639   0.2402480  )
        12        W      tau(  12) = (   0.1220165   0.7890246   0.2436243  )
        13        W      tau(  13) = (   0.7467445   0.1394449   0.2440642  )
        14        W      tau(  14) = (   0.6211264   0.3563823   0.2436826  )
        15        W      tau(  15) = (   0.4971469   0.5732720   0.2421413  )
        16        W      tau(  16) = (   0.3721785   0.7886524   0.2428338  )
        17        S      tau(  17) = (   0.1219502   0.0672380   0.3684592  )
        18        S      tau(  18) = (  -0.0024014   0.2846735   0.3681910  )
        19        S      tau(  19) = (  -0.1281525   0.5008469   0.3682441  )
        20        S      tau(  20) = (  -0.2533258   0.7170167   0.3685687  )
        21        S      tau(  21) = (   0.3722606   0.0676427   0.3679766  )
        22        S      tau(  22) = (   0.2484890   0.2849851   0.3676532  )
        23        S      tau(  23) = (   0.1218721   0.5017515   0.3660861  )
        24        S      tau(  24) = (  -0.0030403   0.7167922   0.3679041  )
        25        S      tau(  25) = (   0.6215745   0.0674060   0.3678624  )
        26        S      tau(  26) = (   0.4959803   0.2843589   0.3667029  )
        27        S      tau(  27) = (   0.3710177   0.5007270   0.3638206  )
        28        S      tau(  28) = (   0.2481984   0.7153351   0.3669892  )
        29        S      tau(  29) = (   0.8717811   0.0668114   0.3679626  )
        30        S      tau(  30) = (   0.7463862   0.2840842   0.3681041  )
        31        S      tau(  31) = (   0.6195449   0.5004430   0.3687043  )
        32        S      tau(  32) = (   0.4956231   0.7159829   0.3681683  )
        33        S      tau(  33) = (   0.1218639   0.0672424   0.1203644  )
        34        S      tau(  34) = (  -0.0031686   0.2839920   0.1203246  )
        35        S      tau(  35) = (  -0.1290559   0.5005458   0.1199474  )
        36        S      tau(  36) = (  -0.2533637   0.7168463   0.1201865  )
        37        S      tau(  37) = (   0.3715067   0.0672515   0.1197328  )
        38        S      tau(  38) = (   0.2459712   0.2831895   0.1185177  )
        39        S      tau(  39) = (   0.1200987   0.4999851   0.1172124  )
        40        S      tau(  40) = (  -0.0034124   0.7174366   0.1195727  )
        41        S      tau(  41) = (   0.6220409   0.0671938   0.1195919  )
        42        S      tau(  42) = (   0.4978914   0.2834015   0.1177695  )
        43        S      tau(  43) = (   0.3720771   0.5008174   0.1169455  )
        44        S      tau(  44) = (   0.2466393   0.7180153   0.1180007  )
        45        S      tau(  45) = (   0.8722199   0.0680125   0.1199081  )
        46        S      tau(  46) = (   0.7469729   0.2840633   0.1202901  )
        47        S      tau(  47) = (   0.6222799   0.5003741   0.1191499  )
        48        S      tau(  48) = (   0.4972527   0.7176301   0.1185580  )
        49        Ag     tau(  49) = (   0.1547683   0.5150674   0.5753024  )
        50        Ag     tau(  50) = (   0.3069329   0.3595674   0.5464056  )
        51        Ag     tau(  51) = (   0.5024756   0.4743393   0.5615070  )
        52        Ag     tau(  52) = (   0.3399570   0.6321033   0.5430870  )
        53        Ag     tau(  53) = (   0.3428646   0.4953663   0.7084671  )
        54        N      tau(  54) = (   0.2596825   0.4648737   0.8674395  )
        55        O      tau(  55) = (   0.1477385   0.4509631   0.8500100  )
        56        H      tau(  56) = (   0.2650389   0.5234661   0.9229976  )
        57        H      tau(  57) = (   0.1408570   0.4629232   0.7729758  )
        58        H      tau(  58) = (   0.2837088   0.3948236   0.9032094  )

     --------------------------------------------
     DFT-D3 Dispersion Correction (3-body terms):
     --------------------------------------------
       Reference C6 values for interpolation: 

         atom   Coordination number   C6
         H          0.912             6.05
         H          0.000            15.18
         N          0.000            50.54
         N          0.994            44.25
         N          2.014            39.35
         N          2.990            31.16
         O          0.000            31.01
         O          0.993            25.63
         O          1.989            20.74
         S          0.000           268.01
         S          0.995           261.99
         S          1.990           251.62
         Ag         0.000           853.49
         Ag         0.968           537.23
         W          0.000          1628.72
         W          1.929          1086.81
         W         10.915           796.19

       Values used:

         atom   Coordination number  R0_AB[au]  C6      C8
         W          9.805            3.766    796.19 128250.55
         W          9.806            3.766    796.19 128250.55
         W          9.854            3.766    796.19 128250.55
         W          9.866            3.766    796.19 128250.55
         W          9.842            3.766    796.19 128250.55
         W          9.851            3.766    796.19 128250.55
         W          9.870            3.766    796.19 128250.55
         W          9.833            3.766    796.19 128250.55
         W          9.854            3.766    796.19 128250.55
         W          9.880            3.766    796.19 128250.55
         W          9.879            3.766    796.19 128250.55
         W          9.846            3.766    796.19 128250.55
         W          9.811            3.766    796.19 128250.55
         W          9.849            3.766    796.19 128250.55
         W          9.870            3.766    796.19 128250.55
         W          9.855            3.766    796.19 128250.55
         S          3.670            3.128    251.62  12327.25
         S          3.672            3.128    251.62  12327.25
         S          3.679            3.128    251.62  12327.25
         S          3.675            3.128    251.62  12327.25
         S          3.690            3.128    251.62  12327.25
         S          4.579            3.128    251.62  12327.25
         S          4.512            3.128    251.62  12327.25
         S          3.693            3.128    251.62  12327.25
         S          3.676            3.128    251.62  12327.25
         S          3.843            3.128    251.62  12327.25
         S          4.976            3.128    251.62  12327.25
         S          4.443            3.128    251.62  12327.25
         S          3.677            3.128    251.62  12327.25
         S          3.672            3.128    251.62  12327.25
         S          4.198            3.128    251.62  12327.25
         S          3.918            3.128    251.62  12327.25
         S          3.700            3.128    251.62  12327.25
         S          3.699            3.128    251.62  12327.25
         S          3.697            3.128    251.62  12327.25
         S          3.697            3.128    251.62  12327.25
         S          3.689            3.128    251.62  12327.25
         S          3.673            3.128    251.62  12327.25
         S          3.669            3.128    251.62  12327.25
         S          3.689            3.128    251.62  12327.25
         S          3.693            3.128    251.62  12327.25
         S          3.672            3.128    251.62  12327.25
         S          3.662            3.128    251.62  12327.25
         S          3.672            3.128    251.62  12327.25
         S          3.693            3.128    251.62  12327.25
         S          3.697            3.128    251.62  12327.25
         S          3.686            3.128    251.62  12327.25
         S          3.680            3.128    251.62  12327.25
         Ag         3.221            3.147    537.23  47741.54
         Ag         3.973            3.147    537.23  47741.54
         Ag         3.317            3.147    537.23  47741.54
         Ag         4.158            3.147    537.23  47741.54
         Ag         4.122            3.147    537.23  47741.54
         N          3.750            2.478     31.16    687.50
         O          2.000            2.345     20.82    420.12
         H          1.005            2.062      6.18     74.66
         H          1.030            2.062      6.16     74.42
         H          1.004            2.062      6.18     74.67

         Molecular C6 ( Ry / a.u.^6 ) =   1190032.56


   Crystallographic axes

     site n.     atom                  positions (cryst. coord.)
         1        W      tau(   1) = (  0.0777364  0.1611901  0.1550056  )
         2        W      tau(   2) = (  0.0776133  0.4116318  0.1549267  )
         3        W      tau(   3) = (  0.0768921  0.6613303  0.1548438  )
         4        W      tau(   4) = (  0.0770512  0.9108469  0.1547955  )
         5        W      tau(   5) = (  0.3274746  0.1611299  0.1547081  )
         6        W      tau(   6) = (  0.3286586  0.4123119  0.1542125  )
         7        W      tau(   7) = (  0.3271886  0.6613549  0.1540566  )
         8        W      tau(   8) = (  0.3272492  0.9112326  0.1546856  )
         9        W      tau(   9) = (  0.5775970  0.1613553  0.1540926  )
        10        W      tau(  10) = (  0.5772488  0.4101977  0.1525028  )
        11        W      tau(  11) = (  0.5759149  0.6613708  0.1523217  )
        12        W      tau(  12) = (  0.5775601  0.9110871  0.1544623  )
        13        W      tau(  13) = (  0.8272530  0.1610171  0.1547412  )
        14        W      tau(  14) = (  0.8268839  0.4115149  0.1544993  )
        15        W      tau(  15) = (  0.8281256  0.6619575  0.1535220  )
        16        W      tau(  16) = (  0.8275072  0.9106573  0.1539611  )
        17        S      tau(  17) = (  0.1607701  0.0776397  0.2336099  )
        18        S      tau(  18) = (  0.1619549  0.3287126  0.2334399  )
        19        S      tau(  19) = (  0.1610116  0.5783281  0.2334735  )
        20        S      tau(  20) = (  0.1606439  0.8279395  0.2336794  )
        21        S      tau(  21) = (  0.4113141  0.0781070  0.2333040  )
        22        S      tau(  22) = (  0.4130252  0.3290725  0.2330989  )
        23        S      tau(  23) = (  0.4115585  0.5793727  0.2321053  )
        24        S      tau(  24) = (  0.4107998  0.8276803  0.2332579  )
        25        S      tau(  25) = (  0.6604913  0.0778337  0.2332315  )
        26        S      tau(  26) = (  0.6601550  0.3283494  0.2324963  )
        27        S      tau(  27) = (  0.6601125  0.5781897  0.2306689  )
        28        S      tau(  28) = (  0.6611973  0.8259978  0.2326779  )
        29        S      tau(  29) = (  0.9103547  0.0771472  0.2332950  )
        30        S      tau(  30) = (  0.9104023  0.3280322  0.2333848  )
        31        S      tau(  31) = (  0.9084758  0.5778618  0.2337653  )
        32        S      tau(  32) = (  0.9089960  0.8267459  0.2334255  )
        33        S      tau(  33) = (  0.1606863  0.0776448  0.0763132  )
        34        S      tau(  34) = (  0.1607942  0.3279257  0.0762880  )
        35        S      tau(  35) = (  0.1599344  0.5779805  0.0760488  )
        36        S      tau(  36) = (  0.1605077  0.8277428  0.0762004  )
        37        S      tau(  37) = (  0.4103343  0.0776554  0.0759128  )
        38        S      tau(  38) = (  0.4094707  0.3269991  0.0751424  )
        39        S      tau(  39) = (  0.4087652  0.5773330  0.0743148  )
        40        S      tau(  40) = (  0.4107999  0.8284245  0.0758113  )
        41        S      tau(  41) = (  0.6608352  0.0775887  0.0758235  )
        42        S      tau(  42) = (  0.6615133  0.3272438  0.0746680  )
        43        S      tau(  43) = (  0.6612241  0.5782941  0.0741456  )
        44        S      tau(  44) = (  0.6611856  0.8290927  0.0748146  )
        45        S      tau(  45) = (  0.9114869  0.0785340  0.0760239  )
        46        S      tau(  46) = (  0.9109769  0.3280081  0.0762661  )
        47        S      tau(  47) = (  0.9111710  0.5777822  0.0755432  )
        48        S      tau(  48) = (  0.9115766  0.8286478  0.0751680  )
        49        Ag     tau(  49) = (  0.4521427  0.5947486  0.3647523  )
        50        Ag     tau(  50) = (  0.5145293  0.4151927  0.3464312  )
        51        Ag     tau(  51) = (  0.7763355  0.5477198  0.3560058  )
        52        Ag     tau(  52) = (  0.7049020  0.7298900  0.3443271  )
        53        Ag     tau(  53) = (  0.6288645  0.5719998  0.4491812  )
        54        N      tau(  54) = (  0.5280775  0.5367899  0.5499726  )
        55        O      tau(  55) = (  0.4081021  0.5207274  0.5389220  )
        56        H      tau(  56) = (  0.5672622  0.6044466  0.5851974  )
        57        H      tau(  57) = (  0.4081259  0.5345377  0.4900809  )
        58        H      tau(  58) = (  0.5116603  0.4559031  0.5726514  )

     number of k points=    13
                       cart. coord. in units 2pi/alat
        k(    1) = (   0.0000000   0.0000000   0.0000000), wk =   0.0400000
        k(    2) = (   0.0000000   0.2309401   0.0000000), wk =   0.0800000
        k(    3) = (   0.0000000   0.4618802   0.0000000), wk =   0.0800000
        k(    4) = (   0.2000000   0.3464102   0.0000000), wk =   0.0800000
        k(    5) = (   0.2000000   0.5773503   0.0000000), wk =   0.0800000
        k(    6) = (  -0.2000000   0.1154701   0.0000000), wk =   0.0800000
        k(    7) = (   0.2000000   0.1154701   0.0000000), wk =   0.0800000
        k(    8) = (  -0.4000000   0.2309401   0.0000000), wk =   0.0800000
        k(    9) = (   0.4000000   0.2309401   0.0000000), wk =   0.0800000
        k(   10) = (  -0.2000000   0.3464102   0.0000000), wk =   0.0800000
        k(   11) = (   0.4000000  -0.0000000   0.0000000), wk =   0.0800000
        k(   12) = (  -0.4000000   0.4618802   0.0000000), wk =   0.0800000
        k(   13) = (   0.6000000   0.1154701   0.0000000), wk =   0.0800000

                       cryst. coord.
        k(    1) = (   0.0000000   0.0000000   0.0000000), wk =   0.0400000
        k(    2) = (   0.0000000   0.2000000   0.0000000), wk =   0.0800000
        k(    3) = (   0.0000000   0.4000000   0.0000000), wk =   0.0800000
        k(    4) = (   0.2000000   0.2000000   0.0000000), wk =   0.0800000
        k(    5) = (   0.2000000   0.4000000   0.0000000), wk =   0.0800000
        k(    6) = (  -0.2000000   0.2000000   0.0000000), wk =   0.0800000
        k(    7) = (   0.2000000   0.0000000   0.0000000), wk =   0.0800000
        k(    8) = (  -0.4000000   0.4000000   0.0000000), wk =   0.0800000
        k(    9) = (   0.4000000   0.0000000   0.0000000), wk =   0.0800000
        k(   10) = (  -0.2000000   0.4000000   0.0000000), wk =   0.0800000
        k(   11) = (   0.4000000  -0.2000000   0.0000000), wk =   0.0800000
        k(   12) = (  -0.4000000   0.6000000   0.0000000), wk =   0.0800000
        k(   13) = (   0.6000000  -0.2000000   0.0000000), wk =   0.0800000

     Dense  grid:  2539249 G-vectors     FFT dimensions: ( 160, 160, 243)

     Smooth grid:   897387 G-vectors     FFT dimensions: ( 108, 108, 180)

     Dynamical RAM for                 wfc:       6.50 MB

     Dynamical RAM for     wfc (w. buffer):     175.50 MB

     Dynamical RAM for           str. fact:       3.63 MB

     Dynamical RAM for           local pot:       0.00 MB

     Dynamical RAM for          nlocal pot:      26.11 MB

     Dynamical RAM for                qrad:       9.63 MB

     Dynamical RAM for          rho,v,vnew:       8.32 MB

     Dynamical RAM for               rhoin:       2.77 MB

     Dynamical RAM for            rho*nmix:      19.38 MB

     Dynamical RAM for           G-vectors:       2.38 MB

     Dynamical RAM for          h,s,v(r/c):       2.70 MB

     Dynamical RAM for          <psi|beta>:       3.62 MB

     Dynamical RAM for                 psi:      13.00 MB

     Dynamical RAM for                hpsi:      13.00 MB

     Dynamical RAM for                spsi:      13.00 MB

     Dynamical RAM for      wfcinit/wfcrot:      14.35 MB

     Dynamical RAM for           addusdens:     132.60 MB

     Dynamical RAM for          addusforce:     170.39 MB

     Dynamical RAM for         addusstress:     122.61 MB

     Estimated static dynamical RAM per process >     237.27 MB

     Estimated max dynamical RAM per process >     427.03 MB

     Estimated total dynamical RAM >      26.69 GB
     Generating pointlists ...
     new r_m :   0.0782 (alat units)  1.8731 (a.u.) for type    1
     new r_m :   0.0782 (alat units)  1.8731 (a.u.) for type    2
     new r_m :   0.0751 (alat units)  1.7989 (a.u.) for type    3
     new r_m :   0.0334 (alat units)  0.7999 (a.u.) for type    4
     new r_m :   0.0323 (alat units)  0.7736 (a.u.) for type    5
     new r_m :   0.0323 (alat units)  0.7736 (a.u.) for type    6

     Initial potential from superposition of free atoms

     starting charge     484.9880, renormalised to     485.0000

     negative rho (up, down):  1.009E-03 1.009E-03
     Starting wfcs are  392 randomized atomic wfcs
     Checking if some PAW data can be deallocated... 
       PAW data deallocated on   32 nodes for type:  1
       PAW data deallocated on   42 nodes for type:  2
       PAW data deallocated on   59 nodes for type:  3
       PAW data deallocated on   63 nodes for type:  4
       PAW data deallocated on   63 nodes for type:  5
       PAW data deallocated on   61 nodes for type:  6

     total cpu time spent up to now is      185.5 secs

     per-process dynamical memory:   308.7 Mb

     Self-consistent Calculation

     iteration #  1     ecut=    50.00 Ry     beta= 0.40
     Davidson diagonalization with overlap

---- Real-time Memory Report at c_bands before calling an iterative solver
           370 MiB given to the printing process from OS
           301 MiB allocation reported by mallinfo(arena+hblkhd)
         78625 MiB available memory on the node where the printing process lives
------------------
     ethr =  1.00E-02,  avg # of iterations =  2.0

     Threshold (ethr) on eigenvalues was too large:
     Diagonalizing with lowered threshold

     Davidson diagonalization with overlap

---- Real-time Memory Report at c_bands before calling an iterative solver
           473 MiB given to the printing process from OS
           304 MiB allocation reported by mallinfo(arena+hblkhd)
         77219 MiB available memory on the node where the printing process lives
------------------
     ethr =  4.33E-04,  avg # of iterations =  4.8

     negative rho (up, down):  1.027E-02 6.723E-03

     total cpu time spent up to now is      920.4 secs

     total energy              =  -16138.22467809 Ry
     estimated scf accuracy    <       2.43665966 Ry

     total magnetization       =     1.00 Bohr mag/cell
     absolute magnetization    =     4.14 Bohr mag/cell

     iteration #  2     ecut=    50.00 Ry     beta= 0.40
     Davidson diagonalization with overlap

---- Real-time Memory Report at c_bands before calling an iterative solver
           481 MiB given to the printing process from OS
           311 MiB allocation reported by mallinfo(arena+hblkhd)
         75057 MiB available memory on the node where the printing process lives
------------------
     ethr =  5.02E-04,  avg # of iterations =  7.3

     negative rho (up, down):  3.214E-02 2.300E-02

     total cpu time spent up to now is     1307.8 secs

     total energy              =  -16138.44680763 Ry
     estimated scf accuracy    <       0.41103472 Ry

     total magnetization       =     1.00 Bohr mag/cell
     absolute magnetization    =     3.05 Bohr mag/cell

     iteration #  3     ecut=    50.00 Ry     beta= 0.40
     Davidson diagonalization with overlap

---- Real-time Memory Report at c_bands before calling an iterative solver
           484 MiB given to the printing process from OS
           313 MiB allocation reported by mallinfo(arena+hblkhd)
         75145 MiB available memory on the node where the printing process lives
------------------
     ethr =  8.47E-05,  avg # of iterations =  8.4

     negative rho (up, down):  3.679E-02 2.749E-02

     total cpu time spent up to now is     1713.3 secs

     total energy              =  -16138.51408350 Ry
     estimated scf accuracy    <       0.22012579 Ry

     total magnetization       =     1.00 Bohr mag/cell
     absolute magnetization    =     2.37 Bohr mag/cell

     iteration #  4     ecut=    50.00 Ry     beta= 0.40
     Davidson diagonalization with overlap

---- Real-time Memory Report at c_bands before calling an iterative solver
           485 MiB given to the printing process from OS
           314 MiB allocation reported by mallinfo(arena+hblkhd)
         74978 MiB available memory on the node where the printing process lives
------------------
     ethr =  4.54E-05,  avg # of iterations =  9.8

     negative rho (up, down):  3.083E-02 2.398E-02

     total cpu time spent up to now is     2085.6 secs

     total energy              =  -16138.54453258 Ry
     estimated scf accuracy    <       0.05203407 Ry

     total magnetization       =     1.00 Bohr mag/cell
     absolute magnetization    =     1.98 Bohr mag/cell

     iteration #  5     ecut=    50.00 Ry     beta= 0.40
     Davidson diagonalization with overlap

---- Real-time Memory Report at c_bands before calling an iterative solver
           516 MiB given to the printing process from OS
           346 MiB allocation reported by mallinfo(arena+hblkhd)
         74504 MiB available memory on the node where the printing process lives
------------------
     ethr =  1.07E-05,  avg # of iterations =  7.3

     negative rho (up, down):  2.119E-02 1.683E-02

     total cpu time spent up to now is     2470.4 secs

     total energy              =  -16138.54972294 Ry
     estimated scf accuracy    <       0.03148803 Ry

     total magnetization       =     1.00 Bohr mag/cell
     absolute magnetization    =     1.71 Bohr mag/cell

     iteration #  6     ecut=    50.00 Ry     beta= 0.40
     Davidson diagonalization with overlap

---- Real-time Memory Report at c_bands before calling an iterative solver
           520 MiB given to the printing process from OS
           348 MiB allocation reported by mallinfo(arena+hblkhd)
         73903 MiB available memory on the node where the printing process lives
------------------
     ethr =  6.49E-06,  avg # of iterations =  7.3

     negative rho (up, down):  1.385E-02 1.148E-02

     total cpu time spent up to now is     2818.4 secs

     total energy              =  -16138.55290083 Ry
     estimated scf accuracy    <       0.01627707 Ry

     total magnetization       =     1.00 Bohr mag/cell
     absolute magnetization    =     1.49 Bohr mag/cell

     iteration #  7     ecut=    50.00 Ry     beta= 0.40
     Davidson diagonalization with overlap

---- Real-time Memory Report at c_bands before calling an iterative solver
           520 MiB given to the printing process from OS
           350 MiB allocation reported by mallinfo(arena+hblkhd)
         73902 MiB available memory on the node where the printing process lives
------------------
     ethr =  3.36E-06,  avg # of iterations =  5.3

     negative rho (up, down):  2.016E-02 2.072E-02

     total cpu time spent up to now is     3149.5 secs

     total energy              =  -16138.55141902 Ry
     estimated scf accuracy    <       0.00821773 Ry

     total magnetization       =     1.00 Bohr mag/cell
     absolute magnetization    =     1.33 Bohr mag/cell

     iteration #  8     ecut=    50.00 Ry     beta= 0.40
     Davidson diagonalization with overlap

---- Real-time Memory Report at c_bands before calling an iterative solver
           522 MiB given to the printing process from OS
           350 MiB allocation reported by mallinfo(arena+hblkhd)
         73903 MiB available memory on the node where the printing process lives
------------------
     ethr =  1.69E-06,  avg # of iterations =  7.8

     negative rho (up, down):  2.097E-02 2.212E-02

     total cpu time spent up to now is     3486.7 secs

     total energy              =  -16138.55114193 Ry
     estimated scf accuracy    <       0.00199783 Ry

     total magnetization       =     1.00 Bohr mag/cell
     absolute magnetization    =     1.22 Bohr mag/cell

     iteration #  9     ecut=    50.00 Ry     beta= 0.40
     Davidson diagonalization with overlap

---- Real-time Memory Report at c_bands before calling an iterative solver
           522 MiB given to the printing process from OS
           351 MiB allocation reported by mallinfo(arena+hblkhd)
         73905 MiB available memory on the node where the printing process lives
------------------
     ethr =  4.12E-07,  avg # of iterations =  7.7

     negative rho (up, down):  1.514E-02 1.607E-02

     total cpu time spent up to now is     3880.7 secs

     total energy              =  -16138.55306810 Ry
     estimated scf accuracy    <       0.00046839 Ry

     total magnetization       =     1.00 Bohr mag/cell
     absolute magnetization    =     1.17 Bohr mag/cell

     iteration # 10     ecut=    50.00 Ry     beta= 0.40
     Davidson diagonalization with overlap

---- Real-time Memory Report at c_bands before calling an iterative solver
           524 MiB given to the printing process from OS
           353 MiB allocation reported by mallinfo(arena+hblkhd)
         73888 MiB available memory on the node where the printing process lives
------------------
     ethr =  9.66E-08,  avg # of iterations =  7.2

     negative rho (up, down):  1.096E-02 1.172E-02

     total cpu time spent up to now is     4272.1 secs

     total energy              =  -16138.55411834 Ry
     estimated scf accuracy    <       0.00015110 Ry

     total magnetization       =     1.00 Bohr mag/cell
     absolute magnetization    =     1.15 Bohr mag/cell

     iteration # 11     ecut=    50.00 Ry     beta= 0.40
     Davidson diagonalization with overlap

---- Real-time Memory Report at c_bands before calling an iterative solver
           525 MiB given to the printing process from OS
           354 MiB allocation reported by mallinfo(arena+hblkhd)
         73676 MiB available memory on the node where the printing process lives
------------------
     ethr =  3.12E-08,  avg # of iterations =  7.7

     negative rho (up, down):  7.852E-03 8.439E-03

     total cpu time spent up to now is     4708.1 secs

     total energy              =  -16138.55472670 Ry
     estimated scf accuracy    <       0.00008863 Ry

     total magnetization       =     1.00 Bohr mag/cell
     absolute magnetization    =     1.14 Bohr mag/cell

     iteration # 12     ecut=    50.00 Ry     beta= 0.40
     Davidson diagonalization with overlap

---- Real-time Memory Report at c_bands before calling an iterative solver
           527 MiB given to the printing process from OS
           355 MiB allocation reported by mallinfo(arena+hblkhd)
         73829 MiB available memory on the node where the printing process lives
------------------
     ethr =  1.83E-08,  avg # of iterations =  6.6

     negative rho (up, down):  5.989E-03 6.445E-03

     total cpu time spent up to now is     5106.0 secs

     total energy              =  -16138.55498958 Ry
     estimated scf accuracy    <       0.00002997 Ry

     total magnetization       =     1.00 Bohr mag/cell
     absolute magnetization    =     1.13 Bohr mag/cell

     iteration # 13     ecut=    50.00 Ry     beta= 0.40
     Davidson diagonalization with overlap

---- Real-time Memory Report at c_bands before calling an iterative solver
           527 MiB given to the printing process from OS
           355 MiB allocation reported by mallinfo(arena+hblkhd)
         73911 MiB available memory on the node where the printing process lives
------------------
     ethr =  6.18E-09,  avg # of iterations =  7.0

     negative rho (up, down):  5.212E-03 5.617E-03

     total cpu time spent up to now is     5500.5 secs

     total energy              =  -16138.55507799 Ry
     estimated scf accuracy    <       0.00001280 Ry

     total magnetization       =     1.00 Bohr mag/cell
     absolute magnetization    =     1.12 Bohr mag/cell

     iteration # 14     ecut=    50.00 Ry     beta= 0.40
     Davidson diagonalization with overlap

---- Real-time Memory Report at c_bands before calling an iterative solver
           527 MiB given to the printing process from OS
           355 MiB allocation reported by mallinfo(arena+hblkhd)
         73662 MiB available memory on the node where the printing process lives
------------------
     ethr =  2.64E-09,  avg # of iterations =  2.9

     negative rho (up, down):  4.885E-03 5.265E-03

     total cpu time spent up to now is     5834.4 secs

     total energy              =  -16138.55511470 Ry
     estimated scf accuracy    <       0.00000916 Ry

     total magnetization       =     1.00 Bohr mag/cell
     absolute magnetization    =     1.12 Bohr mag/cell

     iteration # 15     ecut=    50.00 Ry     beta= 0.40
     Davidson diagonalization with overlap

---- Real-time Memory Report at c_bands before calling an iterative solver
           527 MiB given to the printing process from OS
           355 MiB allocation reported by mallinfo(arena+hblkhd)
         73715 MiB available memory on the node where the printing process lives
------------------
     ethr =  1.89E-09,  avg # of iterations =  2.0

     negative rho (up, down):  4.819E-03 5.196E-03

     total cpu time spent up to now is     6127.8 secs

     total energy              =  -16138.55512290 Ry
     estimated scf accuracy    <       0.00000779 Ry

     total magnetization       =     1.00 Bohr mag/cell
     absolute magnetization    =     1.12 Bohr mag/cell

     iteration # 16     ecut=    50.00 Ry     beta= 0.40
     Davidson diagonalization with overlap

---- Real-time Memory Report at c_bands before calling an iterative solver
           527 MiB given to the printing process from OS
           355 MiB allocation reported by mallinfo(arena+hblkhd)
         73737 MiB available memory on the node where the printing process lives
------------------
     ethr =  1.61E-09,  avg # of iterations =  2.0

     negative rho (up, down):  5.568E-03 5.982E-03

     total cpu time spent up to now is     6417.5 secs

     total energy              =  -16138.55504614 Ry
     estimated scf accuracy    <       0.00000550 Ry

     total magnetization       =     1.00 Bohr mag/cell
     absolute magnetization    =     1.12 Bohr mag/cell

     iteration # 17     ecut=    50.00 Ry     beta= 0.40
     Davidson diagonalization with overlap

---- Real-time Memory Report at c_bands before calling an iterative solver
           527 MiB given to the printing process from OS
           355 MiB allocation reported by mallinfo(arena+hblkhd)
         73758 MiB available memory on the node where the printing process lives
------------------
     ethr =  1.13E-09,  avg # of iterations =  8.3

     negative rho (up, down):  5.029E-03 5.416E-03

     total cpu time spent up to now is     6838.2 secs

     total energy              =  -16138.55509860 Ry
     estimated scf accuracy    <       0.00001057 Ry

     total magnetization       =     1.00 Bohr mag/cell
     absolute magnetization    =     1.12 Bohr mag/cell

     iteration # 18     ecut=    50.00 Ry     beta= 0.40
     Davidson diagonalization with overlap

---- Real-time Memory Report at c_bands before calling an iterative solver
           527 MiB given to the printing process from OS
           355 MiB allocation reported by mallinfo(arena+hblkhd)
         73760 MiB available memory on the node where the printing process lives
------------------
     ethr =  1.13E-09,  avg # of iterations =  8.2

     negative rho (up, down):  4.822E-03 5.193E-03

     total cpu time spent up to now is     7214.0 secs

     total energy              =  -16138.55512223 Ry
     estimated scf accuracy    <       0.00000184 Ry

     total magnetization       =     1.00 Bohr mag/cell
     absolute magnetization    =     1.12 Bohr mag/cell

     iteration # 19     ecut=    50.00 Ry     beta= 0.40
     Davidson diagonalization with overlap

---- Real-time Memory Report at c_bands before calling an iterative solver
           527 MiB given to the printing process from OS
           355 MiB allocation reported by mallinfo(arena+hblkhd)
         73836 MiB available memory on the node where the printing process lives
------------------
     ethr =  3.79E-10,  avg # of iterations =  5.0

     negative rho (up, down):  4.801E-03 5.170E-03

     total cpu time spent up to now is     7647.2 secs

     total energy              =  -16138.55512467 Ry
     estimated scf accuracy    <       0.00000202 Ry

     total magnetization       =     1.00 Bohr mag/cell
     absolute magnetization    =     1.12 Bohr mag/cell

     iteration # 20     ecut=    50.00 Ry     beta= 0.40
     Davidson diagonalization with overlap

---- Real-time Memory Report at c_bands before calling an iterative solver
           527 MiB given to the printing process from OS
           355 MiB allocation reported by mallinfo(arena+hblkhd)
         73798 MiB available memory on the node where the printing process lives
------------------
     ethr =  3.79E-10,  avg # of iterations =  6.6

     negative rho (up, down):  4.808E-03 5.176E-03

     total cpu time spent up to now is     8008.9 secs

     total energy              =  -16138.55512341 Ry
     estimated scf accuracy    <       0.00000055 Ry

     total magnetization       =     1.00 Bohr mag/cell
     absolute magnetization    =     1.12 Bohr mag/cell

     iteration # 21     ecut=    50.00 Ry     beta= 0.40
     Davidson diagonalization with overlap

---- Real-time Memory Report at c_bands before calling an iterative solver
           527 MiB given to the printing process from OS
           355 MiB allocation reported by mallinfo(arena+hblkhd)
         73710 MiB available memory on the node where the printing process lives
------------------
     ethr =  1.14E-10,  avg # of iterations =  7.8

     negative rho (up, down):  4.809E-03 5.178E-03

     total cpu time spent up to now is     8520.5 secs

     total energy              =  -16138.55512345 Ry
     estimated scf accuracy    <       0.00000189 Ry

     total magnetization       =     1.00 Bohr mag/cell
     absolute magnetization    =     1.12 Bohr mag/cell

     iteration # 22     ecut=    50.00 Ry     beta= 0.40
     Davidson diagonalization with overlap

---- Real-time Memory Report at c_bands before calling an iterative solver
           527 MiB given to the printing process from OS
           355 MiB allocation reported by mallinfo(arena+hblkhd)
         73706 MiB available memory on the node where the printing process lives
------------------
     ethr =  1.14E-10,  avg # of iterations =  7.0

     negative rho (up, down):  4.799E-03 5.166E-03

     total cpu time spent up to now is     8896.0 secs

     total energy              =  -16138.55512478 Ry
     estimated scf accuracy    <       0.00000042 Ry

     total magnetization       =     1.00 Bohr mag/cell
     absolute magnetization    =     1.12 Bohr mag/cell

     iteration # 23     ecut=    50.00 Ry     beta= 0.40
     Davidson diagonalization with overlap

---- Real-time Memory Report at c_bands before calling an iterative solver
           527 MiB given to the printing process from OS
           355 MiB allocation reported by mallinfo(arena+hblkhd)
         77089 MiB available memory on the node where the printing process lives
------------------
     ethr =  8.65E-11,  avg # of iterations =  7.0

     negative rho (up, down):  4.796E-03 5.163E-03

     total cpu time spent up to now is     9308.7 secs

     total energy              =  -16138.55512516 Ry
     estimated scf accuracy    <       0.00000005 Ry

     total magnetization       =     1.00 Bohr mag/cell
     absolute magnetization    =     1.12 Bohr mag/cell

     iteration # 24     ecut=    50.00 Ry     beta= 0.40
     Davidson diagonalization with overlap

---- Real-time Memory Report at c_bands before calling an iterative solver
           527 MiB given to the printing process from OS
           355 MiB allocation reported by mallinfo(arena+hblkhd)
         75394 MiB available memory on the node where the printing process lives
------------------
     ethr =  9.51E-12,  avg # of iterations =  6.0

     negative rho (up, down):  4.796E-03 5.163E-03

     total cpu time spent up to now is     9730.2 secs

     total energy              =  -16138.55512516 Ry
     estimated scf accuracy    <       0.00000005 Ry

     total magnetization       =     1.00 Bohr mag/cell
     absolute magnetization    =     1.12 Bohr mag/cell

     iteration # 25     ecut=    50.00 Ry     beta= 0.40
     Davidson diagonalization with overlap

---- Real-time Memory Report at c_bands before calling an iterative solver
           527 MiB given to the printing process from OS
           355 MiB allocation reported by mallinfo(arena+hblkhd)
         75178 MiB available memory on the node where the printing process lives
------------------
     ethr =  9.51E-12,  avg # of iterations =  2.0

     negative rho (up, down):  4.795E-03 5.162E-03

     total cpu time spent up to now is    10030.7 secs

     total energy              =  -16138.55512521 Ry
     estimated scf accuracy    <       0.00000001 Ry

     total magnetization       =     1.00 Bohr mag/cell
     absolute magnetization    =     1.12 Bohr mag/cell

     iteration # 26     ecut=    50.00 Ry     beta= 0.40
     Davidson diagonalization with overlap

---- Real-time Memory Report at c_bands before calling an iterative solver
           527 MiB given to the printing process from OS
           355 MiB allocation reported by mallinfo(arena+hblkhd)
         74829 MiB available memory on the node where the printing process lives
------------------
     ethr =  2.85E-12,  avg # of iterations =  8.0

     negative rho (up, down):  4.794E-03 5.161E-03

     total cpu time spent up to now is    10462.4 secs

     total energy              =  -16138.55512524 Ry
     estimated scf accuracy    <          3.1E-09 Ry

     total magnetization       =     1.00 Bohr mag/cell
     absolute magnetization    =     1.12 Bohr mag/cell

     iteration # 27     ecut=    50.00 Ry     beta= 0.40
     Davidson diagonalization with overlap

---- Real-time Memory Report at c_bands before calling an iterative solver
           527 MiB given to the printing process from OS
           355 MiB allocation reported by mallinfo(arena+hblkhd)
         74491 MiB available memory on the node where the printing process lives
------------------
     ethr =  6.49E-13,  avg # of iterations =  7.5

     negative rho (up, down):  4.794E-03 5.161E-03

     total cpu time spent up to now is    10862.4 secs

     total energy              =  -16138.55512525 Ry
     estimated scf accuracy    <          5.2E-09 Ry

     total magnetization       =     1.00 Bohr mag/cell
     absolute magnetization    =     1.12 Bohr mag/cell

     iteration # 28     ecut=    50.00 Ry     beta= 0.40
     Davidson diagonalization with overlap

---- Real-time Memory Report at c_bands before calling an iterative solver
           527 MiB given to the printing process from OS
           355 MiB allocation reported by mallinfo(arena+hblkhd)
         73864 MiB available memory on the node where the printing process lives
------------------
     ethr =  6.49E-13,  avg # of iterations =  3.3

     negative rho (up, down):  4.794E-03 5.161E-03

     total cpu time spent up to now is    11164.6 secs

     total energy              =  -16138.55512525 Ry
     estimated scf accuracy    <          3.3E-09 Ry

     total magnetization       =     1.00 Bohr mag/cell
     absolute magnetization    =     1.12 Bohr mag/cell

     iteration # 29     ecut=    50.00 Ry     beta= 0.40
     Davidson diagonalization with overlap

---- Real-time Memory Report at c_bands before calling an iterative solver
           527 MiB given to the printing process from OS
           355 MiB allocation reported by mallinfo(arena+hblkhd)
         73804 MiB available memory on the node where the printing process lives
------------------
     ethr =  6.49E-13,  avg # of iterations =  7.5

     negative rho (up, down):  4.794E-03 5.161E-03

     total cpu time spent up to now is    11594.7 secs

     total energy              =  -16138.55512525 Ry
     estimated scf accuracy    <          2.0E-09 Ry

     total magnetization       =     1.00 Bohr mag/cell
     absolute magnetization    =     1.12 Bohr mag/cell

     iteration # 30     ecut=    50.00 Ry     beta= 0.40
     Davidson diagonalization with overlap

---- Real-time Memory Report at c_bands before calling an iterative solver
           527 MiB given to the printing process from OS
           355 MiB allocation reported by mallinfo(arena+hblkhd)
         73871 MiB available memory on the node where the printing process lives
------------------
     ethr =  4.17E-13,  avg # of iterations =  8.9

     negative rho (up, down):  4.794E-03 5.161E-03

     total cpu time spent up to now is    11929.7 secs

     total energy              =  -16138.55512525 Ry
     estimated scf accuracy    <          2.8E-10 Ry

     total magnetization       =     1.00 Bohr mag/cell
     absolute magnetization    =     1.12 Bohr mag/cell

     iteration # 31     ecut=    50.00 Ry     beta= 0.40
     Davidson diagonalization with overlap

---- Real-time Memory Report at c_bands before calling an iterative solver
           527 MiB given to the printing process from OS
           355 MiB allocation reported by mallinfo(arena+hblkhd)
         73793 MiB available memory on the node where the printing process lives
------------------
     ethr =  1.00E-13,  avg # of iterations =  6.3

     negative rho (up, down):  4.794E-03 5.161E-03

     total cpu time spent up to now is    12377.5 secs

     total energy              =  -16138.55512525 Ry
     estimated scf accuracy    <          3.6E-10 Ry

     total magnetization       =     1.00 Bohr mag/cell
     absolute magnetization    =     1.12 Bohr mag/cell

     iteration # 32     ecut=    50.00 Ry     beta= 0.40
     Davidson diagonalization with overlap

---- Real-time Memory Report at c_bands before calling an iterative solver
           527 MiB given to the printing process from OS
           355 MiB allocation reported by mallinfo(arena+hblkhd)
         73839 MiB available memory on the node where the printing process lives
------------------
     ethr =  1.00E-13,  avg # of iterations =  1.9

     negative rho (up, down):  4.794E-03 5.161E-03

     total cpu time spent up to now is    12672.7 secs

     total energy              =  -16138.55512525 Ry
     estimated scf accuracy    <          1.1E-10 Ry

     total magnetization       =     1.00 Bohr mag/cell
     absolute magnetization    =     1.12 Bohr mag/cell

     iteration # 33     ecut=    50.00 Ry     beta= 0.40
     Davidson diagonalization with overlap

---- Real-time Memory Report at c_bands before calling an iterative solver
           527 MiB given to the printing process from OS
           355 MiB allocation reported by mallinfo(arena+hblkhd)
         73753 MiB available memory on the node where the printing process lives
------------------
     ethr =  1.00E-13,  avg # of iterations =  3.1

     negative rho (up, down):  4.794E-03 5.161E-03

     Magnetic moment per site  (integrated on atomic sphere of radius R)
     atom   1 (R=0.078)  charge= 10.3731  magn=  0.0015
     atom   2 (R=0.078)  charge= 10.3731  magn=  0.0080
     atom   3 (R=0.078)  charge= 10.3740  magn= -0.0007
     atom   4 (R=0.078)  charge= 10.3743  magn=  0.0147
     atom   5 (R=0.078)  charge= 10.3763  magn=  0.0111
     atom   6 (R=0.078)  charge= 10.3757  magn=  0.0063
     atom   7 (R=0.078)  charge= 10.3783  magn=  0.0052
     atom   8 (R=0.078)  charge= 10.3749  magn=  0.0108
     atom   9 (R=0.078)  charge= 10.3753  magn=  0.0033
     atom  10 (R=0.078)  charge= 10.3820  magn=  0.0364
     atom  11 (R=0.078)  charge= 10.3836  magn=  0.0167
     atom  12 (R=0.078)  charge= 10.3743  magn=  0.0164
     atom  13 (R=0.078)  charge= 10.3732  magn=  0.0029
     atom  14 (R=0.078)  charge= 10.3740  magn= -0.0006
     atom  15 (R=0.078)  charge= 10.3816  magn=  0.0171
     atom  16 (R=0.078)  charge= 10.3760  magn=  0.0042
     atom  17 (R=0.078)  charge=  4.1591  magn=  0.0027
     atom  18 (R=0.078)  charge=  4.1558  magn=  0.0017
     atom  19 (R=0.078)  charge=  4.1586  magn= -0.0000
     atom  20 (R=0.078)  charge=  4.1590  magn=  0.0027
     atom  21 (R=0.078)  charge=  4.1594  magn=  0.0025
     atom  22 (R=0.078)  charge=  4.1750  magn=  0.0122
     atom  23 (R=0.078)  charge=  4.1787  magn=  0.0050
     atom  24 (R=0.078)  charge=  4.1586  magn=  0.0036
     atom  25 (R=0.078)  charge=  4.1591  magn=  0.0022
     atom  26 (R=0.078)  charge=  4.1626  magn=  0.0026
     atom  27 (R=0.078)  charge=  4.1805  magn=  0.0068
     atom  28 (R=0.078)  charge=  4.1668  magn=  0.0125
     atom  29 (R=0.078)  charge=  4.1578  magn=  0.0030
     atom  30 (R=0.078)  charge=  4.1574  magn=  0.0007
     atom  31 (R=0.078)  charge=  4.1566  magn=  0.0017
     atom  32 (R=0.078)  charge=  4.1575  magn=  0.0062
     atom  33 (R=0.078)  charge=  4.1610  magn=  0.0008
     atom  34 (R=0.078)  charge=  4.1591  magn=  0.0009
     atom  35 (R=0.078)  charge=  4.1606  magn= -0.0002
     atom  36 (R=0.078)  charge=  4.1609  magn=  0.0001
     atom  37 (R=0.078)  charge=  4.1601  magn=  0.0005
     atom  38 (R=0.078)  charge=  4.1589  magn=  0.0036
     atom  39 (R=0.078)  charge=  4.1568  magn=  0.0010
     atom  40 (R=0.078)  charge=  4.1595  magn= -0.0001
     atom  41 (R=0.078)  charge=  4.1602  magn=  0.0005
     atom  42 (R=0.078)  charge=  4.1579  magn=  0.0018
     atom  43 (R=0.078)  charge=  4.1526  magn=  0.0025
     atom  44 (R=0.078)  charge=  4.1584  magn=  0.0032
     atom  45 (R=0.078)  charge=  4.1594  magn=  0.0015
     atom  46 (R=0.078)  charge=  4.1597  magn=  0.0002
     atom  47 (R=0.078)  charge=  4.1603  magn=  0.0006
     atom  48 (R=0.078)  charge=  4.1598  magn=  0.0022
     atom  49 (R=0.075)  charge=  8.3762  magn=  0.0118
     atom  50 (R=0.075)  charge=  8.3724  magn=  0.0310
     atom  51 (R=0.075)  charge=  8.3760  magn=  0.0134
     atom  52 (R=0.075)  charge=  8.3726  magn=  0.0330
     atom  53 (R=0.075)  charge=  8.3617  magn=  0.0186
     atom  54 (R=0.033)  charge=  1.3236  magn= -0.0002
     atom  55 (R=0.032)  charge=  2.0231  magn=  0.0004
     atom  56 (R=0.032)  charge=  0.4172  magn=  0.0002
     atom  57 (R=0.032)  charge=  0.4030  magn=  0.0001
     atom  58 (R=0.032)  charge=  0.4043  magn=  0.0001

     total cpu time spent up to now is    12997.1 secs

     End of self-consistent calculation

 ------ SPIN UP ------------


          k = 0.0000 0.0000 0.0000 (112117 PWs)   bands (ev):

   -73.8170 -73.8136 -73.8106 -73.8081 -73.8061 -73.8052 -73.8026 -73.8006
   -73.7958 -73.7939 -73.7911 -73.7890 -73.7872 -73.7545 -73.7497 -73.7402
   -38.2250 -38.2200 -38.2188 -38.1640 -38.1631 -38.1583 -38.1578 -38.1515
   -38.1436 -38.0599 -38.0570 -38.0544 -38.0537 -38.0486 -38.0466 -38.0447
   -38.0313 -38.0295 -38.0270 -38.0264 -38.0225 -38.0219 -38.0196 -38.0175
   -38.0169 -38.0140 -38.0124 -38.0045 -37.9957 -37.9927 -37.9914 -37.9884
   -37.9867 -37.9826 -37.9688 -37.9587 -37.9573 -37.9545 -37.9519 -37.9465
   -37.9253 -37.9185 -37.9140 -37.9134 -37.9096 -37.9046 -37.8704 -37.8671
   -21.4940 -15.3550 -14.5990 -13.7124 -13.6992 -13.6751 -13.6446 -13.6315
   -13.6212 -12.9836 -12.7140 -12.6783 -12.6560 -12.6402 -12.6038 -12.5820
   -12.5405 -12.5078 -12.4738 -12.4575 -12.4462 -12.4442 -12.4228 -12.4216
   -12.4167 -12.2243 -12.2022 -12.1910 -12.1753 -12.1583 -12.1544 -12.1507
   -12.1476 -12.1450  -7.8877  -7.5434  -6.3439  -6.3283  -6.3102  -6.2850
    -6.1473  -5.6162  -5.5748  -5.5528  -5.5345  -5.5293  -5.4955  -5.4469
    -5.4162  -5.3935  -5.3157  -5.2857  -5.2636  -5.1078  -5.0956  -5.0664
    -5.0614  -5.0569  -5.0558  -5.0013  -4.9999  -4.9909  -4.5264  -4.4435
    -4.4041  -4.3493  -4.2962  -4.2863  -4.2703  -4.2493  -4.2350  -4.1849
    -4.0828  -4.0129  -3.9809  -3.9648  -3.9387  -3.7977  -3.7627  -3.7607
    -3.7057  -3.6804  -3.6769  -3.6148  -3.5175  -3.4767  -3.4096  -3.4052
    -3.3758  -3.3683  -3.3006  -3.2278  -3.1993  -3.1854  -3.1666  -3.1454
    -3.1359  -3.1278  -3.1138  -3.1104  -3.0654  -2.9638  -2.8239  -2.7712
    -2.7255  -2.6803  -2.6513  -2.5942  -2.5857  -2.5241  -2.5155  -2.4683
    -2.4633  -2.4367  -2.4352  -2.4295  -2.4027  -2.3449  -2.2956  -2.2122
    -2.1351  -2.0878  -1.9829  -1.9798  -1.9570  -1.9354  -1.8724  -1.8397
    -1.8176  -1.7851  -1.7713  -1.7680  -1.7544  -1.7540  -1.7456  -1.7413
    -1.7401  -1.7115  -1.6987  -1.6693  -1.6624  -1.6479  -1.6381  -1.6123
    -1.5841  -1.5342  -1.5261  -1.5085  -1.4556  -1.4205  -1.3758  -1.3593
    -1.3135  -1.2776  -1.2064  -1.1004  -1.0587  -1.0321  -1.0167  -0.9980
    -0.7308  -0.6957  -0.6914  -0.6892  -0.6800  -0.6761  -0.6509  -0.6478
    -0.6316  -0.3987  -0.3901  -0.3786  -0.3636  -0.3512  -0.3430  -0.3241
     0.1958   1.2542   1.5339

     occupation numbers 
     1.0000   1.0000   1.0000   1.0000   1.0000   1.0000   1.0000   1.0000
     1.0000   1.0000   1.0000   1.0000   1.0000   1.0000   1.0000   1.0000
     1.0000   1.0000   1.0000   1.0000   1.0000   1.0000   1.0000   1.0000
     1.0000   1.0000   1.0000   1.0000   1.0000   1.0000   1.0000   1.0000
     1.0000   1.0000   1.0000   1.0000   1.0000   1.0000   1.0000   1.0000
     1.0000   1.0000   1.0000   1.0000   1.0000   1.0000   1.0000   1.0000
     1.0000   1.0000   1.0000   1.0000   1.0000   1.0000   1.0000   1.0000
     1.0000   1.0000   1.0000   1.0000   1.0000   1.0000   1.0000   1.0000
     1.0000   1.0000   1.0000   1.0000   1.0000   1.0000   1.0000   1.0000
     1.0000   1.0000   1.0000   1.0000   1.0000   1.0000   1.0000   1.0000
     1.0000   1.0000   1.0000   1.0000   1.0000   1.0000   1.0000   1.0000
     1.0000   1.0000   1.0000   1.0000   1.0000   1.0000   1.0000   1.0000
     1.0000   1.0000   1.0000   1.0000   1.0000   1.0000   1.0000   1.0000
     1.0000   1.0000   1.0000   1.0000   1.0000   1.0000   1.0000   1.0000
     1.0000   1.0000   1.0000   1.0000   1.0000   1.0000   1.0000   1.0000
     1.0000   1.0000   1.0000   1.0000   1.0000   1.0000   1.0000   1.0000
     1.0000   1.0000   1.0000   1.0000   1.0000   1.0000   1.0000   1.0000
     1.0000   1.0000   1.0000   1.0000   1.0000   1.0000   1.0000   1.0000
     1.0000   1.0000   1.0000   1.0000   1.0000   1.0000   1.0000   1.0000
     1.0000   1.0000   1.0000   1.0000   1.0000   1.0000   1.0000   1.0000
     1.0000   1.0000   1.0000   1.0000   1.0000   1.0000   1.0000   1.0000
     1.0000   1.0000   1.0000   1.0000   1.0000   1.0000   1.0000   1.0000
     1.0000   1.0000   1.0000   1.0000   1.0000   1.0000   1.0000   1.0000
     1.0000   1.0000   1.0000   1.0000   1.0000   1.0000   1.0000   1.0000
     1.0000   1.0000   1.0000   1.0000   1.0000   1.0000   1.0000   1.0000
     1.0000   1.0000   1.0000   1.0000   1.0000   1.0000   1.0000   1.0000
     1.0000   1.0000   1.0000   1.0000   1.0000   1.0000   1.0000   1.0000
     1.0000   1.0000   1.0000   1.0000   1.0000   1.0000   1.0000   1.0000
     1.0000   1.0000   1.0000   1.0000   1.0000   1.0000   1.0000   1.0000
     1.0000   1.0000   1.0000   1.0000   1.0000   1.0000   1.0000   1.0000
     1.0000   1.0000   1.0000

          k = 0.0000 0.2309 0.0000 (112171 PWs)   bands (ev):

   -73.8169 -73.8138 -73.8106 -73.8083 -73.8059 -73.8052 -73.8026 -73.8006
   -73.7959 -73.7939 -73.7910 -73.7891 -73.7872 -73.7545 -73.7497 -73.7402
   -38.2197 -38.2147 -38.2126 -38.1704 -38.1658 -38.1624 -38.1555 -38.1480
   -38.1410 -38.1037 -38.0790 -38.0768 -38.0529 -38.0492 -38.0457 -38.0328
   -38.0294 -38.0266 -38.0243 -38.0216 -38.0185 -38.0163 -38.0135 -38.0116
   -38.0045 -37.9992 -37.9974 -37.9960 -37.9941 -37.9922 -37.9887 -37.9873
   -37.9858 -37.9825 -37.9691 -37.9620 -37.9598 -37.9549 -37.9519 -37.9466
   -37.9326 -37.9230 -37.9220 -37.9115 -37.9084 -37.9011 -37.8778 -37.8686
   -21.4940 -15.3550 -14.5574 -13.9778 -13.8030 -13.7859 -13.4949 -13.4619
   -13.3252 -12.9676 -12.8075 -12.7359 -12.6981 -12.6881 -12.6556 -12.5882
   -12.5556 -12.5436 -12.4949 -12.4773 -12.4576 -12.4378 -12.4240 -12.3175
   -12.2856 -12.2638 -12.2446 -12.2147 -12.1859 -12.1750 -12.1686 -12.1531
   -12.0958 -12.0806  -7.8877  -7.5434  -6.2824  -6.2709  -6.2385  -6.2371
    -6.1460  -5.6715  -5.6483  -5.6311  -5.5606  -5.5195  -5.4902  -5.4721
    -5.4311  -5.4190  -5.3969  -5.3220  -5.3177  -5.2884  -5.2712  -5.0743
    -5.0672  -5.0190  -5.0031  -4.9572  -4.7404  -4.7352  -4.5927  -4.4863
    -4.4548  -4.3872  -4.3240  -4.2898  -4.2111  -4.1622  -4.1479  -4.1215
    -4.1008  -4.0639  -4.0446  -4.0023  -3.9861  -3.9138  -3.9107  -3.9021
    -3.6749  -3.5763  -3.5439  -3.5102  -3.4704  -3.4447  -3.4396  -3.3851
    -3.3651  -3.3165  -3.2984  -3.2815  -3.2770  -3.2103  -3.1959  -3.1505
    -3.1052  -2.9983  -2.9666  -2.9358  -2.8601  -2.7950  -2.7779  -2.7501
    -2.7257  -2.7191  -2.7005  -2.6880  -2.6599  -2.6371  -2.6117  -2.5459
    -2.5225  -2.5063  -2.4789  -2.4437  -2.3649  -2.3172  -2.2064  -2.1657
    -2.1261  -2.0888  -2.0197  -2.0054  -1.9865  -1.9700  -1.9388  -1.9122
    -1.8926  -1.8651  -1.8543  -1.8199  -1.7930  -1.7653  -1.7475  -1.7345
    -1.7215  -1.7050  -1.6902  -1.6679  -1.6520  -1.6108  -1.5871  -1.5538
    -1.5376  -1.4965  -1.4858  -1.4628  -1.4350  -1.3741  -1.3382  -1.3285
    -1.2983  -1.2828  -1.2483  -1.2271  -1.1683  -1.0734  -1.0488  -1.0279
    -0.8982  -0.7813  -0.7637  -0.7512  -0.5739  -0.5660  -0.5540  -0.5358
    -0.5228  -0.5129  -0.4141  -0.3784  -0.3670  -0.2676  -0.1717  -0.1468
     0.1768   1.2606   1.5652

     occupation numbers 
     1.0000   1.0000   1.0000   1.0000   1.0000   1.0000   1.0000   1.0000
     1.0000   1.0000   1.0000   1.0000   1.0000   1.0000   1.0000   1.0000
     1.0000   1.0000   1.0000   1.0000   1.0000   1.0000   1.0000   1.0000
     1.0000   1.0000   1.0000   1.0000   1.0000   1.0000   1.0000   1.0000
     1.0000   1.0000   1.0000   1.0000   1.0000   1.0000   1.0000   1.0000
     1.0000   1.0000   1.0000   1.0000   1.0000   1.0000   1.0000   1.0000
     1.0000   1.0000   1.0000   1.0000   1.0000   1.0000   1.0000   1.0000
     1.0000   1.0000   1.0000   1.0000   1.0000   1.0000   1.0000   1.0000
     1.0000   1.0000   1.0000   1.0000   1.0000   1.0000   1.0000   1.0000
     1.0000   1.0000   1.0000   1.0000   1.0000   1.0000   1.0000   1.0000
     1.0000   1.0000   1.0000   1.0000   1.0000   1.0000   1.0000   1.0000
     1.0000   1.0000   1.0000   1.0000   1.0000   1.0000   1.0000   1.0000
     1.0000   1.0000   1.0000   1.0000   1.0000   1.0000   1.0000   1.0000
     1.0000   1.0000   1.0000   1.0000   1.0000   1.0000   1.0000   1.0000
     1.0000   1.0000   1.0000   1.0000   1.0000   1.0000   1.0000   1.0000
     1.0000   1.0000   1.0000   1.0000   1.0000   1.0000   1.0000   1.0000
     1.0000   1.0000   1.0000   1.0000   1.0000   1.0000   1.0000   1.0000
     1.0000   1.0000   1.0000   1.0000   1.0000   1.0000   1.0000   1.0000
     1.0000   1.0000   1.0000   1.0000   1.0000   1.0000   1.0000   1.0000
     1.0000   1.0000   1.0000   1.0000   1.0000   1.0000   1.0000   1.0000
     1.0000   1.0000   1.0000   1.0000   1.0000   1.0000   1.0000   1.0000
     1.0000   1.0000   1.0000   1.0000   1.0000   1.0000   1.0000   1.0000
     1.0000   1.0000   1.0000   1.0000   1.0000   1.0000   1.0000   1.0000
     1.0000   1.0000   1.0000   1.0000   1.0000   1.0000   1.0000   1.0000
     1.0000   1.0000   1.0000   1.0000   1.0000   1.0000   1.0000   1.0000
     1.0000   1.0000   1.0000   1.0000   1.0000   1.0000   1.0000   1.0000
     1.0000   1.0000   1.0000   1.0000   1.0000   1.0000   1.0000   1.0000
     1.0000   1.0000   1.0000   1.0000   1.0000   1.0000   1.0000   1.0000
     1.0000   1.0000   1.0000   1.0000   1.0000   1.0000   1.0000   1.0000
     1.0000   1.0000   1.0000   1.0000   1.0000   1.0000   1.0000   1.0000
     1.0000   1.0000   1.0000

          k = 0.0000 0.4619 0.0000 (112236 PWs)   bands (ev):

   -73.8166 -73.8142 -73.8107 -73.8084 -73.8057 -73.8051 -73.8026 -73.8005
   -73.7962 -73.7939 -73.7908 -73.7893 -73.7872 -73.7545 -73.7497 -73.7402
   -38.2065 -38.2040 -38.1905 -38.1880 -38.1760 -38.1663 -38.1600 -38.1471
   -38.1311 -38.1263 -38.1056 -38.1012 -38.0639 -38.0586 -38.0474 -38.0385
   -38.0315 -38.0206 -38.0170 -38.0127 -38.0094 -38.0067 -38.0030 -38.0007
   -37.9987 -37.9974 -37.9969 -37.9912 -37.9885 -37.9856 -37.9824 -37.9788
   -37.9737 -37.9702 -37.9669 -37.9655 -37.9532 -37.9515 -37.9495 -37.9478
   -37.9431 -37.9364 -37.9317 -37.9160 -37.9112 -37.8952 -37.8936 -37.8715
   -21.4940 -15.3550 -14.4358 -14.2343 -13.8728 -13.8540 -13.2659 -13.2306
   -13.0209 -13.0000 -12.9708 -12.9180 -12.8335 -12.7315 -12.7051 -12.6894
   -12.5222 -12.5150 -12.4635 -12.4503 -12.4373 -12.4251 -12.3829 -12.3696
   -12.3510 -12.2846 -12.2169 -12.2022 -12.1777 -12.1594 -12.1575 -12.1531
   -12.0566 -12.0398  -7.8877  -7.5434  -6.1625  -6.1245  -6.1138  -6.0917
    -6.0279  -5.8739  -5.8616  -5.8391  -5.7153  -5.5354  -5.5008  -5.4893
    -5.4612  -5.4467  -5.4383  -5.3945  -5.3748  -5.3271  -5.3025  -5.0676
    -5.0643  -5.0315  -5.0100  -4.8118  -4.6334  -4.5304  -4.4877  -4.4414
    -4.3953  -4.3764  -4.3503  -4.3146  -4.2462  -4.2330  -4.1926  -4.1616
    -4.1306  -4.1199  -4.1040  -4.0778  -4.0664  -4.0530  -4.0435  -3.6980
    -3.5764  -3.5122  -3.4834  -3.4448  -3.4219  -3.3933  -3.3713  -3.3118
    -3.2979  -3.2833  -3.2639  -3.2414  -3.2222  -3.1899  -3.1652  -3.1088
    -3.0682  -3.0622  -3.0113  -2.9730  -2.9546  -2.9170  -2.8657  -2.7774
    -2.7539  -2.7097  -2.6698  -2.6408  -2.6125  -2.5739  -2.5406  -2.4974
    -2.4529  -2.4337  -2.3989  -2.3206  -2.2809  -2.2564  -2.2433  -2.1883
    -2.1290  -2.0996  -2.0475  -2.0214  -2.0118  -2.0016  -1.9844  -1.9559
    -1.9341  -1.9101  -1.8816  -1.8749  -1.8572  -1.8450  -1.8406  -1.8287
    -1.7753  -1.7673  -1.7247  -1.7160  -1.6979  -1.6714  -1.6351  -1.6218
    -1.5953  -1.5560  -1.5351  -1.5060  -1.4357  -1.3916  -1.3032  -1.2909
    -1.2380  -1.2048  -1.1925  -1.1514  -1.1213  -1.0993  -1.0504  -1.0095
    -0.9790  -0.8958  -0.7350  -0.7238  -0.6423  -0.6261  -0.4961  -0.4586
    -0.4450  -0.4347  -0.3992  -0.3817  -0.3147  -0.0955   0.0007   0.0239
     0.1272   1.2703   1.6178

     occupation numbers 
     1.0000   1.0000   1.0000   1.0000   1.0000   1.0000   1.0000   1.0000
     1.0000   1.0000   1.0000   1.0000   1.0000   1.0000   1.0000   1.0000
     1.0000   1.0000   1.0000   1.0000   1.0000   1.0000   1.0000   1.0000
     1.0000   1.0000   1.0000   1.0000   1.0000   1.0000   1.0000   1.0000
     1.0000   1.0000   1.0000   1.0000   1.0000   1.0000   1.0000   1.0000
     1.0000   1.0000   1.0000   1.0000   1.0000   1.0000   1.0000   1.0000
     1.0000   1.0000   1.0000   1.0000   1.0000   1.0000   1.0000   1.0000
     1.0000   1.0000   1.0000   1.0000   1.0000   1.0000   1.0000   1.0000
     1.0000   1.0000   1.0000   1.0000   1.0000   1.0000   1.0000   1.0000
     1.0000   1.0000   1.0000   1.0000   1.0000   1.0000   1.0000   1.0000
     1.0000   1.0000   1.0000   1.0000   1.0000   1.0000   1.0000   1.0000
     1.0000   1.0000   1.0000   1.0000   1.0000   1.0000   1.0000   1.0000
     1.0000   1.0000   1.0000   1.0000   1.0000   1.0000   1.0000   1.0000
     1.0000   1.0000   1.0000   1.0000   1.0000   1.0000   1.0000   1.0000
     1.0000   1.0000   1.0000   1.0000   1.0000   1.0000   1.0000   1.0000
     1.0000   1.0000   1.0000   1.0000   1.0000   1.0000   1.0000   1.0000
     1.0000   1.0000   1.0000   1.0000   1.0000   1.0000   1.0000   1.0000
     1.0000   1.0000   1.0000   1.0000   1.0000   1.0000   1.0000   1.0000
     1.0000   1.0000   1.0000   1.0000   1.0000   1.0000   1.0000   1.0000
     1.0000   1.0000   1.0000   1.0000   1.0000   1.0000   1.0000   1.0000
     1.0000   1.0000   1.0000   1.0000   1.0000   1.0000   1.0000   1.0000
     1.0000   1.0000   1.0000   1.0000   1.0000   1.0000   1.0000   1.0000
     1.0000   1.0000   1.0000   1.0000   1.0000   1.0000   1.0000   1.0000
     1.0000   1.0000   1.0000   1.0000   1.0000   1.0000   1.0000   1.0000
     1.0000   1.0000   1.0000   1.0000   1.0000   1.0000   1.0000   1.0000
     1.0000   1.0000   1.0000   1.0000   1.0000   1.0000   1.0000   1.0000
     1.0000   1.0000   1.0000   1.0000   1.0000   1.0000   1.0000   1.0000
     1.0000   1.0000   1.0000   1.0000   1.0000   1.0000   1.0000   1.0000
     1.0000   1.0000   1.0000   1.0000   1.0000   1.0000   1.0000   1.0000
     1.0000   1.0000   1.0000   1.0000   1.0000   1.0000   1.0000   1.0000
     1.0000   1.0000   1.0000

          k = 0.2000 0.3464 0.0000 (112231 PWs)   bands (ev):

   -73.8166 -73.8143 -73.8106 -73.8083 -73.8058 -73.8049 -73.8027 -73.8006
   -73.7959 -73.7940 -73.7908 -73.7893 -73.7872 -73.7545 -73.7497 -73.7402
   -38.2120 -38.2033 -38.2000 -38.1792 -38.1762 -38.1644 -38.1557 -38.1482
   -38.1323 -38.1238 -38.1165 -38.0776 -38.0597 -38.0560 -38.0476 -38.0373
   -38.0322 -38.0290 -38.0253 -38.0197 -38.0160 -38.0095 -38.0031 -38.0001
   -37.9954 -37.9927 -37.9910 -37.9892 -37.9868 -37.9842 -37.9827 -37.9814
   -37.9763 -37.9727 -37.9692 -37.9659 -37.9591 -37.9551 -37.9519 -37.9473
   -37.9411 -37.9320 -37.9262 -37.9211 -37.9050 -37.8999 -37.8866 -37.8721
   -21.4940 -15.3550 -14.4756 -14.1040 -14.0593 -13.5675 -13.5647 -13.1753
   -13.1189 -13.0100 -12.9359 -12.8105 -12.7901 -12.7110 -12.6719 -12.6060
   -12.5955 -12.5769 -12.5720 -12.4580 -12.4251 -12.3916 -12.3773 -12.3137
   -12.2905 -12.2734 -12.2524 -12.2327 -12.2209 -12.1552 -12.1507 -12.1082
   -12.0955 -12.0360  -7.8877  -7.5434  -6.1820  -6.1712  -6.1398  -6.1262
    -6.1056  -5.7669  -5.7379  -5.7216  -5.6819  -5.6447  -5.6024  -5.5671
    -5.5058  -5.4742  -5.3561  -5.3351  -5.2848  -5.2765  -5.2439  -5.2293
    -5.0959  -4.9060  -4.8905  -4.8165  -4.7516  -4.6072  -4.4920  -4.4712
    -4.3988  -4.3677  -4.3384  -4.3051  -4.2766  -4.2637  -4.2354  -4.2274
    -4.1736  -4.1233  -4.1081  -4.0927  -4.0561  -3.7668  -3.7371  -3.7272
    -3.7193  -3.6945  -3.6131  -3.4987  -3.4318  -3.4020  -3.3528  -3.3233
    -3.2993  -3.2468  -3.2269  -3.2075  -3.1700  -3.1512  -3.1090  -3.0921
    -3.0423  -3.0163  -2.9912  -2.9523  -2.9447  -2.9268  -2.9167  -2.9012
    -2.8194  -2.7438  -2.7232  -2.6548  -2.6368  -2.5627  -2.5225  -2.4800
    -2.4666  -2.4397  -2.3879  -2.3632  -2.3164  -2.2218  -2.1859  -2.1657
    -2.1323  -2.1257  -2.0974  -2.0891  -2.0190  -2.0000  -1.9822  -1.9525
    -1.9293  -1.9070  -1.8842  -1.8583  -1.8386  -1.8294  -1.8001  -1.7504
    -1.7371  -1.7199  -1.7101  -1.6797  -1.6724  -1.6237  -1.5965  -1.5759
    -1.5672  -1.5423  -1.5383  -1.5092  -1.4289  -1.3939  -1.3817  -1.3666
    -1.2924  -1.2269  -1.2085  -1.1863  -1.1572  -1.1190  -1.0345  -1.0171
    -0.8754  -0.8489  -0.6822  -0.6728  -0.6393  -0.6320  -0.6165  -0.5423
    -0.5334  -0.4393  -0.3766  -0.2562  -0.2118  -0.2005  -0.1598   0.0709
     0.1399   1.2832   1.5900

     occupation numbers 
     1.0000   1.0000   1.0000   1.0000   1.0000   1.0000   1.0000   1.0000
     1.0000   1.0000   1.0000   1.0000   1.0000   1.0000   1.0000   1.0000
     1.0000   1.0000   1.0000   1.0000   1.0000   1.0000   1.0000   1.0000
     1.0000   1.0000   1.0000   1.0000   1.0000   1.0000   1.0000   1.0000
     1.0000   1.0000   1.0000   1.0000   1.0000   1.0000   1.0000   1.0000
     1.0000   1.0000   1.0000   1.0000   1.0000   1.0000   1.0000   1.0000
     1.0000   1.0000   1.0000   1.0000   1.0000   1.0000   1.0000   1.0000
     1.0000   1.0000   1.0000   1.0000   1.0000   1.0000   1.0000   1.0000
     1.0000   1.0000   1.0000   1.0000   1.0000   1.0000   1.0000   1.0000
     1.0000   1.0000   1.0000   1.0000   1.0000   1.0000   1.0000   1.0000
     1.0000   1.0000   1.0000   1.0000   1.0000   1.0000   1.0000   1.0000
     1.0000   1.0000   1.0000   1.0000   1.0000   1.0000   1.0000   1.0000
     1.0000   1.0000   1.0000   1.0000   1.0000   1.0000   1.0000   1.0000
     1.0000   1.0000   1.0000   1.0000   1.0000   1.0000   1.0000   1.0000
     1.0000   1.0000   1.0000   1.0000   1.0000   1.0000   1.0000   1.0000
     1.0000   1.0000   1.0000   1.0000   1.0000   1.0000   1.0000   1.0000
     1.0000   1.0000   1.0000   1.0000   1.0000   1.0000   1.0000   1.0000
     1.0000   1.0000   1.0000   1.0000   1.0000   1.0000   1.0000   1.0000
     1.0000   1.0000   1.0000   1.0000   1.0000   1.0000   1.0000   1.0000
     1.0000   1.0000   1.0000   1.0000   1.0000   1.0000   1.0000   1.0000
     1.0000   1.0000   1.0000   1.0000   1.0000   1.0000   1.0000   1.0000
     1.0000   1.0000   1.0000   1.0000   1.0000   1.0000   1.0000   1.0000
     1.0000   1.0000   1.0000   1.0000   1.0000   1.0000   1.0000   1.0000
     1.0000   1.0000   1.0000   1.0000   1.0000   1.0000   1.0000   1.0000
     1.0000   1.0000   1.0000   1.0000   1.0000   1.0000   1.0000   1.0000
     1.0000   1.0000   1.0000   1.0000   1.0000   1.0000   1.0000   1.0000
     1.0000   1.0000   1.0000   1.0000   1.0000   1.0000   1.0000   1.0000
     1.0000   1.0000   1.0000   1.0000   1.0000   1.0000   1.0000   1.0000
     1.0000   1.0000   1.0000   1.0000   1.0000   1.0000   1.0000   1.0000
     1.0000   1.0000   1.0000   1.0000   1.0000   1.0000   1.0000   1.0000
     1.0000   1.0000   1.0000

          k = 0.2000 0.5774 0.0000 (112237 PWs)   bands (ev):

   -73.8164 -73.8143 -73.8107 -73.8085 -73.8057 -73.8048 -73.8027 -73.8005
   -73.7960 -73.7940 -73.7908 -73.7893 -73.7872 -73.7545 -73.7497 -73.7402
   -38.2009 -38.1970 -38.1868 -38.1835 -38.1767 -38.1712 -38.1654 -38.1506
   -38.1473 -38.1329 -38.0927 -38.0912 -38.0871 -38.0510 -38.0455 -38.0400
   -38.0339 -38.0306 -38.0176 -38.0172 -38.0074 -38.0050 -38.0027 -38.0010
   -37.9999 -37.9972 -37.9922 -37.9885 -37.9858 -37.9822 -37.9751 -37.9707
   -37.9693 -37.9667 -37.9618 -37.9591 -37.9563 -37.9530 -37.9504 -37.9461
   -37.9425 -37.9378 -37.9319 -37.9291 -37.9176 -37.8974 -37.8885 -37.8752
   -21.4940 -15.3550 -14.3367 -14.2932 -14.1149 -13.5958 -13.3022 -13.2939
   -12.9546 -12.9489 -12.8888 -12.8538 -12.8422 -12.8024 -12.7931 -12.6585
   -12.6312 -12.6034 -12.4925 -12.4846 -12.3843 -12.3727 -12.3591 -12.3237
   -12.3099 -12.2972 -12.2590 -12.2336 -12.2325 -12.1309 -12.1208 -12.1185
   -12.0789 -12.0165  -7.8877  -7.5434  -6.1554  -6.0576  -6.0098  -5.9866
    -5.9217  -5.8966  -5.8764  -5.8503  -5.8097  -5.7439  -5.6874  -5.6246
    -5.6134  -5.5413  -5.3640  -5.2671  -5.2554  -5.2198  -5.2046  -5.1713
    -5.1553  -4.8567  -4.8324  -4.7541  -4.6345  -4.5790  -4.5485  -4.5218
    -4.4750  -4.4188  -4.3993  -4.3197  -4.3124  -4.2396  -4.2331  -4.2132
    -4.1893  -4.1655  -4.1227  -4.0957  -3.9540  -3.9504  -3.7930  -3.6636
    -3.6515  -3.5674  -3.4425  -3.3936  -3.3621  -3.3297  -3.3096  -3.2866
    -3.2732  -3.2620  -3.2451  -3.2348  -3.2162  -3.2015  -3.1440  -3.1256
    -3.1023  -3.0809  -3.0625  -3.0359  -3.0083  -2.9595  -2.8793  -2.8312
    -2.7539  -2.7279  -2.6984  -2.6728  -2.6336  -2.5559  -2.5192  -2.4578
    -2.3988  -2.3340  -2.3206  -2.3088  -2.2552  -2.2072  -2.1801  -2.1358
    -2.1211  -2.1106  -2.0802  -2.0622  -2.0181  -1.9874  -1.9674  -1.9563
    -1.9392  -1.9187  -1.8979  -1.8813  -1.8704  -1.8567  -1.8439  -1.8358
    -1.8244  -1.7826  -1.7632  -1.7378  -1.7059  -1.6883  -1.6812  -1.6517
    -1.6188  -1.5733  -1.5617  -1.5086  -1.4790  -1.4668  -1.4148  -1.3343
    -1.2855  -1.1961  -1.1608  -1.1446  -1.0974  -1.0815  -1.0085  -0.9988
    -0.8142  -0.7997  -0.7025  -0.6917  -0.6605  -0.6459  -0.5931  -0.5835
    -0.5667  -0.4154  -0.2794  -0.2707  -0.1894  -0.1256  -0.0672   0.0899
     0.1879   1.2924   1.6062

     occupation numbers 
     1.0000   1.0000   1.0000   1.0000   1.0000   1.0000   1.0000   1.0000
     1.0000   1.0000   1.0000   1.0000   1.0000   1.0000   1.0000   1.0000
     1.0000   1.0000   1.0000   1.0000   1.0000   1.0000   1.0000   1.0000
     1.0000   1.0000   1.0000   1.0000   1.0000   1.0000   1.0000   1.0000
     1.0000   1.0000   1.0000   1.0000   1.0000   1.0000   1.0000   1.0000
     1.0000   1.0000   1.0000   1.0000   1.0000   1.0000   1.0000   1.0000
     1.0000   1.0000   1.0000   1.0000   1.0000   1.0000   1.0000   1.0000
     1.0000   1.0000   1.0000   1.0000   1.0000   1.0000   1.0000   1.0000
     1.0000   1.0000   1.0000   1.0000   1.0000   1.0000   1.0000   1.0000
     1.0000   1.0000   1.0000   1.0000   1.0000   1.0000   1.0000   1.0000
     1.0000   1.0000   1.0000   1.0000   1.0000   1.0000   1.0000   1.0000
     1.0000   1.0000   1.0000   1.0000   1.0000   1.0000   1.0000   1.0000
     1.0000   1.0000   1.0000   1.0000   1.0000   1.0000   1.0000   1.0000
     1.0000   1.0000   1.0000   1.0000   1.0000   1.0000   1.0000   1.0000
     1.0000   1.0000   1.0000   1.0000   1.0000   1.0000   1.0000   1.0000
     1.0000   1.0000   1.0000   1.0000   1.0000   1.0000   1.0000   1.0000
     1.0000   1.0000   1.0000   1.0000   1.0000   1.0000   1.0000   1.0000
     1.0000   1.0000   1.0000   1.0000   1.0000   1.0000   1.0000   1.0000
     1.0000   1.0000   1.0000   1.0000   1.0000   1.0000   1.0000   1.0000
     1.0000   1.0000   1.0000   1.0000   1.0000   1.0000   1.0000   1.0000
     1.0000   1.0000   1.0000   1.0000   1.0000   1.0000   1.0000   1.0000
     1.0000   1.0000   1.0000   1.0000   1.0000   1.0000   1.0000   1.0000
     1.0000   1.0000   1.0000   1.0000   1.0000   1.0000   1.0000   1.0000
     1.0000   1.0000   1.0000   1.0000   1.0000   1.0000   1.0000   1.0000
     1.0000   1.0000   1.0000   1.0000   1.0000   1.0000   1.0000   1.0000
     1.0000   1.0000   1.0000   1.0000   1.0000   1.0000   1.0000   1.0000
     1.0000   1.0000   1.0000   1.0000   1.0000   1.0000   1.0000   1.0000
     1.0000   1.0000   1.0000   1.0000   1.0000   1.0000   1.0000   1.0000
     1.0000   1.0000   1.0000   1.0000   1.0000   1.0000   1.0000   1.0000
     1.0000   1.0000   1.0000   1.0000   1.0000   1.0000   1.0000   1.0000
     1.0000   1.0000   1.0000

          k =-0.2000 0.1155 0.0000 (112171 PWs)   bands (ev):

   -73.8169 -73.8137 -73.8106 -73.8084 -73.8059 -73.8049 -73.8027 -73.8006
   -73.7958 -73.7940 -73.7911 -73.7890 -73.7872 -73.7545 -73.7497 -73.7402
   -38.2198 -38.2150 -38.2122 -38.1689 -38.1652 -38.1640 -38.1590 -38.1463
   -38.1398 -38.1031 -38.0803 -38.0761 -38.0513 -38.0487 -38.0447 -38.0344
   -38.0283 -38.0277 -38.0251 -38.0239 -38.0168 -38.0160 -38.0137 -38.0124
   -38.0042 -38.0008 -37.9977 -37.9963 -37.9935 -37.9919 -37.9883 -37.9865
   -37.9856 -37.9824 -37.9691 -37.9624 -37.9599 -37.9543 -37.9519 -37.9466
   -37.9329 -37.9248 -37.9209 -37.9106 -37.9086 -37.9005 -37.8749 -37.8717
   -21.4940 -15.3550 -14.5575 -13.9766 -13.8030 -13.7886 -13.4797 -13.4750
   -13.3258 -12.9681 -12.7926 -12.7599 -12.6925 -12.6827 -12.6579 -12.5879
   -12.5656 -12.5222 -12.4983 -12.4794 -12.4705 -12.4330 -12.4223 -12.3086
   -12.2951 -12.2621 -12.2447 -12.2140 -12.1872 -12.1762 -12.1682 -12.1510
   -12.0955 -12.0814  -7.8877  -7.5434  -6.2865  -6.2655  -6.2450  -6.2319
    -6.1460  -5.6798  -5.6405  -5.6261  -5.5504  -5.5327  -5.4935  -5.4699
    -5.4397  -5.4211  -5.3850  -5.3291  -5.3117  -5.2834  -5.2775  -5.0830
    -5.0638  -5.0168  -5.0006  -4.9525  -4.7413  -4.7363  -4.5746  -4.5164
    -4.4515  -4.3735  -4.3413  -4.2815  -4.2093  -4.1632  -4.1486  -4.1237
    -4.1009  -4.0673  -4.0413  -3.9973  -3.9850  -3.9163  -3.9066  -3.8979
    -3.6698  -3.5913  -3.5372  -3.5044  -3.4797  -3.4620  -3.4461  -3.3764
    -3.3672  -3.3201  -3.2966  -3.2803  -3.2663  -3.2073  -3.1958  -3.1559
    -3.1045  -2.9875  -2.9663  -2.9314  -2.8354  -2.8035  -2.7779  -2.7513
    -2.7323  -2.7160  -2.6998  -2.6916  -2.6773  -2.6542  -2.6077  -2.5483
    -2.5205  -2.4854  -2.4712  -2.4475  -2.3712  -2.3144  -2.1993  -2.1770
    -2.1358  -2.0905  -2.0232  -2.0069  -1.9811  -1.9677  -1.9463  -1.9091
    -1.8868  -1.8678  -1.8433  -1.8220  -1.8073  -1.7754  -1.7437  -1.7279
    -1.7112  -1.7011  -1.6857  -1.6683  -1.6550  -1.6101  -1.5779  -1.5572
    -1.5300  -1.5070  -1.4968  -1.4369  -1.4278  -1.3747  -1.3530  -1.3312
    -1.3150  -1.2775  -1.2577  -1.2250  -1.1657  -1.0823  -1.0468  -1.0168
    -0.9014  -0.7772  -0.7602  -0.7419  -0.5869  -0.5703  -0.5538  -0.5345
    -0.5199  -0.5115  -0.4162  -0.3843  -0.3602  -0.2656  -0.1735  -0.1465
     0.1755   1.2824   1.5414

     occupation numbers 
     1.0000   1.0000   1.0000   1.0000   1.0000   1.0000   1.0000   1.0000
     1.0000   1.0000   1.0000   1.0000   1.0000   1.0000   1.0000   1.0000
     1.0000   1.0000   1.0000   1.0000   1.0000   1.0000   1.0000   1.0000
     1.0000   1.0000   1.0000   1.0000   1.0000   1.0000   1.0000   1.0000
     1.0000   1.0000   1.0000   1.0000   1.0000   1.0000   1.0000   1.0000
     1.0000   1.0000   1.0000   1.0000   1.0000   1.0000   1.0000   1.0000
     1.0000   1.0000   1.0000   1.0000   1.0000   1.0000   1.0000   1.0000
     1.0000   1.0000   1.0000   1.0000   1.0000   1.0000   1.0000   1.0000
     1.0000   1.0000   1.0000   1.0000   1.0000   1.0000   1.0000   1.0000
     1.0000   1.0000   1.0000   1.0000   1.0000   1.0000   1.0000   1.0000
     1.0000   1.0000   1.0000   1.0000   1.0000   1.0000   1.0000   1.0000
     1.0000   1.0000   1.0000   1.0000   1.0000   1.0000   1.0000   1.0000
     1.0000   1.0000   1.0000   1.0000   1.0000   1.0000   1.0000   1.0000
     1.0000   1.0000   1.0000   1.0000   1.0000   1.0000   1.0000   1.0000
     1.0000   1.0000   1.0000   1.0000   1.0000   1.0000   1.0000   1.0000
     1.0000   1.0000   1.0000   1.0000   1.0000   1.0000   1.0000   1.0000
     1.0000   1.0000   1.0000   1.0000   1.0000   1.0000   1.0000   1.0000
     1.0000   1.0000   1.0000   1.0000   1.0000   1.0000   1.0000   1.0000
     1.0000   1.0000   1.0000   1.0000   1.0000   1.0000   1.0000   1.0000
     1.0000   1.0000   1.0000   1.0000   1.0000   1.0000   1.0000   1.0000
     1.0000   1.0000   1.0000   1.0000   1.0000   1.0000   1.0000   1.0000
     1.0000   1.0000   1.0000   1.0000   1.0000   1.0000   1.0000   1.0000
     1.0000   1.0000   1.0000   1.0000   1.0000   1.0000   1.0000   1.0000
     1.0000   1.0000   1.0000   1.0000   1.0000   1.0000   1.0000   1.0000
     1.0000   1.0000   1.0000   1.0000   1.0000   1.0000   1.0000   1.0000
     1.0000   1.0000   1.0000   1.0000   1.0000   1.0000   1.0000   1.0000
     1.0000   1.0000   1.0000   1.0000   1.0000   1.0000   1.0000   1.0000
     1.0000   1.0000   1.0000   1.0000   1.0000   1.0000   1.0000   1.0000
     1.0000   1.0000   1.0000   1.0000   1.0000   1.0000   1.0000   1.0000
     1.0000   1.0000   1.0000   1.0000   1.0000   1.0000   1.0000   1.0000
     1.0000   1.0000   1.0000

          k = 0.2000 0.1155 0.0000 (112171 PWs)   bands (ev):

   -73.8168 -73.8139 -73.8106 -73.8081 -73.8060 -73.8050 -73.8027 -73.8006
   -73.7957 -73.7941 -73.7910 -73.7891 -73.7872 -73.7545 -73.7497 -73.7402
   -38.2195 -38.2156 -38.2119 -38.1697 -38.1661 -38.1628 -38.1578 -38.1466
   -38.1400 -38.1033 -38.0801 -38.0765 -38.0514 -38.0490 -38.0452 -38.0345
   -38.0284 -38.0264 -38.0254 -38.0235 -38.0171 -38.0151 -38.0142 -38.0126
   -38.0045 -37.9999 -37.9977 -37.9963 -37.9937 -37.9915 -37.9895 -37.9865
   -37.9855 -37.9823 -37.9690 -37.9617 -37.9606 -37.9545 -37.9518 -37.9466
   -37.9329 -37.9241 -37.9204 -37.9126 -37.9078 -37.9006 -37.8765 -37.8701
   -21.4940 -15.3550 -14.5574 -13.9768 -13.8021 -13.7892 -13.4789 -13.4767
   -13.3250 -12.9681 -12.7928 -12.7592 -12.6921 -12.6839 -12.6583 -12.5879
   -12.5669 -12.5206 -12.4961 -12.4813 -12.4700 -12.4353 -12.4216 -12.3040
   -12.2949 -12.2652 -12.2478 -12.2091 -12.1928 -12.1731 -12.1713 -12.1485
   -12.0927 -12.0838  -7.8877  -7.5434  -6.2810  -6.2672  -6.2479  -6.2334
    -6.1460  -5.6737  -5.6440  -5.6237  -5.5515  -5.5370  -5.4906  -5.4726
    -5.4455  -5.4249  -5.3720  -5.3286  -5.3151  -5.2840  -5.2764  -5.0787
    -5.0716  -5.0146  -5.0043  -4.9470  -4.7422  -4.7370  -4.5702  -4.5122
    -4.4487  -4.3953  -4.3403  -4.2751  -4.2085  -4.1637  -4.1506  -4.1240
    -4.1005  -4.0574  -4.0413  -4.0044  -3.9833  -3.9138  -3.9108  -3.9003
    -3.6622  -3.5717  -3.5523  -3.5114  -3.4697  -3.4585  -3.4423  -3.3852
    -3.3732  -3.3126  -3.3028  -3.2837  -3.2606  -3.2144  -3.1979  -3.1485
    -3.1108  -3.0034  -2.9614  -2.9139  -2.8316  -2.8097  -2.7849  -2.7538
    -2.7394  -2.7135  -2.6999  -2.6936  -2.6692  -2.6399  -2.6008  -2.5514
    -2.5341  -2.5019  -2.4757  -2.4318  -2.3679  -2.3078  -2.2044  -2.1828
    -2.1249  -2.0924  -2.0207  -2.0017  -1.9739  -1.9704  -1.9323  -1.9099
    -1.9021  -1.8792  -1.8399  -1.8269  -1.8090  -1.7828  -1.7452  -1.7355
    -1.7108  -1.6943  -1.6820  -1.6598  -1.6416  -1.6277  -1.5919  -1.5461
    -1.5341  -1.5062  -1.4611  -1.4468  -1.4262  -1.4060  -1.3579  -1.3126
    -1.3067  -1.2981  -1.2522  -1.2120  -1.1712  -1.0660  -1.0471  -1.0296
    -0.9004  -0.7674  -0.7590  -0.7563  -0.5985  -0.5633  -0.5493  -0.5340
    -0.5223  -0.5165  -0.4115  -0.3850  -0.3565  -0.2663  -0.1696  -0.1505
     0.1762   1.2770   1.5478

     occupation numbers 
     1.0000   1.0000   1.0000   1.0000   1.0000   1.0000   1.0000   1.0000
     1.0000   1.0000   1.0000   1.0000   1.0000   1.0000   1.0000   1.0000
     1.0000   1.0000   1.0000   1.0000   1.0000   1.0000   1.0000   1.0000
     1.0000   1.0000   1.0000   1.0000   1.0000   1.0000   1.0000   1.0000
     1.0000   1.0000   1.0000   1.0000   1.0000   1.0000   1.0000   1.0000
     1.0000   1.0000   1.0000   1.0000   1.0000   1.0000   1.0000   1.0000
     1.0000   1.0000   1.0000   1.0000   1.0000   1.0000   1.0000   1.0000
     1.0000   1.0000   1.0000   1.0000   1.0000   1.0000   1.0000   1.0000
     1.0000   1.0000   1.0000   1.0000   1.0000   1.0000   1.0000   1.0000
     1.0000   1.0000   1.0000   1.0000   1.0000   1.0000   1.0000   1.0000
     1.0000   1.0000   1.0000   1.0000   1.0000   1.0000   1.0000   1.0000
     1.0000   1.0000   1.0000   1.0000   1.0000   1.0000   1.0000   1.0000
     1.0000   1.0000   1.0000   1.0000   1.0000   1.0000   1.0000   1.0000
     1.0000   1.0000   1.0000   1.0000   1.0000   1.0000   1.0000   1.0000
     1.0000   1.0000   1.0000   1.0000   1.0000   1.0000   1.0000   1.0000
     1.0000   1.0000   1.0000   1.0000   1.0000   1.0000   1.0000   1.0000
     1.0000   1.0000   1.0000   1.0000   1.0000   1.0000   1.0000   1.0000
     1.0000   1.0000   1.0000   1.0000   1.0000   1.0000   1.0000   1.0000
     1.0000   1.0000   1.0000   1.0000   1.0000   1.0000   1.0000   1.0000
     1.0000   1.0000   1.0000   1.0000   1.0000   1.0000   1.0000   1.0000
     1.0000   1.0000   1.0000   1.0000   1.0000   1.0000   1.0000   1.0000
     1.0000   1.0000   1.0000   1.0000   1.0000   1.0000   1.0000   1.0000
     1.0000   1.0000   1.0000   1.0000   1.0000   1.0000   1.0000   1.0000
     1.0000   1.0000   1.0000   1.0000   1.0000   1.0000   1.0000   1.0000
     1.0000   1.0000   1.0000   1.0000   1.0000   1.0000   1.0000   1.0000
     1.0000   1.0000   1.0000   1.0000   1.0000   1.0000   1.0000   1.0000
     1.0000   1.0000   1.0000   1.0000   1.0000   1.0000   1.0000   1.0000
     1.0000   1.0000   1.0000   1.0000   1.0000   1.0000   1.0000   1.0000
     1.0000   1.0000   1.0000   1.0000   1.0000   1.0000   1.0000   1.0000
     1.0000   1.0000   1.0000   1.0000   1.0000   1.0000   1.0000   1.0000
     1.0000   1.0000   1.0000

          k =-0.4000 0.2309 0.0000 (112236 PWs)   bands (ev):

   -73.8167 -73.8139 -73.8107 -73.8089 -73.8057 -73.8043 -73.8029 -73.8006
   -73.7958 -73.7941 -73.7911 -73.7890 -73.7872 -73.7545 -73.7497 -73.7402
   -38.2077 -38.2020 -38.1905 -38.1842 -38.1831 -38.1644 -38.1613 -38.1472
   -38.1305 -38.1240 -38.1059 -38.1011 -38.0632 -38.0581 -38.0472 -38.0400
   -38.0293 -38.0248 -38.0146 -38.0123 -38.0096 -38.0083 -38.0043 -37.9998
   -37.9987 -37.9975 -37.9954 -37.9928 -37.9877 -37.9860 -37.9824 -37.9795
   -37.9753 -37.9696 -37.9662 -37.9654 -37.9534 -37.9514 -37.9495 -37.9469
   -37.9447 -37.9384 -37.9299 -37.9172 -37.9092 -37.8923 -37.8906 -37.8763
   -21.4940 -15.3550 -14.4362 -14.2332 -13.8701 -13.8583 -13.2500 -13.2443
   -13.0254 -12.9981 -12.9757 -12.9113 -12.8329 -12.7336 -12.7042 -12.6854
   -12.5369 -12.5097 -12.4621 -12.4533 -12.4309 -12.4236 -12.3868 -12.3638
   -12.3533 -12.2824 -12.2225 -12.2006 -12.1762 -12.1618 -12.1551 -12.1525
   -12.0566 -12.0404  -7.8877  -7.5434  -6.1622  -6.1318  -6.1129  -6.0896
    -6.0234  -5.8772  -5.8569  -5.8402  -5.7122  -5.5350  -5.5118  -5.4907
    -5.4550  -5.4473  -5.4381  -5.3897  -5.3803  -5.3179  -5.3105  -5.0830
    -5.0587  -5.0244  -5.0062  -4.8055  -4.6101  -4.5577  -4.4829  -4.4429
    -4.4146  -4.3742  -4.3531  -4.3121  -4.2473  -4.2233  -4.1964  -4.1625
    -4.1230  -4.1148  -4.1025  -4.0757  -4.0694  -4.0548  -4.0436  -3.6919
    -3.5724  -3.5255  -3.4796  -3.4604  -3.4268  -3.3999  -3.3597  -3.3197
    -3.3026  -3.2818  -3.2614  -3.2432  -3.2161  -3.2004  -3.1516  -3.1169
    -3.0742  -3.0493  -3.0157  -2.9740  -2.9396  -2.9077  -2.8419  -2.7823
    -2.7446  -2.7162  -2.6678  -2.6345  -2.6166  -2.5887  -2.5575  -2.5003
    -2.4337  -2.4280  -2.4014  -2.3383  -2.2869  -2.2555  -2.2463  -2.1786
    -2.1285  -2.1195  -2.0615  -2.0333  -2.0196  -1.9959  -1.9661  -1.9380
    -1.9193  -1.9023  -1.8917  -1.8713  -1.8663  -1.8535  -1.8401  -1.8255
    -1.7907  -1.7615  -1.7167  -1.6996  -1.6945  -1.6737  -1.6544  -1.6161
    -1.5939  -1.5652  -1.5069  -1.4795  -1.4536  -1.3612  -1.3341  -1.3035
    -1.2675  -1.2230  -1.1750  -1.1303  -1.1227  -1.1044  -1.0786  -0.9906
    -0.9724  -0.8809  -0.7371  -0.7215  -0.6425  -0.6252  -0.5114  -0.4573
    -0.4514  -0.4262  -0.4053  -0.3785  -0.3053  -0.1026  -0.0005   0.0299
     0.1217   1.3285   1.5533

     occupation numbers 
     1.0000   1.0000   1.0000   1.0000   1.0000   1.0000   1.0000   1.0000
     1.0000   1.0000   1.0000   1.0000   1.0000   1.0000   1.0000   1.0000
     1.0000   1.0000   1.0000   1.0000   1.0000   1.0000   1.0000   1.0000
     1.0000   1.0000   1.0000   1.0000   1.0000   1.0000   1.0000   1.0000
     1.0000   1.0000   1.0000   1.0000   1.0000   1.0000   1.0000   1.0000
     1.0000   1.0000   1.0000   1.0000   1.0000   1.0000   1.0000   1.0000
     1.0000   1.0000   1.0000   1.0000   1.0000   1.0000   1.0000   1.0000
     1.0000   1.0000   1.0000   1.0000   1.0000   1.0000   1.0000   1.0000
     1.0000   1.0000   1.0000   1.0000   1.0000   1.0000   1.0000   1.0000
     1.0000   1.0000   1.0000   1.0000   1.0000   1.0000   1.0000   1.0000
     1.0000   1.0000   1.0000   1.0000   1.0000   1.0000   1.0000   1.0000
     1.0000   1.0000   1.0000   1.0000   1.0000   1.0000   1.0000   1.0000
     1.0000   1.0000   1.0000   1.0000   1.0000   1.0000   1.0000   1.0000
     1.0000   1.0000   1.0000   1.0000   1.0000   1.0000   1.0000   1.0000
     1.0000   1.0000   1.0000   1.0000   1.0000   1.0000   1.0000   1.0000
     1.0000   1.0000   1.0000   1.0000   1.0000   1.0000   1.0000   1.0000
     1.0000   1.0000   1.0000   1.0000   1.0000   1.0000   1.0000   1.0000
     1.0000   1.0000   1.0000   1.0000   1.0000   1.0000   1.0000   1.0000
     1.0000   1.0000   1.0000   1.0000   1.0000   1.0000   1.0000   1.0000
     1.0000   1.0000   1.0000   1.0000   1.0000   1.0000   1.0000   1.0000
     1.0000   1.0000   1.0000   1.0000   1.0000   1.0000   1.0000   1.0000
     1.0000   1.0000   1.0000   1.0000   1.0000   1.0000   1.0000   1.0000
     1.0000   1.0000   1.0000   1.0000   1.0000   1.0000   1.0000   1.0000
     1.0000   1.0000   1.0000   1.0000   1.0000   1.0000   1.0000   1.0000
     1.0000   1.0000   1.0000   1.0000   1.0000   1.0000   1.0000   1.0000
     1.0000   1.0000   1.0000   1.0000   1.0000   1.0000   1.0000   1.0000
     1.0000   1.0000   1.0000   1.0000   1.0000   1.0000   1.0000   1.0000
     1.0000   1.0000   1.0000   1.0000   1.0000   1.0000   1.0000   1.0000
     1.0000   1.0000   1.0000   1.0000   1.0000   1.0000   1.0000   1.0000
     1.0000   1.0000   1.0000   1.0000   1.0000   1.0000   1.0000   1.0000
     1.0000   1.0000   1.0000

          k = 0.4000 0.2309 0.0000 (112236 PWs)   bands (ev):

   -73.8164 -73.8145 -73.8106 -73.8083 -73.8059 -73.8046 -73.8029 -73.8007
   -73.7955 -73.7943 -73.7908 -73.7893 -73.7872 -73.7545 -73.7497 -73.7402
   -38.2061 -38.2041 -38.1902 -38.1869 -38.1805 -38.1633 -38.1617 -38.1470
   -38.1300 -38.1246 -38.1066 -38.1014 -38.0627 -38.0591 -38.0470 -38.0402
   -38.0285 -38.0248 -38.0138 -38.0115 -38.0107 -38.0095 -38.0044 -38.0001
   -37.9979 -37.9966 -37.9949 -37.9916 -37.9896 -37.9861 -37.9821 -37.9794
   -37.9767 -37.9694 -37.9668 -37.9643 -37.9529 -37.9504 -37.9499 -37.9467
   -37.9448 -37.9374 -37.9300 -37.9180 -37.9096 -37.8941 -37.8917 -37.8739
   -21.4940 -15.3550 -14.4361 -14.2334 -13.8694 -13.8588 -13.2499 -13.2454
   -13.0221 -12.9980 -12.9776 -12.9105 -12.8338 -12.7313 -12.7061 -12.6862
   -12.5438 -12.5025 -12.4663 -12.4509 -12.4299 -12.4237 -12.3872 -12.3624
   -12.3509 -12.2824 -12.2292 -12.1985 -12.1781 -12.1608 -12.1555 -12.1500
   -12.0536 -12.0429  -7.8877  -7.5434  -6.1616  -6.1240  -6.1134  -6.0895
    -6.0372  -5.8699  -5.8566  -5.8368  -5.7172  -5.5361  -5.5103  -5.4935
    -5.4496  -5.4489  -5.4407  -5.3891  -5.3836  -5.3157  -5.3096  -5.0743
    -5.0703  -5.0227  -5.0110  -4.7776  -4.6236  -4.5617  -4.4913  -4.4532
    -4.4208  -4.3732  -4.3512  -4.3061  -4.2415  -4.2277  -4.1922  -4.1600
    -4.1265  -4.1163  -4.1037  -4.0775  -4.0644  -4.0524  -4.0441  -3.6790
    -3.5650  -3.5268  -3.4702  -3.4527  -3.4325  -3.4034  -3.3623  -3.3292
    -3.2928  -3.2856  -3.2564  -3.2416  -3.2206  -3.2065  -3.1410  -3.1199
    -3.0923  -3.0583  -3.0221  -2.9723  -2.9417  -2.9073  -2.8532  -2.7823
    -2.7483  -2.6930  -2.6589  -2.6346  -2.6221  -2.6061  -2.5226  -2.5056
    -2.4636  -2.4333  -2.3778  -2.3364  -2.2791  -2.2613  -2.2473  -2.1627
    -2.1277  -2.1204  -2.0466  -2.0179  -2.0121  -1.9883  -1.9815  -1.9659
    -1.9419  -1.9068  -1.8962  -1.8705  -1.8583  -1.8490  -1.8402  -1.8249
    -1.8083  -1.7470  -1.7336  -1.7097  -1.6984  -1.6511  -1.6374  -1.6290
    -1.6005  -1.5583  -1.5146  -1.5014  -1.4273  -1.3649  -1.3158  -1.2962
    -1.2630  -1.2394  -1.1943  -1.1362  -1.1202  -1.0666  -1.0568  -1.0056
    -0.9788  -0.8920  -0.7323  -0.7278  -0.6410  -0.6316  -0.5212  -0.4609
    -0.4501  -0.4244  -0.4063  -0.3687  -0.2989  -0.1043   0.0009   0.0258
     0.1248   1.3115   1.5741

     occupation numbers 
     1.0000   1.0000   1.0000   1.0000   1.0000   1.0000   1.0000   1.0000
     1.0000   1.0000   1.0000   1.0000   1.0000   1.0000   1.0000   1.0000
     1.0000   1.0000   1.0000   1.0000   1.0000   1.0000   1.0000   1.0000
     1.0000   1.0000   1.0000   1.0000   1.0000   1.0000   1.0000   1.0000
     1.0000   1.0000   1.0000   1.0000   1.0000   1.0000   1.0000   1.0000
     1.0000   1.0000   1.0000   1.0000   1.0000   1.0000   1.0000   1.0000
     1.0000   1.0000   1.0000   1.0000   1.0000   1.0000   1.0000   1.0000
     1.0000   1.0000   1.0000   1.0000   1.0000   1.0000   1.0000   1.0000
     1.0000   1.0000   1.0000   1.0000   1.0000   1.0000   1.0000   1.0000
     1.0000   1.0000   1.0000   1.0000   1.0000   1.0000   1.0000   1.0000
     1.0000   1.0000   1.0000   1.0000   1.0000   1.0000   1.0000   1.0000
     1.0000   1.0000   1.0000   1.0000   1.0000   1.0000   1.0000   1.0000
     1.0000   1.0000   1.0000   1.0000   1.0000   1.0000   1.0000   1.0000
     1.0000   1.0000   1.0000   1.0000   1.0000   1.0000   1.0000   1.0000
     1.0000   1.0000   1.0000   1.0000   1.0000   1.0000   1.0000   1.0000
     1.0000   1.0000   1.0000   1.0000   1.0000   1.0000   1.0000   1.0000
     1.0000   1.0000   1.0000   1.0000   1.0000   1.0000   1.0000   1.0000
     1.0000   1.0000   1.0000   1.0000   1.0000   1.0000   1.0000   1.0000
     1.0000   1.0000   1.0000   1.0000   1.0000   1.0000   1.0000   1.0000
     1.0000   1.0000   1.0000   1.0000   1.0000   1.0000   1.0000   1.0000
     1.0000   1.0000   1.0000   1.0000   1.0000   1.0000   1.0000   1.0000
     1.0000   1.0000   1.0000   1.0000   1.0000   1.0000   1.0000   1.0000
     1.0000   1.0000   1.0000   1.0000   1.0000   1.0000   1.0000   1.0000
     1.0000   1.0000   1.0000   1.0000   1.0000   1.0000   1.0000   1.0000
     1.0000   1.0000   1.0000   1.0000   1.0000   1.0000   1.0000   1.0000
     1.0000   1.0000   1.0000   1.0000   1.0000   1.0000   1.0000   1.0000
     1.0000   1.0000   1.0000   1.0000   1.0000   1.0000   1.0000   1.0000
     1.0000   1.0000   1.0000   1.0000   1.0000   1.0000   1.0000   1.0000
     1.0000   1.0000   1.0000   1.0000   1.0000   1.0000   1.0000   1.0000
     1.0000   1.0000   1.0000   1.0000   1.0000   1.0000   1.0000   1.0000
     1.0000   1.0000   1.0000

          k =-0.2000 0.3464 0.0000 (112231 PWs)   bands (ev):

   -73.8167 -73.8139 -73.8107 -73.8087 -73.8057 -73.8048 -73.8027 -73.8005
   -73.7960 -73.7939 -73.7910 -73.7891 -73.7872 -73.7545 -73.7497 -73.7402
   -38.2123 -38.2022 -38.2007 -38.1792 -38.1757 -38.1643 -38.1556 -38.1494
   -38.1328 -38.1255 -38.1131 -38.0771 -38.0609 -38.0556 -38.0480 -38.0372
   -38.0323 -38.0286 -38.0252 -38.0204 -38.0161 -38.0082 -38.0036 -37.9998
   -37.9963 -37.9933 -37.9913 -37.9885 -37.9864 -37.9840 -37.9822 -37.9811
   -37.9766 -37.9736 -37.9696 -37.9652 -37.9584 -37.9554 -37.9518 -37.9472
   -37.9416 -37.9325 -37.9267 -37.9216 -37.9035 -37.8986 -37.8867 -37.8732
   -21.4940 -15.3550 -14.4757 -14.1032 -14.0601 -13.5743 -13.5573 -13.1760
   -13.1195 -13.0099 -12.9356 -12.8088 -12.7917 -12.7068 -12.6729 -12.6203
   -12.5856 -12.5772 -12.5692 -12.4554 -12.4265 -12.3941 -12.3797 -12.3107
   -12.2922 -12.2743 -12.2518 -12.2270 -12.2232 -12.1569 -12.1502 -12.1087
   -12.0958 -12.0357  -7.8877  -7.5434  -6.1918  -6.1694  -6.1365  -6.1213
    -6.1037  -5.7696  -5.7386  -5.7175  -5.7002  -5.6270  -5.6030  -5.5645
    -5.5083  -5.4767  -5.3570  -5.3318  -5.3008  -5.2660  -5.2427  -5.2219
    -5.0983  -4.9147  -4.8954  -4.7974  -4.7566  -4.6098  -4.5183  -4.4488
    -4.3963  -4.3454  -4.3361  -4.3102  -4.2813  -4.2615  -4.2465  -4.2283
    -4.1650  -4.1309  -4.1120  -4.0939  -4.0548  -3.7755  -3.7410  -3.7296
    -3.7096  -3.6929  -3.6148  -3.5091  -3.4243  -3.3838  -3.3750  -3.3100
    -3.2954  -3.2439  -3.2342  -3.2049  -3.1677  -3.1483  -3.1284  -3.0848
    -3.0642  -3.0136  -2.9755  -2.9467  -2.9346  -2.9279  -2.9245  -2.9028
    -2.7991  -2.7444  -2.7231  -2.6784  -2.6316  -2.5645  -2.5323  -2.4789
    -2.4646  -2.4110  -2.3914  -2.3662  -2.3238  -2.2228  -2.1990  -2.1591
    -2.1389  -2.1246  -2.1094  -2.0844  -2.0391  -1.9916  -1.9846  -1.9451
    -1.9216  -1.9027  -1.8704  -1.8565  -1.8273  -1.8190  -1.7985  -1.7748
    -1.7476  -1.7081  -1.7057  -1.6817  -1.6566  -1.6399  -1.5904  -1.5847
    -1.5623  -1.5497  -1.5322  -1.5124  -1.4443  -1.3984  -1.3865  -1.3477
    -1.2913  -1.2497  -1.1981  -1.1745  -1.1595  -1.1225  -1.0481  -1.0049
    -0.8775  -0.8387  -0.6885  -0.6723  -0.6390  -0.6291  -0.6114  -0.5441
    -0.5373  -0.4293  -0.3867  -0.2587  -0.2074  -0.2001  -0.1621   0.0716
     0.1383   1.2912   1.5799

     occupation numbers 
     1.0000   1.0000   1.0000   1.0000   1.0000   1.0000   1.0000   1.0000
     1.0000   1.0000   1.0000   1.0000   1.0000   1.0000   1.0000   1.0000
     1.0000   1.0000   1.0000   1.0000   1.0000   1.0000   1.0000   1.0000
     1.0000   1.0000   1.0000   1.0000   1.0000   1.0000   1.0000   1.0000
     1.0000   1.0000   1.0000   1.0000   1.0000   1.0000   1.0000   1.0000
     1.0000   1.0000   1.0000   1.0000   1.0000   1.0000   1.0000   1.0000
     1.0000   1.0000   1.0000   1.0000   1.0000   1.0000   1.0000   1.0000
     1.0000   1.0000   1.0000   1.0000   1.0000   1.0000   1.0000   1.0000
     1.0000   1.0000   1.0000   1.0000   1.0000   1.0000   1.0000   1.0000
     1.0000   1.0000   1.0000   1.0000   1.0000   1.0000   1.0000   1.0000
     1.0000   1.0000   1.0000   1.0000   1.0000   1.0000   1.0000   1.0000
     1.0000   1.0000   1.0000   1.0000   1.0000   1.0000   1.0000   1.0000
     1.0000   1.0000   1.0000   1.0000   1.0000   1.0000   1.0000   1.0000
     1.0000   1.0000   1.0000   1.0000   1.0000   1.0000   1.0000   1.0000
     1.0000   1.0000   1.0000   1.0000   1.0000   1.0000   1.0000   1.0000
     1.0000   1.0000   1.0000   1.0000   1.0000   1.0000   1.0000   1.0000
     1.0000   1.0000   1.0000   1.0000   1.0000   1.0000   1.0000   1.0000
     1.0000   1.0000   1.0000   1.0000   1.0000   1.0000   1.0000   1.0000
     1.0000   1.0000   1.0000   1.0000   1.0000   1.0000   1.0000   1.0000
     1.0000   1.0000   1.0000   1.0000   1.0000   1.0000   1.0000   1.0000
     1.0000   1.0000   1.0000   1.0000   1.0000   1.0000   1.0000   1.0000
     1.0000   1.0000   1.0000   1.0000   1.0000   1.0000   1.0000   1.0000
     1.0000   1.0000   1.0000   1.0000   1.0000   1.0000   1.0000   1.0000
     1.0000   1.0000   1.0000   1.0000   1.0000   1.0000   1.0000   1.0000
     1.0000   1.0000   1.0000   1.0000   1.0000   1.0000   1.0000   1.0000
     1.0000   1.0000   1.0000   1.0000   1.0000   1.0000   1.0000   1.0000
     1.0000   1.0000   1.0000   1.0000   1.0000   1.0000   1.0000   1.0000
     1.0000   1.0000   1.0000   1.0000   1.0000   1.0000   1.0000   1.0000
     1.0000   1.0000   1.0000   1.0000   1.0000   1.0000   1.0000   1.0000
     1.0000   1.0000   1.0000   1.0000   1.0000   1.0000   1.0000   1.0000
     1.0000   1.0000   1.0000

          k = 0.4000-0.0000 0.0000 (112231 PWs)   bands (ev):

   -73.8166 -73.8141 -73.8107 -73.8085 -73.8059 -73.8045 -73.8029 -73.8006
   -73.7956 -73.7942 -73.7910 -73.7891 -73.7872 -73.7545 -73.7497 -73.7402
   -38.2123 -38.2029 -38.1997 -38.1791 -38.1759 -38.1656 -38.1561 -38.1495
   -38.1321 -38.1241 -38.1126 -38.0768 -38.0618 -38.0562 -38.0478 -38.0379
   -38.0307 -38.0288 -38.0253 -38.0219 -38.0140 -38.0093 -38.0040 -37.9986
   -37.9962 -37.9935 -37.9913 -37.9890 -37.9878 -37.9852 -37.9821 -37.9801
   -37.9752 -37.9747 -37.9694 -37.9655 -37.9584 -37.9549 -37.9516 -37.9469
   -37.9422 -37.9318 -37.9279 -37.9221 -37.9016 -37.8983 -37.8855 -37.8752
   -21.4940 -15.3550 -14.4758 -14.0997 -14.0637 -13.5688 -13.5636 -13.1710
   -13.1228 -13.0138 -12.9295 -12.8048 -12.7958 -12.7115 -12.6821 -12.6025
   -12.5997 -12.5742 -12.5612 -12.4570 -12.4237 -12.4130 -12.3649 -12.3078
   -12.2933 -12.2712 -12.2545 -12.2349 -12.2203 -12.1578 -12.1477 -12.1066
   -12.0972 -12.0362  -7.8877  -7.5434  -6.1820  -6.1764  -6.1383  -6.1195
    -6.1086  -5.7591  -5.7434  -5.7215  -5.6884  -5.6374  -5.6094  -5.5621
    -5.5063  -5.4739  -5.3525  -5.3357  -5.2934  -5.2724  -5.2452  -5.2301
    -5.0980  -4.9026  -4.8873  -4.8109  -4.7568  -4.5730  -4.5398  -4.4667
    -4.4105  -4.3475  -4.3387  -4.3140  -4.2763  -4.2651  -4.2443  -4.2115
    -4.1759  -4.1183  -4.1109  -4.0906  -4.0549  -3.7645  -3.7356  -3.7284
    -3.7088  -3.6995  -3.6268  -3.4867  -3.4317  -3.4037  -3.3733  -3.3274
    -3.2886  -3.2473  -3.2374  -3.2036  -3.1781  -3.1457  -3.1282  -3.0832
    -3.0445  -3.0068  -2.9703  -2.9530  -2.9420  -2.9247  -2.9089  -2.9011
    -2.7906  -2.7582  -2.7238  -2.6629  -2.6342  -2.5838  -2.5483  -2.4720
    -2.4684  -2.4218  -2.3890  -2.3478  -2.3219  -2.2282  -2.1818  -2.1634
    -2.1331  -2.1255  -2.1087  -2.1024  -2.0144  -1.9958  -1.9776  -1.9519
    -1.9281  -1.9019  -1.8840  -1.8660  -1.8538  -1.8227  -1.7927  -1.7701
    -1.7312  -1.7138  -1.6947  -1.6759  -1.6621  -1.6305  -1.5964  -1.5738
    -1.5580  -1.5483  -1.5339  -1.5073  -1.4510  -1.4139  -1.3710  -1.3414
    -1.2890  -1.2684  -1.2030  -1.1800  -1.1527  -1.1110  -1.0507  -1.0033
    -0.8687  -0.8507  -0.6829  -0.6756  -0.6401  -0.6239  -0.6158  -0.5423
    -0.5365  -0.4438  -0.3841  -0.2535  -0.2082  -0.1950  -0.1636   0.0689
     0.1383   1.3209   1.5490

     occupation numbers 
     1.0000   1.0000   1.0000   1.0000   1.0000   1.0000   1.0000   1.0000
     1.0000   1.0000   1.0000   1.0000   1.0000   1.0000   1.0000   1.0000
     1.0000   1.0000   1.0000   1.0000   1.0000   1.0000   1.0000   1.0000
     1.0000   1.0000   1.0000   1.0000   1.0000   1.0000   1.0000   1.0000
     1.0000   1.0000   1.0000   1.0000   1.0000   1.0000   1.0000   1.0000
     1.0000   1.0000   1.0000   1.0000   1.0000   1.0000   1.0000   1.0000
     1.0000   1.0000   1.0000   1.0000   1.0000   1.0000   1.0000   1.0000
     1.0000   1.0000   1.0000   1.0000   1.0000   1.0000   1.0000   1.0000
     1.0000   1.0000   1.0000   1.0000   1.0000   1.0000   1.0000   1.0000
     1.0000   1.0000   1.0000   1.0000   1.0000   1.0000   1.0000   1.0000
     1.0000   1.0000   1.0000   1.0000   1.0000   1.0000   1.0000   1.0000
     1.0000   1.0000   1.0000   1.0000   1.0000   1.0000   1.0000   1.0000
     1.0000   1.0000   1.0000   1.0000   1.0000   1.0000   1.0000   1.0000
     1.0000   1.0000   1.0000   1.0000   1.0000   1.0000   1.0000   1.0000
     1.0000   1.0000   1.0000   1.0000   1.0000   1.0000   1.0000   1.0000
     1.0000   1.0000   1.0000   1.0000   1.0000   1.0000   1.0000   1.0000
     1.0000   1.0000   1.0000   1.0000   1.0000   1.0000   1.0000   1.0000
     1.0000   1.0000   1.0000   1.0000   1.0000   1.0000   1.0000   1.0000
     1.0000   1.0000   1.0000   1.0000   1.0000   1.0000   1.0000   1.0000
     1.0000   1.0000   1.0000   1.0000   1.0000   1.0000   1.0000   1.0000
     1.0000   1.0000   1.0000   1.0000   1.0000   1.0000   1.0000   1.0000
     1.0000   1.0000   1.0000   1.0000   1.0000   1.0000   1.0000   1.0000
     1.0000   1.0000   1.0000   1.0000   1.0000   1.0000   1.0000   1.0000
     1.0000   1.0000   1.0000   1.0000   1.0000   1.0000   1.0000   1.0000
     1.0000   1.0000   1.0000   1.0000   1.0000   1.0000   1.0000   1.0000
     1.0000   1.0000   1.0000   1.0000   1.0000   1.0000   1.0000   1.0000
     1.0000   1.0000   1.0000   1.0000   1.0000   1.0000   1.0000   1.0000
     1.0000   1.0000   1.0000   1.0000   1.0000   1.0000   1.0000   1.0000
     1.0000   1.0000   1.0000   1.0000   1.0000   1.0000   1.0000   1.0000
     1.0000   1.0000   1.0000   1.0000   1.0000   1.0000   1.0000   1.0000
     1.0000   1.0000   1.0000

          k =-0.4000 0.4619 0.0000 (112237 PWs)   bands (ev):

   -73.8165 -73.8142 -73.8107 -73.8088 -73.8057 -73.8044 -73.8029 -73.8005
   -73.7958 -73.7941 -73.7910 -73.7891 -73.7872 -73.7545 -73.7497 -73.7402
   -38.2019 -38.1951 -38.1856 -38.1823 -38.1797 -38.1734 -38.1659 -38.1491
   -38.1463 -38.1327 -38.0944 -38.0902 -38.0850 -38.0521 -38.0448 -38.0412
   -38.0331 -38.0313 -38.0211 -38.0129 -38.0082 -38.0053 -38.0036 -38.0002
   -37.9991 -37.9963 -37.9936 -37.9881 -37.9859 -37.9822 -37.9748 -37.9716
   -37.9696 -37.9680 -37.9612 -37.9578 -37.9546 -37.9529 -37.9499 -37.9478
   -37.9456 -37.9382 -37.9339 -37.9269 -37.9149 -37.8960 -37.8854 -37.8796
   -21.4940 -15.3550 -14.3394 -14.2895 -14.1160 -13.5968 -13.2987 -13.2950
   -12.9618 -12.9497 -12.8869 -12.8569 -12.8278 -12.8013 -12.7965 -12.6659
   -12.6345 -12.5963 -12.4943 -12.4838 -12.3882 -12.3757 -12.3483 -12.3262
   -12.3096 -12.2974 -12.2613 -12.2349 -12.2296 -12.1341 -12.1201 -12.1151
   -12.0801 -12.0166  -7.8877  -7.5434  -6.1552  -6.0593  -6.0253  -5.9698
    -5.9155  -5.8907  -5.8778  -5.8599  -5.8084  -5.7450  -5.6896  -5.6262
    -5.6106  -5.5415  -5.3582  -5.2869  -5.2480  -5.2171  -5.2021  -5.1690
    -5.1580  -4.8549  -4.8332  -4.7463  -4.6207  -4.5905  -4.5449  -4.5256
    -4.4918  -4.4272  -4.3849  -4.3263  -4.3087  -4.2425  -4.2275  -4.2094
    -4.1939  -4.1643  -4.1206  -4.0948  -3.9575  -3.9474  -3.7929  -3.6715
    -3.6269  -3.5901  -3.4347  -3.3978  -3.3639  -3.3264  -3.3088  -3.2818
    -3.2789  -3.2677  -3.2425  -3.2322  -3.2204  -3.2144  -3.1499  -3.1215
    -3.0976  -3.0856  -3.0594  -3.0471  -2.9979  -2.9536  -2.8515  -2.8152
    -2.7447  -2.7312  -2.7128  -2.6827  -2.6317  -2.5949  -2.5115  -2.4202
    -2.4004  -2.3314  -2.3234  -2.3182  -2.2685  -2.1993  -2.1749  -2.1605
    -2.1470  -2.0904  -2.0802  -2.0525  -2.0291  -1.9796  -1.9691  -1.9491
    -1.9329  -1.9186  -1.8951  -1.8842  -1.8689  -1.8554  -1.8453  -1.8424
    -1.8189  -1.7949  -1.7572  -1.7263  -1.7052  -1.6928  -1.6735  -1.6544
    -1.6271  -1.5858  -1.5366  -1.5058  -1.4848  -1.4620  -1.4214  -1.3182
    -1.2849  -1.2369  -1.1709  -1.1169  -1.0939  -1.0765  -1.0448  -0.9730
    -0.8147  -0.7885  -0.7029  -0.6921  -0.6584  -0.6468  -0.6004  -0.5843
    -0.5679  -0.4145  -0.2814  -0.2751  -0.1797  -0.1198  -0.0779   0.0903
     0.1866   1.3293   1.5662

     occupation numbers 
     1.0000   1.0000   1.0000   1.0000   1.0000   1.0000   1.0000   1.0000
     1.0000   1.0000   1.0000   1.0000   1.0000   1.0000   1.0000   1.0000
     1.0000   1.0000   1.0000   1.0000   1.0000   1.0000   1.0000   1.0000
     1.0000   1.0000   1.0000   1.0000   1.0000   1.0000   1.0000   1.0000
     1.0000   1.0000   1.0000   1.0000   1.0000   1.0000   1.0000   1.0000
     1.0000   1.0000   1.0000   1.0000   1.0000   1.0000   1.0000   1.0000
     1.0000   1.0000   1.0000   1.0000   1.0000   1.0000   1.0000   1.0000
     1.0000   1.0000   1.0000   1.0000   1.0000   1.0000   1.0000   1.0000
     1.0000   1.0000   1.0000   1.0000   1.0000   1.0000   1.0000   1.0000
     1.0000   1.0000   1.0000   1.0000   1.0000   1.0000   1.0000   1.0000
     1.0000   1.0000   1.0000   1.0000   1.0000   1.0000   1.0000   1.0000
     1.0000   1.0000   1.0000   1.0000   1.0000   1.0000   1.0000   1.0000
     1.0000   1.0000   1.0000   1.0000   1.0000   1.0000   1.0000   1.0000
     1.0000   1.0000   1.0000   1.0000   1.0000   1.0000   1.0000   1.0000
     1.0000   1.0000   1.0000   1.0000   1.0000   1.0000   1.0000   1.0000
     1.0000   1.0000   1.0000   1.0000   1.0000   1.0000   1.0000   1.0000
     1.0000   1.0000   1.0000   1.0000   1.0000   1.0000   1.0000   1.0000
     1.0000   1.0000   1.0000   1.0000   1.0000   1.0000   1.0000   1.0000
     1.0000   1.0000   1.0000   1.0000   1.0000   1.0000   1.0000   1.0000
     1.0000   1.0000   1.0000   1.0000   1.0000   1.0000   1.0000   1.0000
     1.0000   1.0000   1.0000   1.0000   1.0000   1.0000   1.0000   1.0000
     1.0000   1.0000   1.0000   1.0000   1.0000   1.0000   1.0000   1.0000
     1.0000   1.0000   1.0000   1.0000   1.0000   1.0000   1.0000   1.0000
     1.0000   1.0000   1.0000   1.0000   1.0000   1.0000   1.0000   1.0000
     1.0000   1.0000   1.0000   1.0000   1.0000   1.0000   1.0000   1.0000
     1.0000   1.0000   1.0000   1.0000   1.0000   1.0000   1.0000   1.0000
     1.0000   1.0000   1.0000   1.0000   1.0000   1.0000   1.0000   1.0000
     1.0000   1.0000   1.0000   1.0000   1.0000   1.0000   1.0000   1.0000
     1.0000   1.0000   1.0000   1.0000   1.0000   1.0000   1.0000   1.0000
     1.0000   1.0000   1.0000   1.0000   1.0000   1.0000   1.0000   1.0000
     1.0000   1.0000   1.0000

          k = 0.6000 0.1155 0.0000 (112237 PWs)   bands (ev):

   -73.8163 -73.8145 -73.8107 -73.8084 -73.8058 -73.8045 -73.8030 -73.8006
   -73.7957 -73.7942 -73.7908 -73.7893 -73.7872 -73.7545 -73.7497 -73.7402
   -38.2006 -38.1967 -38.1865 -38.1838 -38.1768 -38.1733 -38.1655 -38.1489
   -38.1471 -38.1325 -38.0938 -38.0921 -38.0846 -38.0517 -38.0449 -38.0410
   -38.0332 -38.0315 -38.0207 -38.0121 -38.0090 -38.0060 -38.0030 -38.0005
   -37.9995 -37.9949 -37.9933 -37.9890 -37.9861 -37.9821 -37.9746 -37.9718
   -37.9695 -37.9688 -37.9610 -37.9577 -37.9551 -37.9532 -37.9503 -37.9476
   -37.9417 -37.9388 -37.9321 -37.9294 -37.9160 -37.8969 -37.8869 -37.8773
   -21.4940 -15.3550 -14.3388 -14.2903 -14.1158 -13.5967 -13.3059 -13.2877
   -12.9678 -12.9437 -12.8819 -12.8605 -12.8282 -12.8017 -12.7971 -12.6684
   -12.6334 -12.5945 -12.5042 -12.4737 -12.3948 -12.3724 -12.3445 -12.3216
   -12.3105 -12.2996 -12.2645 -12.2354 -12.2305 -12.1319 -12.1210 -12.1155
   -12.0793 -12.0168  -7.8877  -7.5434  -6.1552  -6.0562  -6.0203  -5.9689
    -5.9290  -5.9070  -5.8772  -5.8355  -5.8076  -5.7500  -5.6915  -5.6240
    -5.6128  -5.5381  -5.3570  -5.2832  -5.2566  -5.2259  -5.1973  -5.1729
    -5.1488  -4.8569  -4.8399  -4.6963  -4.6477  -4.6103  -4.5521  -4.5149
    -4.4949  -4.4361  -4.3853  -4.3219  -4.3027  -4.2425  -4.2319  -4.2001
    -4.1923  -4.1680  -4.1203  -4.0964  -3.9582  -3.9477  -3.7893  -3.6691
    -3.6283  -3.5809  -3.4363  -3.3767  -3.3679  -3.3348  -3.3032  -3.2876
    -3.2850  -3.2618  -3.2458  -3.2350  -3.2213  -3.2035  -3.1805  -3.1439
    -3.0878  -3.0794  -3.0537  -3.0219  -3.0072  -2.9662  -2.8492  -2.8133
    -2.7527  -2.7324  -2.7263  -2.6585  -2.6412  -2.5570  -2.5207  -2.4685
    -2.3958  -2.3364  -2.3165  -2.2972  -2.2473  -2.2153  -2.1748  -2.1512
    -2.1296  -2.1053  -2.0776  -2.0489  -2.0202  -1.9849  -1.9690  -1.9597
    -1.9386  -1.9134  -1.9035  -1.8826  -1.8731  -1.8627  -1.8539  -1.8449
    -1.8118  -1.7988  -1.7475  -1.7328  -1.7067  -1.6931  -1.6665  -1.6446
    -1.6273  -1.6060  -1.5393  -1.5217  -1.4770  -1.4348  -1.4070  -1.3302
    -1.2937  -1.2309  -1.1607  -1.1400  -1.0961  -1.0579  -1.0223  -0.9927
    -0.8110  -0.7950  -0.6984  -0.6967  -0.6595  -0.6529  -0.6011  -0.5957
    -0.5534  -0.4159  -0.2833  -0.2682  -0.1771  -0.1248  -0.0772   0.0911
     0.1869   1.3191   1.5785

     occupation numbers 
     1.0000   1.0000   1.0000   1.0000   1.0000   1.0000   1.0000   1.0000
     1.0000   1.0000   1.0000   1.0000   1.0000   1.0000   1.0000   1.0000
     1.0000   1.0000   1.0000   1.0000   1.0000   1.0000   1.0000   1.0000
     1.0000   1.0000   1.0000   1.0000   1.0000   1.0000   1.0000   1.0000
     1.0000   1.0000   1.0000   1.0000   1.0000   1.0000   1.0000   1.0000
     1.0000   1.0000   1.0000   1.0000   1.0000   1.0000   1.0000   1.0000
     1.0000   1.0000   1.0000   1.0000   1.0000   1.0000   1.0000   1.0000
     1.0000   1.0000   1.0000   1.0000   1.0000   1.0000   1.0000   1.0000
     1.0000   1.0000   1.0000   1.0000   1.0000   1.0000   1.0000   1.0000
     1.0000   1.0000   1.0000   1.0000   1.0000   1.0000   1.0000   1.0000
     1.0000   1.0000   1.0000   1.0000   1.0000   1.0000   1.0000   1.0000
     1.0000   1.0000   1.0000   1.0000   1.0000   1.0000   1.0000   1.0000
     1.0000   1.0000   1.0000   1.0000   1.0000   1.0000   1.0000   1.0000
     1.0000   1.0000   1.0000   1.0000   1.0000   1.0000   1.0000   1.0000
     1.0000   1.0000   1.0000   1.0000   1.0000   1.0000   1.0000   1.0000
     1.0000   1.0000   1.0000   1.0000   1.0000   1.0000   1.0000   1.0000
     1.0000   1.0000   1.0000   1.0000   1.0000   1.0000   1.0000   1.0000
     1.0000   1.0000   1.0000   1.0000   1.0000   1.0000   1.0000   1.0000
     1.0000   1.0000   1.0000   1.0000   1.0000   1.0000   1.0000   1.0000
     1.0000   1.0000   1.0000   1.0000   1.0000   1.0000   1.0000   1.0000
     1.0000   1.0000   1.0000   1.0000   1.0000   1.0000   1.0000   1.0000
     1.0000   1.0000   1.0000   1.0000   1.0000   1.0000   1.0000   1.0000
     1.0000   1.0000   1.0000   1.0000   1.0000   1.0000   1.0000   1.0000
     1.0000   1.0000   1.0000   1.0000   1.0000   1.0000   1.0000   1.0000
     1.0000   1.0000   1.0000   1.0000   1.0000   1.0000   1.0000   1.0000
     1.0000   1.0000   1.0000   1.0000   1.0000   1.0000   1.0000   1.0000
     1.0000   1.0000   1.0000   1.0000   1.0000   1.0000   1.0000   1.0000
     1.0000   1.0000   1.0000   1.0000   1.0000   1.0000   1.0000   1.0000
     1.0000   1.0000   1.0000   1.0000   1.0000   1.0000   1.0000   1.0000
     1.0000   1.0000   1.0000   1.0000   1.0000   1.0000   1.0000   1.0000
     1.0000   1.0000   1.0000

 ------ SPIN DOWN ----------


          k = 0.0000 0.0000 0.0000 (112117 PWs)   bands (ev):

   -73.8137 -73.8092 -73.8062 -73.8044 -73.8022 -73.8014 -73.7982 -73.7958
   -73.7936 -73.7886 -73.7877 -73.7861 -73.7820 -73.7410 -73.7314 -73.7284
   -38.2158 -38.2146 -38.2126 -38.1566 -38.1559 -38.1518 -38.1471 -38.1460
   -38.1347 -38.0555 -38.0504 -38.0478 -38.0473 -38.0413 -38.0383 -38.0370
   -38.0242 -38.0223 -38.0204 -38.0192 -38.0165 -38.0163 -38.0149 -38.0119
   -38.0088 -38.0055 -38.0041 -37.9991 -37.9923 -37.9888 -37.9863 -37.9848
   -37.9833 -37.9762 -37.9521 -37.9512 -37.9483 -37.9446 -37.9353 -37.9247
   -37.9187 -37.9078 -37.9055 -37.9040 -37.9015 -37.8908 -37.8583 -37.8563
   -21.4926 -15.3538 -14.5945 -13.7057 -13.6911 -13.6711 -13.6423 -13.6284
   -13.6192 -12.9791 -12.7049 -12.6743 -12.6502 -12.6357 -12.6006 -12.5798
   -12.5324 -12.5036 -12.4677 -12.4549 -12.4432 -12.4415 -12.4204 -12.4189
   -12.4151 -12.2202 -12.1979 -12.1882 -12.1715 -12.1559 -12.1520 -12.1477
   -12.1457 -12.1433  -7.8858  -7.5415  -6.3357  -6.3225  -6.3049  -6.2746
    -6.1455  -5.5999  -5.5683  -5.5443  -5.5285  -5.5243  -5.4918  -5.4376
    -5.4048  -5.3861  -5.3108  -5.2796  -5.2596  -5.0988  -5.0897  -5.0617
    -5.0570  -5.0530  -5.0522  -4.9963  -4.9956  -4.9872  -4.5112  -4.4319
    -4.3921  -4.3429  -4.2891  -4.2801  -4.2641  -4.2429  -4.2295  -4.1759
    -4.0769  -4.0062  -3.9751  -3.9600  -3.9337  -3.7880  -3.7555  -3.7516
    -3.6975  -3.6758  -3.6728  -3.5960  -3.5072  -3.4679  -3.4026  -3.3987
    -3.3711  -3.3646  -3.2733  -3.2186  -3.1926  -3.1789  -3.1571  -3.1394
    -3.1263  -3.1215  -3.1073  -3.1049  -3.0388  -2.9240  -2.7910  -2.7448
    -2.6867  -2.6655  -2.6198  -2.5854  -2.5724  -2.4988  -2.4904  -2.4624
    -2.4573  -2.4300  -2.4274  -2.4223  -2.3886  -2.3287  -2.2718  -2.1856
    -2.1146  -2.0531  -1.9638  -1.9589  -1.9293  -1.9160  -1.8649  -1.8220
    -1.7983  -1.7741  -1.7633  -1.7609  -1.7484  -1.7466  -1.7406  -1.7342
    -1.7317  -1.6989  -1.6885  -1.6554  -1.6460  -1.6338  -1.6311  -1.5980
    -1.5720  -1.5254  -1.5154  -1.4881  -1.4476  -1.4085  -1.3691  -1.3516
    -1.2892  -1.2603  -1.1812  -1.0868  -1.0321  -1.0250  -1.0090  -0.9892
    -0.7211  -0.6867  -0.6826  -0.6823  -0.6693  -0.6646  -0.6425  -0.6360
    -0.6196  -0.3923  -0.3809  -0.3709  -0.3558  -0.3390  -0.3296  -0.2930
     0.2190   1.3020   1.6764

     occupation numbers 
     1.0000   1.0000   1.0000   1.0000   1.0000   1.0000   1.0000   1.0000
     1.0000   1.0000   1.0000   1.0000   1.0000   1.0000   1.0000   1.0000
     1.0000   1.0000   1.0000   1.0000   1.0000   1.0000   1.0000   1.0000
     1.0000   1.0000   1.0000   1.0000   1.0000   1.0000   1.0000   1.0000
     1.0000   1.0000   1.0000   1.0000   1.0000   1.0000   1.0000   1.0000
     1.0000   1.0000   1.0000   1.0000   1.0000   1.0000   1.0000   1.0000
     1.0000   1.0000   1.0000   1.0000   1.0000   1.0000   1.0000   1.0000
     1.0000   1.0000   1.0000   1.0000   1.0000   1.0000   1.0000   1.0000
     1.0000   1.0000   1.0000   1.0000   1.0000   1.0000   1.0000   1.0000
     1.0000   1.0000   1.0000   1.0000   1.0000   1.0000   1.0000   1.0000
     1.0000   1.0000   1.0000   1.0000   1.0000   1.0000   1.0000   1.0000
     1.0000   1.0000   1.0000   1.0000   1.0000   1.0000   1.0000   1.0000
     1.0000   1.0000   1.0000   1.0000   1.0000   1.0000   1.0000   1.0000
     1.0000   1.0000   1.0000   1.0000   1.0000   1.0000   1.0000   1.0000
     1.0000   1.0000   1.0000   1.0000   1.0000   1.0000   1.0000   1.0000
     1.0000   1.0000   1.0000   1.0000   1.0000   1.0000   1.0000   1.0000
     1.0000   1.0000   1.0000   1.0000   1.0000   1.0000   1.0000   1.0000
     1.0000   1.0000   1.0000   1.0000   1.0000   1.0000   1.0000   1.0000
     1.0000   1.0000   1.0000   1.0000   1.0000   1.0000   1.0000   1.0000
     1.0000   1.0000   1.0000   1.0000   1.0000   1.0000   1.0000   1.0000
     1.0000   1.0000   1.0000   1.0000   1.0000   1.0000   1.0000   1.0000
     1.0000   1.0000   1.0000   1.0000   1.0000   1.0000   1.0000   1.0000
     1.0000   1.0000   1.0000   1.0000   1.0000   1.0000   1.0000   1.0000
     1.0000   1.0000   1.0000   1.0000   1.0000   1.0000   1.0000   1.0000
     1.0000   1.0000   1.0000   1.0000   1.0000   1.0000   1.0000   1.0000
     1.0000   1.0000   1.0000   1.0000   1.0000   1.0000   1.0000   1.0000
     1.0000   1.0000   1.0000   1.0000   1.0000   1.0000   1.0000   1.0000
     1.0000   1.0000   1.0000   1.0000   1.0000   1.0000   1.0000   1.0000
     1.0000   1.0000   1.0000   1.0000   1.0000   1.0000   1.0000   1.0000
     1.0000   1.0000   1.0000   1.0000   1.0000   1.0000   1.0000   1.0000
     1.0000   1.0000   0.0000

          k = 0.0000 0.2309 0.0000 (112171 PWs)   bands (ev):

   -73.8136 -73.8093 -73.8064 -73.8043 -73.8024 -73.8012 -73.7981 -73.7958
   -73.7937 -73.7886 -73.7877 -73.7861 -73.7820 -73.7410 -73.7314 -73.7284
   -38.2111 -38.2092 -38.2062 -38.1602 -38.1587 -38.1573 -38.1501 -38.1395
   -38.1314 -38.0962 -38.0708 -38.0695 -38.0461 -38.0422 -38.0374 -38.0266
   -38.0252 -38.0200 -38.0170 -38.0158 -38.0130 -38.0101 -38.0085 -38.0051
   -37.9990 -37.9943 -37.9939 -37.9904 -37.9878 -37.9864 -37.9837 -37.9829
   -37.9791 -37.9761 -37.9552 -37.9528 -37.9487 -37.9454 -37.9354 -37.9257
   -37.9251 -37.9143 -37.9104 -37.9025 -37.8985 -37.8893 -37.8640 -37.8590
   -21.4926 -15.3538 -14.5529 -13.9727 -13.7985 -13.7825 -13.4884 -13.4585
   -13.3217 -12.9631 -12.7998 -12.7318 -12.6927 -12.6844 -12.6524 -12.5827
   -12.5518 -12.5388 -12.4915 -12.4747 -12.4535 -12.4328 -12.4217 -12.3135
   -12.2824 -12.2600 -12.2416 -12.2123 -12.1827 -12.1723 -12.1654 -12.1506
   -12.0936 -12.0779  -7.8858  -7.5415  -6.2745  -6.2640  -6.2324  -6.2279
    -6.1441  -5.6588  -5.6393  -5.6227  -5.5527  -5.5141  -5.4856  -5.4667
    -5.4225  -5.4122  -5.3898  -5.3172  -5.3130  -5.2824  -5.2656  -5.0683
    -5.0635  -5.0127  -4.9989  -4.9508  -4.7355  -4.7308  -4.5799  -4.4729
    -4.4443  -4.3804  -4.3177  -4.2803  -4.2025  -4.1569  -4.1419  -4.1158
    -4.0956  -4.0575  -4.0394  -3.9974  -3.9812  -3.9070  -3.9046  -3.8970
    -3.6531  -3.5650  -3.5346  -3.5010  -3.4621  -3.4370  -3.4330  -3.3795
    -3.3604  -3.3089  -3.2882  -3.2745  -3.2602  -3.2024  -3.1884  -3.1457
    -3.0723  -2.9804  -2.9367  -2.9209  -2.8415  -2.7732  -2.7551  -2.7408
    -2.7150  -2.7068  -2.6917  -2.6680  -2.6417  -2.6242  -2.5821  -2.5376
    -2.4974  -2.4931  -2.4628  -2.4266  -2.3468  -2.3008  -2.1847  -2.1562
    -2.1031  -2.0600  -2.0082  -1.9924  -1.9673  -1.9480  -1.9219  -1.9000
    -1.8807  -1.8513  -1.8395  -1.8098  -1.7759  -1.7510  -1.7355  -1.7231
    -1.7142  -1.6925  -1.6767  -1.6511  -1.6356  -1.5992  -1.5780  -1.5376
    -1.5224  -1.4878  -1.4760  -1.4473  -1.4281  -1.3637  -1.3310  -1.3182
    -1.2929  -1.2716  -1.2318  -1.2131  -1.1464  -1.0610  -1.0373  -1.0022
    -0.8867  -0.7729  -0.7548  -0.7383  -0.5627  -0.5587  -0.5413  -0.5277
    -0.5146  -0.5017  -0.4019  -0.3713  -0.3557  -0.2414  -0.1650  -0.1345
     0.2010   1.3079   1.7075

     occupation numbers 
     1.0000   1.0000   1.0000   1.0000   1.0000   1.0000   1.0000   1.0000
     1.0000   1.0000   1.0000   1.0000   1.0000   1.0000   1.0000   1.0000
     1.0000   1.0000   1.0000   1.0000   1.0000   1.0000   1.0000   1.0000
     1.0000   1.0000   1.0000   1.0000   1.0000   1.0000   1.0000   1.0000
     1.0000   1.0000   1.0000   1.0000   1.0000   1.0000   1.0000   1.0000
     1.0000   1.0000   1.0000   1.0000   1.0000   1.0000   1.0000   1.0000
     1.0000   1.0000   1.0000   1.0000   1.0000   1.0000   1.0000   1.0000
     1.0000   1.0000   1.0000   1.0000   1.0000   1.0000   1.0000   1.0000
     1.0000   1.0000   1.0000   1.0000   1.0000   1.0000   1.0000   1.0000
     1.0000   1.0000   1.0000   1.0000   1.0000   1.0000   1.0000   1.0000
     1.0000   1.0000   1.0000   1.0000   1.0000   1.0000   1.0000   1.0000
     1.0000   1.0000   1.0000   1.0000   1.0000   1.0000   1.0000   1.0000
     1.0000   1.0000   1.0000   1.0000   1.0000   1.0000   1.0000   1.0000
     1.0000   1.0000   1.0000   1.0000   1.0000   1.0000   1.0000   1.0000
     1.0000   1.0000   1.0000   1.0000   1.0000   1.0000   1.0000   1.0000
     1.0000   1.0000   1.0000   1.0000   1.0000   1.0000   1.0000   1.0000
     1.0000   1.0000   1.0000   1.0000   1.0000   1.0000   1.0000   1.0000
     1.0000   1.0000   1.0000   1.0000   1.0000   1.0000   1.0000   1.0000
     1.0000   1.0000   1.0000   1.0000   1.0000   1.0000   1.0000   1.0000
     1.0000   1.0000   1.0000   1.0000   1.0000   1.0000   1.0000   1.0000
     1.0000   1.0000   1.0000   1.0000   1.0000   1.0000   1.0000   1.0000
     1.0000   1.0000   1.0000   1.0000   1.0000   1.0000   1.0000   1.0000
     1.0000   1.0000   1.0000   1.0000   1.0000   1.0000   1.0000   1.0000
     1.0000   1.0000   1.0000   1.0000   1.0000   1.0000   1.0000   1.0000
     1.0000   1.0000   1.0000   1.0000   1.0000   1.0000   1.0000   1.0000
     1.0000   1.0000   1.0000   1.0000   1.0000   1.0000   1.0000   1.0000
     1.0000   1.0000   1.0000   1.0000   1.0000   1.0000   1.0000   1.0000
     1.0000   1.0000   1.0000   1.0000   1.0000   1.0000   1.0000   1.0000
     1.0000   1.0000   1.0000   1.0000   1.0000   1.0000   1.0000   1.0000
     1.0000   1.0000   1.0000   1.0000   1.0000   1.0000   1.0000   1.0000
     1.0000   1.0000   0.0000

          k = 0.0000 0.4619 0.0000 (112236 PWs)   bands (ev):

   -73.8134 -73.8094 -73.8068 -73.8042 -73.8025 -73.8009 -73.7980 -73.7957
   -73.7939 -73.7886 -73.7876 -73.7861 -73.7820 -73.7411 -73.7314 -73.7284
   -38.2005 -38.1962 -38.1846 -38.1775 -38.1725 -38.1580 -38.1544 -38.1384
   -38.1239 -38.1167 -38.0958 -38.0931 -38.0562 -38.0499 -38.0425 -38.0329
   -38.0268 -38.0155 -38.0099 -38.0070 -38.0027 -38.0014 -37.9983 -37.9972
   -37.9945 -37.9913 -37.9910 -37.9873 -37.9837 -37.9821 -37.9761 -37.9730
   -37.9667 -37.9603 -37.9583 -37.9503 -37.9448 -37.9410 -37.9386 -37.9333
   -37.9320 -37.9220 -37.9174 -37.9089 -37.8987 -37.8839 -37.8779 -37.8624
   -21.4926 -15.3538 -14.4311 -14.2298 -13.8680 -13.8505 -13.2591 -13.2273
   -13.0146 -12.9959 -12.9671 -12.9132 -12.8299 -12.7261 -12.7018 -12.6860
   -12.5171 -12.5096 -12.4579 -12.4471 -12.4336 -12.4228 -12.3797 -12.3660
   -12.3478 -12.2818 -12.2127 -12.1991 -12.1746 -12.1565 -12.1548 -12.1504
   -12.0544 -12.0370  -7.8858  -7.5415  -6.1576  -6.1167  -6.1045  -6.0851
    -6.0206  -5.8673  -5.8553  -5.8302  -5.7078  -5.5276  -5.4950  -5.4821
    -5.4549  -5.4421  -5.4331  -5.3872  -5.3698  -5.3204  -5.2970  -5.0635
    -5.0582  -5.0254  -5.0060  -4.8024  -4.6210  -4.5163  -4.4786  -4.4347
    -4.3901  -4.3704  -4.3444  -4.3066  -4.2401  -4.2253  -4.1875  -4.1558
    -4.1250  -4.1140  -4.0994  -4.0729  -4.0628  -4.0480  -4.0379  -3.6770
    -3.5640  -3.5027  -3.4714  -3.4367  -3.4118  -3.3827  -3.3619  -3.3060
    -3.2842  -3.2755  -3.2568  -3.2324  -3.2147  -3.1817  -3.1526  -3.1024
    -3.0580  -3.0448  -3.0011  -2.9495  -2.9313  -2.9044  -2.8415  -2.7563
    -2.7219  -2.6922  -2.6424  -2.6270  -2.5921  -2.5517  -2.5213  -2.4761
    -2.4385  -2.4245  -2.3880  -2.3101  -2.2723  -2.2461  -2.2371  -2.1687
    -2.1021  -2.0801  -2.0330  -2.0081  -2.0013  -1.9898  -1.9693  -1.9341
    -1.9173  -1.8964  -1.8738  -1.8634  -1.8487  -1.8365  -1.8270  -1.8210
    -1.7610  -1.7534  -1.7094  -1.7019  -1.6784  -1.6515  -1.6221  -1.6084
    -1.5804  -1.5466  -1.5154  -1.4855  -1.4177  -1.3800  -1.2959  -1.2781
    -1.2218  -1.1949  -1.1846  -1.1372  -1.1103  -1.0903  -1.0381  -0.9881
    -0.9648  -0.8830  -0.7271  -0.7122  -0.6346  -0.6147  -0.4774  -0.4496
    -0.4379  -0.4263  -0.3926  -0.3693  -0.2976  -0.0814   0.0071   0.0367
     0.1547   1.3166   1.7586

     occupation numbers 
     1.0000   1.0000   1.0000   1.0000   1.0000   1.0000   1.0000   1.0000
     1.0000   1.0000   1.0000   1.0000   1.0000   1.0000   1.0000   1.0000
     1.0000   1.0000   1.0000   1.0000   1.0000   1.0000   1.0000   1.0000
     1.0000   1.0000   1.0000   1.0000   1.0000   1.0000   1.0000   1.0000
     1.0000   1.0000   1.0000   1.0000   1.0000   1.0000   1.0000   1.0000
     1.0000   1.0000   1.0000   1.0000   1.0000   1.0000   1.0000   1.0000
     1.0000   1.0000   1.0000   1.0000   1.0000   1.0000   1.0000   1.0000
     1.0000   1.0000   1.0000   1.0000   1.0000   1.0000   1.0000   1.0000
     1.0000   1.0000   1.0000   1.0000   1.0000   1.0000   1.0000   1.0000
     1.0000   1.0000   1.0000   1.0000   1.0000   1.0000   1.0000   1.0000
     1.0000   1.0000   1.0000   1.0000   1.0000   1.0000   1.0000   1.0000
     1.0000   1.0000   1.0000   1.0000   1.0000   1.0000   1.0000   1.0000
     1.0000   1.0000   1.0000   1.0000   1.0000   1.0000   1.0000   1.0000
     1.0000   1.0000   1.0000   1.0000   1.0000   1.0000   1.0000   1.0000
     1.0000   1.0000   1.0000   1.0000   1.0000   1.0000   1.0000   1.0000
     1.0000   1.0000   1.0000   1.0000   1.0000   1.0000   1.0000   1.0000
     1.0000   1.0000   1.0000   1.0000   1.0000   1.0000   1.0000   1.0000
     1.0000   1.0000   1.0000   1.0000   1.0000   1.0000   1.0000   1.0000
     1.0000   1.0000   1.0000   1.0000   1.0000   1.0000   1.0000   1.0000
     1.0000   1.0000   1.0000   1.0000   1.0000   1.0000   1.0000   1.0000
     1.0000   1.0000   1.0000   1.0000   1.0000   1.0000   1.0000   1.0000
     1.0000   1.0000   1.0000   1.0000   1.0000   1.0000   1.0000   1.0000
     1.0000   1.0000   1.0000   1.0000   1.0000   1.0000   1.0000   1.0000
     1.0000   1.0000   1.0000   1.0000   1.0000   1.0000   1.0000   1.0000
     1.0000   1.0000   1.0000   1.0000   1.0000   1.0000   1.0000   1.0000
     1.0000   1.0000   1.0000   1.0000   1.0000   1.0000   1.0000   1.0000
     1.0000   1.0000   1.0000   1.0000   1.0000   1.0000   1.0000   1.0000
     1.0000   1.0000   1.0000   1.0000   1.0000   1.0000   1.0000   1.0000
     1.0000   1.0000   1.0000   1.0000   1.0000   1.0000   1.0000   1.0000
     1.0000   1.0000   1.0000   1.0000   1.0000   1.0000   1.0000   1.0000
     1.0000   1.0000   0.0000

          k = 0.2000 0.3464 0.0000 (112231 PWs)   bands (ev):

   -73.8134 -73.8095 -73.8065 -73.8043 -73.8023 -73.8009 -73.7983 -73.7958
   -73.7936 -73.7887 -73.7876 -73.7861 -73.7820 -73.7410 -73.7314 -73.7284
   -38.2047 -38.1956 -38.1949 -38.1722 -38.1670 -38.1580 -38.1481 -38.1409
   -38.1262 -38.1156 -38.1048 -38.0699 -38.0529 -38.0474 -38.0430 -38.0316
   -38.0268 -38.0221 -38.0168 -38.0141 -38.0106 -38.0051 -37.9984 -37.9968
   -37.9913 -37.9881 -37.9865 -37.9843 -37.9820 -37.9795 -37.9762 -37.9750
   -37.9695 -37.9655 -37.9571 -37.9517 -37.9490 -37.9462 -37.9374 -37.9330
   -37.9264 -37.9201 -37.9171 -37.9088 -37.8956 -37.8888 -37.8736 -37.8611
   -21.4926 -15.3538 -14.4710 -14.0980 -14.0567 -13.5626 -13.5606 -13.1685
   -13.1163 -13.0050 -12.9311 -12.8048 -12.7859 -12.7061 -12.6695 -12.6004
   -12.5909 -12.5737 -12.5686 -12.4535 -12.4219 -12.3875 -12.3734 -12.3096
   -12.2878 -12.2694 -12.2499 -12.2295 -12.2187 -12.1521 -12.1475 -12.1049
   -12.0937 -12.0335  -7.8858  -7.5415  -6.1734  -6.1646  -6.1342  -6.1175
    -6.1007  -5.7536  -5.7305  -5.7156  -5.6751  -5.6399  -5.5978  -5.5594
    -5.5007  -5.4690  -5.3503  -5.3278  -5.2799  -5.2705  -5.2384  -5.2216
    -5.0912  -4.8991  -4.8847  -4.8096  -4.7484  -4.5924  -4.4830  -4.4574
    -4.3904  -4.3610  -4.3333  -4.2978  -4.2723  -4.2590  -4.2288  -4.2210
    -4.1677  -4.1178  -4.1029  -4.0877  -4.0524  -3.7555  -3.7295  -3.7204
    -3.7127  -3.6874  -3.5945  -3.4895  -3.4213  -3.3898  -3.3442  -3.3141
    -3.2789  -3.2394  -3.2167  -3.1982  -3.1618  -3.1455  -3.0936  -3.0870
    -3.0323  -3.0001  -2.9646  -2.9433  -2.9353  -2.9176  -2.9028  -2.8902
    -2.7922  -2.7155  -2.6885  -2.6400  -2.6037  -2.5347  -2.5010  -2.4699
    -2.4527  -2.4245  -2.3799  -2.3533  -2.3038  -2.2081  -2.1708  -2.1531
    -2.1202  -2.1187  -2.0807  -2.0706  -1.9957  -1.9813  -1.9652  -1.9375
    -1.9161  -1.8923  -1.8685  -1.8442  -1.8289  -1.8146  -1.7863  -1.7382
    -1.7221  -1.7072  -1.6968  -1.6628  -1.6565  -1.6093  -1.5817  -1.5682
    -1.5597  -1.5333  -1.5211  -1.4941  -1.4138  -1.3819  -1.3681  -1.3554
    -1.2789  -1.2155  -1.1988  -1.1748  -1.1474  -1.1022  -1.0202  -0.9898
    -0.8675  -0.8361  -0.6740  -0.6644  -0.6302  -0.6210  -0.6076  -0.5327
    -0.5240  -0.4179  -0.3676  -0.2491  -0.2000  -0.1907  -0.1424   0.0806
     0.1663   1.3303   1.7288

     occupation numbers 
     1.0000   1.0000   1.0000   1.0000   1.0000   1.0000   1.0000   1.0000
     1.0000   1.0000   1.0000   1.0000   1.0000   1.0000   1.0000   1.0000
     1.0000   1.0000   1.0000   1.0000   1.0000   1.0000   1.0000   1.0000
     1.0000   1.0000   1.0000   1.0000   1.0000   1.0000   1.0000   1.0000
     1.0000   1.0000   1.0000   1.0000   1.0000   1.0000   1.0000   1.0000
     1.0000   1.0000   1.0000   1.0000   1.0000   1.0000   1.0000   1.0000
     1.0000   1.0000   1.0000   1.0000   1.0000   1.0000   1.0000   1.0000
     1.0000   1.0000   1.0000   1.0000   1.0000   1.0000   1.0000   1.0000
     1.0000   1.0000   1.0000   1.0000   1.0000   1.0000   1.0000   1.0000
     1.0000   1.0000   1.0000   1.0000   1.0000   1.0000   1.0000   1.0000
     1.0000   1.0000   1.0000   1.0000   1.0000   1.0000   1.0000   1.0000
     1.0000   1.0000   1.0000   1.0000   1.0000   1.0000   1.0000   1.0000
     1.0000   1.0000   1.0000   1.0000   1.0000   1.0000   1.0000   1.0000
     1.0000   1.0000   1.0000   1.0000   1.0000   1.0000   1.0000   1.0000
     1.0000   1.0000   1.0000   1.0000   1.0000   1.0000   1.0000   1.0000
     1.0000   1.0000   1.0000   1.0000   1.0000   1.0000   1.0000   1.0000
     1.0000   1.0000   1.0000   1.0000   1.0000   1.0000   1.0000   1.0000
     1.0000   1.0000   1.0000   1.0000   1.0000   1.0000   1.0000   1.0000
     1.0000   1.0000   1.0000   1.0000   1.0000   1.0000   1.0000   1.0000
     1.0000   1.0000   1.0000   1.0000   1.0000   1.0000   1.0000   1.0000
     1.0000   1.0000   1.0000   1.0000   1.0000   1.0000   1.0000   1.0000
     1.0000   1.0000   1.0000   1.0000   1.0000   1.0000   1.0000   1.0000
     1.0000   1.0000   1.0000   1.0000   1.0000   1.0000   1.0000   1.0000
     1.0000   1.0000   1.0000   1.0000   1.0000   1.0000   1.0000   1.0000
     1.0000   1.0000   1.0000   1.0000   1.0000   1.0000   1.0000   1.0000
     1.0000   1.0000   1.0000   1.0000   1.0000   1.0000   1.0000   1.0000
     1.0000   1.0000   1.0000   1.0000   1.0000   1.0000   1.0000   1.0000
     1.0000   1.0000   1.0000   1.0000   1.0000   1.0000   1.0000   1.0000
     1.0000   1.0000   1.0000   1.0000   1.0000   1.0000   1.0000   1.0000
     1.0000   1.0000   1.0000   1.0000   1.0000   1.0000   1.0000   1.0000
     1.0000   1.0000   0.0000

          k = 0.2000 0.5774 0.0000 (112237 PWs)   bands (ev):

   -73.8134 -73.8095 -73.8068 -73.8043 -73.8023 -73.8009 -73.7981 -73.7957
   -73.7938 -73.7887 -73.7876 -73.7861 -73.7820 -73.7410 -73.7314 -73.7284
   -38.1955 -38.1886 -38.1798 -38.1757 -38.1700 -38.1661 -38.1580 -38.1427
   -38.1387 -38.1226 -38.0853 -38.0840 -38.0761 -38.0446 -38.0408 -38.0343
   -38.0288 -38.0224 -38.0131 -38.0095 -38.0035 -37.9997 -37.9978 -37.9959
   -37.9948 -37.9929 -37.9882 -37.9841 -37.9816 -37.9760 -37.9688 -37.9648
   -37.9597 -37.9554 -37.9531 -37.9502 -37.9491 -37.9415 -37.9378 -37.9343
   -37.9310 -37.9241 -37.9200 -37.9159 -37.9041 -37.8865 -37.8742 -37.8657
   -21.4926 -15.3538 -14.3312 -14.2892 -14.1112 -13.5915 -13.2955 -13.2907
   -12.9473 -12.9440 -12.8849 -12.8496 -12.8373 -12.7994 -12.7899 -12.6546
   -12.6273 -12.5995 -12.4878 -12.4813 -12.3796 -12.3680 -12.3545 -12.3211
   -12.3066 -12.2947 -12.2553 -12.2309 -12.2298 -12.1278 -12.1177 -12.1154
   -12.0765 -12.0140  -7.8858  -7.5415  -6.1526  -6.0433  -5.9978  -5.9811
    -5.9145  -5.8895  -5.8701  -5.8435  -5.8047  -5.7395  -5.6812  -5.6179
    -5.6093  -5.5366  -5.3576  -5.2600  -5.2499  -5.2130  -5.1978  -5.1658
    -5.1496  -4.8504  -4.8266  -4.7431  -4.6266  -4.5706  -4.5409  -4.5138
    -4.4681  -4.4111  -4.3915  -4.3114  -4.3052  -4.2350  -4.2277  -4.2076
    -4.1814  -4.1606  -4.1183  -4.0919  -3.9487  -3.9453  -3.7836  -3.6561
    -3.6320  -3.5582  -3.4265  -3.3825  -3.3496  -3.3172  -3.2965  -3.2789
    -3.2642  -3.2547  -3.2369  -3.2273  -3.2100  -3.1942  -3.1350  -3.1155
    -3.0916  -3.0736  -3.0558  -3.0236  -2.9915  -2.9214  -2.8673  -2.8107
    -2.7282  -2.6966  -2.6782  -2.6552  -2.5987  -2.5369  -2.4920  -2.4406
    -2.3837  -2.3262  -2.3140  -2.2998  -2.2444  -2.1891  -2.1666  -2.1233
    -2.1074  -2.0925  -2.0674  -2.0462  -2.0059  -1.9724  -1.9533  -1.9424
    -1.9242  -1.9046  -1.8851  -1.8688  -1.8603  -1.8476  -1.8373  -1.8276
    -1.8101  -1.7708  -1.7509  -1.7252  -1.6939  -1.6714  -1.6576  -1.6352
    -1.6018  -1.5601  -1.5426  -1.4898  -1.4718  -1.4572  -1.3912  -1.3200
    -1.2654  -1.1845  -1.1507  -1.1332  -1.0851  -1.0722  -0.9972  -0.9719
    -0.8062  -0.7908  -0.6948  -0.6825  -0.6495  -0.6353  -0.5852  -0.5741
    -0.5562  -0.3909  -0.2712  -0.2619  -0.1796  -0.1167  -0.0562   0.1219
     0.1973   1.3385   1.7419

     occupation numbers 
     1.0000   1.0000   1.0000   1.0000   1.0000   1.0000   1.0000   1.0000
     1.0000   1.0000   1.0000   1.0000   1.0000   1.0000   1.0000   1.0000
     1.0000   1.0000   1.0000   1.0000   1.0000   1.0000   1.0000   1.0000
     1.0000   1.0000   1.0000   1.0000   1.0000   1.0000   1.0000   1.0000
     1.0000   1.0000   1.0000   1.0000   1.0000   1.0000   1.0000   1.0000
     1.0000   1.0000   1.0000   1.0000   1.0000   1.0000   1.0000   1.0000
     1.0000   1.0000   1.0000   1.0000   1.0000   1.0000   1.0000   1.0000
     1.0000   1.0000   1.0000   1.0000   1.0000   1.0000   1.0000   1.0000
     1.0000   1.0000   1.0000   1.0000   1.0000   1.0000   1.0000   1.0000
     1.0000   1.0000   1.0000   1.0000   1.0000   1.0000   1.0000   1.0000
     1.0000   1.0000   1.0000   1.0000   1.0000   1.0000   1.0000   1.0000
     1.0000   1.0000   1.0000   1.0000   1.0000   1.0000   1.0000   1.0000
     1.0000   1.0000   1.0000   1.0000   1.0000   1.0000   1.0000   1.0000
     1.0000   1.0000   1.0000   1.0000   1.0000   1.0000   1.0000   1.0000
     1.0000   1.0000   1.0000   1.0000   1.0000   1.0000   1.0000   1.0000
     1.0000   1.0000   1.0000   1.0000   1.0000   1.0000   1.0000   1.0000
     1.0000   1.0000   1.0000   1.0000   1.0000   1.0000   1.0000   1.0000
     1.0000   1.0000   1.0000   1.0000   1.0000   1.0000   1.0000   1.0000
     1.0000   1.0000   1.0000   1.0000   1.0000   1.0000   1.0000   1.0000
     1.0000   1.0000   1.0000   1.0000   1.0000   1.0000   1.0000   1.0000
     1.0000   1.0000   1.0000   1.0000   1.0000   1.0000   1.0000   1.0000
     1.0000   1.0000   1.0000   1.0000   1.0000   1.0000   1.0000   1.0000
     1.0000   1.0000   1.0000   1.0000   1.0000   1.0000   1.0000   1.0000
     1.0000   1.0000   1.0000   1.0000   1.0000   1.0000   1.0000   1.0000
     1.0000   1.0000   1.0000   1.0000   1.0000   1.0000   1.0000   1.0000
     1.0000   1.0000   1.0000   1.0000   1.0000   1.0000   1.0000   1.0000
     1.0000   1.0000   1.0000   1.0000   1.0000   1.0000   1.0000   1.0000
     1.0000   1.0000   1.0000   1.0000   1.0000   1.0000   1.0000   1.0000
     1.0000   1.0000   1.0000   1.0000   1.0000   1.0000   1.0000   1.0000
     1.0000   1.0000   1.0000   1.0000   1.0000   1.0000   1.0000   1.0000
     1.0000   1.0000   0.0000

          k =-0.2000 0.1155 0.0000 (112171 PWs)   bands (ev):

   -73.8136 -73.8093 -73.8063 -73.8044 -73.8020 -73.8014 -73.7981 -73.7958
   -73.7936 -73.7887 -73.7877 -73.7861 -73.7820 -73.7410 -73.7314 -73.7284
   -38.2106 -38.2103 -38.2056 -38.1618 -38.1585 -38.1559 -38.1503 -38.1388
   -38.1317 -38.0956 -38.0717 -38.0695 -38.0462 -38.0424 -38.0372 -38.0281
   -38.0220 -38.0202 -38.0193 -38.0179 -38.0113 -38.0096 -38.0083 -38.0049
   -37.9990 -37.9941 -37.9925 -37.9911 -37.9880 -37.9866 -37.9843 -37.9825
   -37.9790 -37.9761 -37.9551 -37.9521 -37.9494 -37.9454 -37.9354 -37.9274
   -37.9236 -37.9137 -37.9096 -37.9032 -37.8991 -37.8891 -37.8634 -37.8595
   -21.4926 -15.3538 -14.5529 -13.9719 -13.7976 -13.7852 -13.4752 -13.4705
   -13.3219 -12.9634 -12.7870 -12.7527 -12.6884 -12.6786 -12.6546 -12.5835
   -12.5613 -12.5179 -12.4935 -12.4759 -12.4654 -12.4301 -12.4208 -12.3043
   -12.2917 -12.2590 -12.2418 -12.2104 -12.1842 -12.1727 -12.1657 -12.1493
   -12.0929 -12.0787  -7.8858  -7.5415  -6.2785  -6.2580  -6.2376  -6.2245
    -6.1441  -5.6677  -5.6317  -5.6190  -5.5435  -5.5255  -5.4851  -5.4653
    -5.4323  -5.4135  -5.3796  -5.3238  -5.3079  -5.2777  -5.2724  -5.0756
    -5.0590  -5.0112  -4.9968  -4.9474  -4.7357  -4.7321  -4.5623  -4.5035
    -4.4394  -4.3663  -4.3348  -4.2727  -4.2008  -4.1570  -4.1421  -4.1187
    -4.0955  -4.0606  -4.0364  -3.9922  -3.9795  -3.9110  -3.9008  -3.8922
    -3.6476  -3.5801  -3.5280  -3.4957  -3.4706  -3.4543  -3.4400  -3.3700
    -3.3614  -3.3065  -3.2904  -3.2732  -3.2524  -3.2005  -3.1889  -3.1487
    -3.0734  -2.9674  -2.9441  -2.9109  -2.8129  -2.7872  -2.7636  -2.7380
    -2.7148  -2.7024  -2.6897  -2.6801  -2.6615  -2.6339  -2.5796  -2.5377
    -2.4921  -2.4749  -2.4604  -2.4247  -2.3537  -2.3001  -2.1775  -2.1644
    -2.1121  -2.0645  -2.0124  -1.9909  -1.9635  -1.9530  -1.9225  -1.8985
    -1.8731  -1.8536  -1.8299  -1.8096  -1.7897  -1.7613  -1.7318  -1.7181
    -1.7020  -1.6903  -1.6724  -1.6526  -1.6427  -1.5978  -1.5644  -1.5428
    -1.5134  -1.4943  -1.4877  -1.4301  -1.4218  -1.3575  -1.3424  -1.3215
    -1.3046  -1.2711  -1.2431  -1.2125  -1.1436  -1.0707  -1.0342  -0.9893
    -0.8929  -0.7681  -0.7503  -0.7303  -0.5771  -0.5619  -0.5411  -0.5264
    -0.5099  -0.5010  -0.4047  -0.3746  -0.3500  -0.2404  -0.1644  -0.1366
     0.1997   1.3301   1.6820

     occupation numbers 
     1.0000   1.0000   1.0000   1.0000   1.0000   1.0000   1.0000   1.0000
     1.0000   1.0000   1.0000   1.0000   1.0000   1.0000   1.0000   1.0000
     1.0000   1.0000   1.0000   1.0000   1.0000   1.0000   1.0000   1.0000
     1.0000   1.0000   1.0000   1.0000   1.0000   1.0000   1.0000   1.0000
     1.0000   1.0000   1.0000   1.0000   1.0000   1.0000   1.0000   1.0000
     1.0000   1.0000   1.0000   1.0000   1.0000   1.0000   1.0000   1.0000
     1.0000   1.0000   1.0000   1.0000   1.0000   1.0000   1.0000   1.0000
     1.0000   1.0000   1.0000   1.0000   1.0000   1.0000   1.0000   1.0000
     1.0000   1.0000   1.0000   1.0000   1.0000   1.0000   1.0000   1.0000
     1.0000   1.0000   1.0000   1.0000   1.0000   1.0000   1.0000   1.0000
     1.0000   1.0000   1.0000   1.0000   1.0000   1.0000   1.0000   1.0000
     1.0000   1.0000   1.0000   1.0000   1.0000   1.0000   1.0000   1.0000
     1.0000   1.0000   1.0000   1.0000   1.0000   1.0000   1.0000   1.0000
     1.0000   1.0000   1.0000   1.0000   1.0000   1.0000   1.0000   1.0000
     1.0000   1.0000   1.0000   1.0000   1.0000   1.0000   1.0000   1.0000
     1.0000   1.0000   1.0000   1.0000   1.0000   1.0000   1.0000   1.0000
     1.0000   1.0000   1.0000   1.0000   1.0000   1.0000   1.0000   1.0000
     1.0000   1.0000   1.0000   1.0000   1.0000   1.0000   1.0000   1.0000
     1.0000   1.0000   1.0000   1.0000   1.0000   1.0000   1.0000   1.0000
     1.0000   1.0000   1.0000   1.0000   1.0000   1.0000   1.0000   1.0000
     1.0000   1.0000   1.0000   1.0000   1.0000   1.0000   1.0000   1.0000
     1.0000   1.0000   1.0000   1.0000   1.0000   1.0000   1.0000   1.0000
     1.0000   1.0000   1.0000   1.0000   1.0000   1.0000   1.0000   1.0000
     1.0000   1.0000   1.0000   1.0000   1.0000   1.0000   1.0000   1.0000
     1.0000   1.0000   1.0000   1.0000   1.0000   1.0000   1.0000   1.0000
     1.0000   1.0000   1.0000   1.0000   1.0000   1.0000   1.0000   1.0000
     1.0000   1.0000   1.0000   1.0000   1.0000   1.0000   1.0000   1.0000
     1.0000   1.0000   1.0000   1.0000   1.0000   1.0000   1.0000   1.0000
     1.0000   1.0000   1.0000   1.0000   1.0000   1.0000   1.0000   1.0000
     1.0000   1.0000   1.0000   1.0000   1.0000   1.0000   1.0000   1.0000
     1.0000   1.0000   0.0000

          k = 0.2000 0.1155 0.0000 (112171 PWs)   bands (ev):

   -73.8136 -73.8094 -73.8063 -73.8044 -73.8021 -73.8012 -73.7983 -73.7958
   -73.7935 -73.7887 -73.7876 -73.7861 -73.7820 -73.7410 -73.7314 -73.7284
   -38.2112 -38.2090 -38.2062 -38.1631 -38.1580 -38.1551 -38.1495 -38.1389
   -38.1323 -38.0958 -38.0719 -38.0693 -38.0463 -38.0413 -38.0387 -38.0280
   -38.0226 -38.0203 -38.0186 -38.0170 -38.0122 -38.0094 -38.0075 -38.0050
   -37.9994 -37.9941 -37.9931 -37.9897 -37.9877 -37.9868 -37.9855 -37.9824
   -37.9790 -37.9760 -37.9542 -37.9532 -37.9495 -37.9450 -37.9354 -37.9275
   -37.9232 -37.9132 -37.9102 -37.9032 -37.8990 -37.8894 -37.8653 -37.8577
   -21.4926 -15.3538 -14.5529 -13.9720 -13.7969 -13.7857 -13.4741 -13.4724
   -13.3212 -12.9635 -12.7869 -12.7521 -12.6877 -12.6803 -12.6550 -12.5833
   -12.5624 -12.5166 -12.4912 -12.4778 -12.4653 -12.4321 -12.4199 -12.2999
   -12.2915 -12.2618 -12.2448 -12.2060 -12.1898 -12.1703 -12.1682 -12.1464
   -12.0902 -12.0812  -7.8858  -7.5415  -6.2726  -6.2604  -6.2409  -6.2251
    -6.1441  -5.6605  -5.6372  -5.6156  -5.5434  -5.5307  -5.4841  -5.4669
    -5.4367  -5.4185  -5.3666  -5.3232  -5.3107  -5.2781  -5.2710  -5.0729
    -5.0660  -5.0096  -5.0000  -4.9415  -4.7370  -4.7324  -4.5561  -4.5035
    -4.4342  -4.3871  -4.3342  -4.2672  -4.1997  -4.1578  -4.1443  -4.1192
    -4.0950  -4.0515  -4.0359  -3.9989  -3.9786  -3.9083  -3.9045  -3.8945
    -3.6399  -3.5616  -3.5427  -3.5015  -3.4618  -3.4522  -3.4348  -3.3771
    -3.3672  -3.3039  -3.2945  -3.2774  -3.2434  -3.2066  -3.1919  -3.1425
    -3.0817  -2.9809  -2.9341  -2.8998  -2.8099  -2.7893  -2.7680  -2.7398
    -2.7264  -2.7030  -2.6913  -2.6807  -2.6475  -2.6214  -2.5729  -2.5414
    -2.5160  -2.4818  -2.4625  -2.4128  -2.3502  -2.2930  -2.1882  -2.1626
    -2.1062  -2.0653  -2.0103  -1.9825  -1.9579  -1.9457  -1.9142  -1.9002
    -1.8926  -1.8662  -1.8281  -1.8100  -1.7953  -1.7649  -1.7328  -1.7264
    -1.7006  -1.6829  -1.6698  -1.6462  -1.6275  -1.6088  -1.5832  -1.5306
    -1.5248  -1.4960  -1.4474  -1.4373  -1.4180  -1.3928  -1.3447  -1.3049
    -1.3006  -1.2895  -1.2382  -1.1961  -1.1508  -1.0500  -1.0355  -1.0059
    -0.8902  -0.7585  -0.7490  -0.7442  -0.5879  -0.5529  -0.5408  -0.5258
    -0.5126  -0.5052  -0.4004  -0.3760  -0.3450  -0.2413  -0.1605  -0.1404
     0.2003   1.3249   1.6886

     occupation numbers 
     1.0000   1.0000   1.0000   1.0000   1.0000   1.0000   1.0000   1.0000
     1.0000   1.0000   1.0000   1.0000   1.0000   1.0000   1.0000   1.0000
     1.0000   1.0000   1.0000   1.0000   1.0000   1.0000   1.0000   1.0000
     1.0000   1.0000   1.0000   1.0000   1.0000   1.0000   1.0000   1.0000
     1.0000   1.0000   1.0000   1.0000   1.0000   1.0000   1.0000   1.0000
     1.0000   1.0000   1.0000   1.0000   1.0000   1.0000   1.0000   1.0000
     1.0000   1.0000   1.0000   1.0000   1.0000   1.0000   1.0000   1.0000
     1.0000   1.0000   1.0000   1.0000   1.0000   1.0000   1.0000   1.0000
     1.0000   1.0000   1.0000   1.0000   1.0000   1.0000   1.0000   1.0000
     1.0000   1.0000   1.0000   1.0000   1.0000   1.0000   1.0000   1.0000
     1.0000   1.0000   1.0000   1.0000   1.0000   1.0000   1.0000   1.0000
     1.0000   1.0000   1.0000   1.0000   1.0000   1.0000   1.0000   1.0000
     1.0000   1.0000   1.0000   1.0000   1.0000   1.0000   1.0000   1.0000
     1.0000   1.0000   1.0000   1.0000   1.0000   1.0000   1.0000   1.0000
     1.0000   1.0000   1.0000   1.0000   1.0000   1.0000   1.0000   1.0000
     1.0000   1.0000   1.0000   1.0000   1.0000   1.0000   1.0000   1.0000
     1.0000   1.0000   1.0000   1.0000   1.0000   1.0000   1.0000   1.0000
     1.0000   1.0000   1.0000   1.0000   1.0000   1.0000   1.0000   1.0000
     1.0000   1.0000   1.0000   1.0000   1.0000   1.0000   1.0000   1.0000
     1.0000   1.0000   1.0000   1.0000   1.0000   1.0000   1.0000   1.0000
     1.0000   1.0000   1.0000   1.0000   1.0000   1.0000   1.0000   1.0000
     1.0000   1.0000   1.0000   1.0000   1.0000   1.0000   1.0000   1.0000
     1.0000   1.0000   1.0000   1.0000   1.0000   1.0000   1.0000   1.0000
     1.0000   1.0000   1.0000   1.0000   1.0000   1.0000   1.0000   1.0000
     1.0000   1.0000   1.0000   1.0000   1.0000   1.0000   1.0000   1.0000
     1.0000   1.0000   1.0000   1.0000   1.0000   1.0000   1.0000   1.0000
     1.0000   1.0000   1.0000   1.0000   1.0000   1.0000   1.0000   1.0000
     1.0000   1.0000   1.0000   1.0000   1.0000   1.0000   1.0000   1.0000
     1.0000   1.0000   1.0000   1.0000   1.0000   1.0000   1.0000   1.0000
     1.0000   1.0000   1.0000   1.0000   1.0000   1.0000   1.0000   1.0000
     1.0000   1.0000   0.0000

          k =-0.4000 0.2309 0.0000 (112236 PWs)   bands (ev):

   -73.8134 -73.8095 -73.8065 -73.8045 -73.8018 -73.8014 -73.7981 -73.7958
   -73.7936 -73.7888 -73.7876 -73.7861 -73.7820 -73.7410 -73.7314 -73.7284
   -38.2000 -38.1974 -38.1840 -38.1788 -38.1721 -38.1565 -38.1544 -38.1383
   -38.1228 -38.1167 -38.0971 -38.0932 -38.0565 -38.0503 -38.0424 -38.0339
   -38.0236 -38.0196 -38.0070 -38.0066 -38.0048 -38.0029 -37.9989 -37.9959
   -37.9935 -37.9908 -37.9899 -37.9882 -37.9847 -37.9811 -37.9760 -37.9738
   -37.9670 -37.9597 -37.9570 -37.9508 -37.9445 -37.9417 -37.9391 -37.9359
   -37.9283 -37.9226 -37.9166 -37.9088 -37.8994 -37.8846 -37.8771 -37.8628
   -21.4926 -15.3538 -14.4314 -14.2290 -13.8649 -13.8547 -13.2449 -13.2397
   -13.0194 -12.9932 -12.9715 -12.9073 -12.8296 -12.7284 -12.7006 -12.6823
   -12.5299 -12.5038 -12.4579 -12.4498 -12.4277 -12.4223 -12.3833 -12.3605
   -12.3499 -12.2798 -12.2184 -12.1965 -12.1737 -12.1587 -12.1527 -12.1498
   -12.0540 -12.0379  -7.8858  -7.5415  -6.1571  -6.1232  -6.1013  -6.0837
    -6.0176  -5.8706  -5.8516  -5.8323  -5.7062  -5.5247  -5.5059  -5.4804
    -5.4494  -5.4417  -5.4337  -5.3849  -5.3756  -5.3125  -5.3049  -5.0751
    -5.0531  -5.0197  -5.0029  -4.7977  -4.5989  -4.5442  -4.4716  -4.4357
    -4.4079  -4.3679  -4.3480  -4.3042  -4.2404  -4.2170  -4.1916  -4.1564
    -4.1180  -4.1093  -4.0974  -4.0715  -4.0644  -4.0481  -4.0373  -3.6705
    -3.5616  -3.5142  -3.4688  -3.4498  -3.4197  -3.3902  -3.3519  -3.3126
    -3.2831  -3.2745  -3.2550  -3.2376  -3.2094  -3.1914  -3.1409  -3.1114
    -3.0625  -3.0317  -3.0056  -2.9444  -2.9254  -2.8936  -2.8189  -2.7588
    -2.7134  -2.6959  -2.6446  -2.6219  -2.5882  -2.5737  -2.5426  -2.4750
    -2.4228  -2.4171  -2.3873  -2.3254  -2.2742  -2.2462  -2.2378  -2.1603
    -2.1135  -2.0924  -2.0473  -2.0245  -2.0053  -1.9865  -1.9501  -1.9160
    -1.9026  -1.8896  -1.8794  -1.8615  -1.8530  -1.8451  -1.8337  -1.8150
    -1.7737  -1.7453  -1.7035  -1.6826  -1.6800  -1.6545  -1.6401  -1.6062
    -1.5798  -1.5477  -1.4914  -1.4622  -1.4412  -1.3472  -1.3188  -1.2898
    -1.2580  -1.2062  -1.1677  -1.1221  -1.1113  -1.0914  -1.0653  -0.9792
    -0.9517  -0.8691  -0.7274  -0.7111  -0.6331  -0.6159  -0.4955  -0.4478
    -0.4403  -0.4184  -0.3976  -0.3673  -0.2851  -0.0914   0.0082   0.0393
     0.1501   1.3765   1.6895

     occupation numbers 
     1.0000   1.0000   1.0000   1.0000   1.0000   1.0000   1.0000   1.0000
     1.0000   1.0000   1.0000   1.0000   1.0000   1.0000   1.0000   1.0000
     1.0000   1.0000   1.0000   1.0000   1.0000   1.0000   1.0000   1.0000
     1.0000   1.0000   1.0000   1.0000   1.0000   1.0000   1.0000   1.0000
     1.0000   1.0000   1.0000   1.0000   1.0000   1.0000   1.0000   1.0000
     1.0000   1.0000   1.0000   1.0000   1.0000   1.0000   1.0000   1.0000
     1.0000   1.0000   1.0000   1.0000   1.0000   1.0000   1.0000   1.0000
     1.0000   1.0000   1.0000   1.0000   1.0000   1.0000   1.0000   1.0000
     1.0000   1.0000   1.0000   1.0000   1.0000   1.0000   1.0000   1.0000
     1.0000   1.0000   1.0000   1.0000   1.0000   1.0000   1.0000   1.0000
     1.0000   1.0000   1.0000   1.0000   1.0000   1.0000   1.0000   1.0000
     1.0000   1.0000   1.0000   1.0000   1.0000   1.0000   1.0000   1.0000
     1.0000   1.0000   1.0000   1.0000   1.0000   1.0000   1.0000   1.0000
     1.0000   1.0000   1.0000   1.0000   1.0000   1.0000   1.0000   1.0000
     1.0000   1.0000   1.0000   1.0000   1.0000   1.0000   1.0000   1.0000
     1.0000   1.0000   1.0000   1.0000   1.0000   1.0000   1.0000   1.0000
     1.0000   1.0000   1.0000   1.0000   1.0000   1.0000   1.0000   1.0000
     1.0000   1.0000   1.0000   1.0000   1.0000   1.0000   1.0000   1.0000
     1.0000   1.0000   1.0000   1.0000   1.0000   1.0000   1.0000   1.0000
     1.0000   1.0000   1.0000   1.0000   1.0000   1.0000   1.0000   1.0000
     1.0000   1.0000   1.0000   1.0000   1.0000   1.0000   1.0000   1.0000
     1.0000   1.0000   1.0000   1.0000   1.0000   1.0000   1.0000   1.0000
     1.0000   1.0000   1.0000   1.0000   1.0000   1.0000   1.0000   1.0000
     1.0000   1.0000   1.0000   1.0000   1.0000   1.0000   1.0000   1.0000
     1.0000   1.0000   1.0000   1.0000   1.0000   1.0000   1.0000   1.0000
     1.0000   1.0000   1.0000   1.0000   1.0000   1.0000   1.0000   1.0000
     1.0000   1.0000   1.0000   1.0000   1.0000   1.0000   1.0000   1.0000
     1.0000   1.0000   1.0000   1.0000   1.0000   1.0000   1.0000   1.0000
     1.0000   1.0000   1.0000   1.0000   1.0000   1.0000   1.0000   1.0000
     1.0000   1.0000   1.0000   1.0000   1.0000   1.0000   1.0000   1.0000
     1.0000   1.0000   0.0000

          k = 0.4000 0.2309 0.0000 (112236 PWs)   bands (ev):

   -73.8134 -73.8097 -73.8064 -73.8045 -73.8019 -73.8010 -73.7985 -73.7959
   -73.7934 -73.7888 -73.7875 -73.7862 -73.7820 -73.7410 -73.7314 -73.7284
   -38.1987 -38.1982 -38.1845 -38.1802 -38.1705 -38.1558 -38.1547 -38.1390
   -38.1222 -38.1166 -38.0981 -38.0934 -38.0550 -38.0516 -38.0423 -38.0341
   -38.0241 -38.0179 -38.0074 -38.0065 -38.0054 -38.0030 -37.9990 -37.9964
   -37.9917 -37.9912 -37.9894 -37.9872 -37.9858 -37.9814 -37.9760 -37.9735
   -37.9686 -37.9591 -37.9572 -37.9504 -37.9434 -37.9418 -37.9394 -37.9349
   -37.9271 -37.9235 -37.9175 -37.9098 -37.8975 -37.8856 -37.8805 -37.8602
   -21.4926 -15.3538 -14.4313 -14.2292 -13.8644 -13.8552 -13.2446 -13.2409
   -13.0163 -12.9928 -12.9736 -12.9065 -12.8303 -12.7261 -12.7025 -12.6831
   -12.5375 -12.4960 -12.4621 -12.4472 -12.4267 -12.4222 -12.3839 -12.3590
   -12.3476 -12.2797 -12.2255 -12.1944 -12.1754 -12.1577 -12.1529 -12.1472
   -12.0511 -12.0404  -7.8858  -7.5415  -6.1567  -6.1142  -6.1047  -6.0823
    -6.0303  -5.8634  -5.8516  -5.8291  -5.7108  -5.5264  -5.5050  -5.4832
    -5.4446  -5.4434  -5.4355  -5.3846  -5.3774  -5.3101  -5.3037  -5.0678
    -5.0644  -5.0181  -5.0072  -4.7707  -4.6083  -4.5528  -4.4780  -4.4457
    -4.4141  -4.3671  -4.3442  -4.3005  -4.2347  -4.2213  -4.1873  -4.1536
    -4.1214  -4.1117  -4.0984  -4.0729  -4.0598  -4.0459  -4.0385  -3.6572
    -3.5560  -3.5153  -3.4577  -3.4439  -3.4235  -3.3939  -3.3541  -3.3207
    -3.2864  -3.2700  -3.2491  -3.2314  -3.2141  -3.1984  -3.1306  -3.1123
    -3.0713  -3.0521  -3.0122  -2.9452  -2.9235  -2.8979  -2.8271  -2.7592
    -2.7110  -2.6783  -2.6340  -2.6113  -2.6079  -2.5920  -2.5013  -2.4851
    -2.4485  -2.4242  -2.3657  -2.3249  -2.2682  -2.2528  -2.2376  -2.1410
    -2.1103  -2.0986  -2.0324  -2.0047  -1.9959  -1.9772  -1.9675  -1.9517
    -1.9253  -1.8948  -1.8804  -1.8597  -1.8467  -1.8413  -1.8329  -1.8103
    -1.7931  -1.7342  -1.7153  -1.6931  -1.6837  -1.6328  -1.6206  -1.6140
    -1.5907  -1.5437  -1.5011  -1.4883  -1.4066  -1.3550  -1.3023  -1.2833
    -1.2458  -1.2269  -1.1852  -1.1298  -1.1129  -1.0543  -1.0387  -0.9886
    -0.9652  -0.8766  -0.7236  -0.7175  -0.6326  -0.6222  -0.5033  -0.4514
    -0.4425  -0.4158  -0.4000  -0.3560  -0.2795  -0.0922   0.0102   0.0355
     0.1526   1.3604   1.7100

     occupation numbers 
     1.0000   1.0000   1.0000   1.0000   1.0000   1.0000   1.0000   1.0000
     1.0000   1.0000   1.0000   1.0000   1.0000   1.0000   1.0000   1.0000
     1.0000   1.0000   1.0000   1.0000   1.0000   1.0000   1.0000   1.0000
     1.0000   1.0000   1.0000   1.0000   1.0000   1.0000   1.0000   1.0000
     1.0000   1.0000   1.0000   1.0000   1.0000   1.0000   1.0000   1.0000
     1.0000   1.0000   1.0000   1.0000   1.0000   1.0000   1.0000   1.0000
     1.0000   1.0000   1.0000   1.0000   1.0000   1.0000   1.0000   1.0000
     1.0000   1.0000   1.0000   1.0000   1.0000   1.0000   1.0000   1.0000
     1.0000   1.0000   1.0000   1.0000   1.0000   1.0000   1.0000   1.0000
     1.0000   1.0000   1.0000   1.0000   1.0000   1.0000   1.0000   1.0000
     1.0000   1.0000   1.0000   1.0000   1.0000   1.0000   1.0000   1.0000
     1.0000   1.0000   1.0000   1.0000   1.0000   1.0000   1.0000   1.0000
     1.0000   1.0000   1.0000   1.0000   1.0000   1.0000   1.0000   1.0000
     1.0000   1.0000   1.0000   1.0000   1.0000   1.0000   1.0000   1.0000
     1.0000   1.0000   1.0000   1.0000   1.0000   1.0000   1.0000   1.0000
     1.0000   1.0000   1.0000   1.0000   1.0000   1.0000   1.0000   1.0000
     1.0000   1.0000   1.0000   1.0000   1.0000   1.0000   1.0000   1.0000
     1.0000   1.0000   1.0000   1.0000   1.0000   1.0000   1.0000   1.0000
     1.0000   1.0000   1.0000   1.0000   1.0000   1.0000   1.0000   1.0000
     1.0000   1.0000   1.0000   1.0000   1.0000   1.0000   1.0000   1.0000
     1.0000   1.0000   1.0000   1.0000   1.0000   1.0000   1.0000   1.0000
     1.0000   1.0000   1.0000   1.0000   1.0000   1.0000   1.0000   1.0000
     1.0000   1.0000   1.0000   1.0000   1.0000   1.0000   1.0000   1.0000
     1.0000   1.0000   1.0000   1.0000   1.0000   1.0000   1.0000   1.0000
     1.0000   1.0000   1.0000   1.0000   1.0000   1.0000   1.0000   1.0000
     1.0000   1.0000   1.0000   1.0000   1.0000   1.0000   1.0000   1.0000
     1.0000   1.0000   1.0000   1.0000   1.0000   1.0000   1.0000   1.0000
     1.0000   1.0000   1.0000   1.0000   1.0000   1.0000   1.0000   1.0000
     1.0000   1.0000   1.0000   1.0000   1.0000   1.0000   1.0000   1.0000
     1.0000   1.0000   1.0000   1.0000   1.0000   1.0000   1.0000   1.0000
     1.0000   1.0000   0.0000

          k =-0.2000 0.3464 0.0000 (112231 PWs)   bands (ev):

   -73.8135 -73.8094 -73.8066 -73.8043 -73.8022 -73.8011 -73.7980 -73.7957
   -73.7938 -73.7887 -73.7877 -73.7861 -73.7820 -73.7410 -73.7314 -73.7284
   -38.2050 -38.1964 -38.1939 -38.1718 -38.1667 -38.1586 -38.1482 -38.1415
   -38.1257 -38.1175 -38.1021 -38.0693 -38.0542 -38.0478 -38.0433 -38.0312
   -38.0269 -38.0218 -38.0165 -38.0153 -38.0103 -38.0042 -37.9985 -37.9961
   -37.9928 -37.9883 -37.9865 -37.9840 -37.9823 -37.9781 -37.9761 -37.9750
   -37.9690 -37.9671 -37.9570 -37.9516 -37.9487 -37.9464 -37.9369 -37.9337
   -37.9264 -37.9198 -37.9167 -37.9111 -37.8942 -37.8877 -37.8722 -37.8630
   -21.4926 -15.3538 -14.4711 -14.0974 -14.0573 -13.5697 -13.5530 -13.1695
   -13.1166 -13.0050 -12.9309 -12.8038 -12.7870 -12.7018 -12.6702 -12.6149
   -12.5811 -12.5740 -12.5659 -12.4511 -12.4231 -12.3897 -12.3760 -12.3069
   -12.2892 -12.2707 -12.2484 -12.2241 -12.2208 -12.1538 -12.1471 -12.1057
   -12.0937 -12.0332  -7.8858  -7.5415  -6.1837  -6.1617  -6.1290  -6.1161
    -6.0978  -5.7572  -5.7297  -5.7120  -5.6933  -5.6225  -5.5981  -5.5565
    -5.5028  -5.4718  -5.3511  -5.3253  -5.2947  -5.2613  -5.2369  -5.2147
    -5.0931  -4.9082  -4.8893  -4.7907  -4.7529  -4.5971  -4.5039  -4.4379
    -4.3902  -4.3394  -4.3295  -4.3037  -4.2770  -4.2552  -4.2400  -4.2212
    -4.1594  -4.1250  -4.1066  -4.0897  -4.0504  -3.7642  -3.7337  -3.7228
    -3.7033  -3.6858  -3.5955  -3.4991  -3.4136  -3.3753  -3.3641  -3.2997
    -3.2784  -3.2354  -3.2227  -3.1967  -3.1590  -3.1432  -3.1103  -3.0785
    -3.0516  -3.0008  -2.9554  -2.9379  -2.9229  -2.9181  -2.9075  -2.8936
    -2.7744  -2.7150  -2.6856  -2.6640  -2.5964  -2.5411  -2.5110  -2.4670
    -2.4508  -2.3990  -2.3794  -2.3545  -2.3115  -2.2069  -2.1890  -2.1449
    -2.1233  -2.1160  -2.0974  -2.0652  -2.0216  -1.9765  -1.9643  -1.9275
    -1.9017  -1.8894  -1.8579  -1.8417  -1.8155  -1.8087  -1.7859  -1.7617
    -1.7315  -1.6998  -1.6868  -1.6664  -1.6401  -1.6240  -1.5785  -1.5762
    -1.5540  -1.5427  -1.5177  -1.4924  -1.4249  -1.3882  -1.3772  -1.3373
    -1.2737  -1.2377  -1.1867  -1.1672  -1.1493  -1.1049  -1.0357  -0.9764
    -0.8702  -0.8263  -0.6810  -0.6644  -0.6281  -0.6179  -0.6026  -0.5330
    -0.5289  -0.4076  -0.3774  -0.2512  -0.1983  -0.1898  -0.1440   0.0812
     0.1648   1.3382   1.7186

     occupation numbers 
     1.0000   1.0000   1.0000   1.0000   1.0000   1.0000   1.0000   1.0000
     1.0000   1.0000   1.0000   1.0000   1.0000   1.0000   1.0000   1.0000
     1.0000   1.0000   1.0000   1.0000   1.0000   1.0000   1.0000   1.0000
     1.0000   1.0000   1.0000   1.0000   1.0000   1.0000   1.0000   1.0000
     1.0000   1.0000   1.0000   1.0000   1.0000   1.0000   1.0000   1.0000
     1.0000   1.0000   1.0000   1.0000   1.0000   1.0000   1.0000   1.0000
     1.0000   1.0000   1.0000   1.0000   1.0000   1.0000   1.0000   1.0000
     1.0000   1.0000   1.0000   1.0000   1.0000   1.0000   1.0000   1.0000
     1.0000   1.0000   1.0000   1.0000   1.0000   1.0000   1.0000   1.0000
     1.0000   1.0000   1.0000   1.0000   1.0000   1.0000   1.0000   1.0000
     1.0000   1.0000   1.0000   1.0000   1.0000   1.0000   1.0000   1.0000
     1.0000   1.0000   1.0000   1.0000   1.0000   1.0000   1.0000   1.0000
     1.0000   1.0000   1.0000   1.0000   1.0000   1.0000   1.0000   1.0000
     1.0000   1.0000   1.0000   1.0000   1.0000   1.0000   1.0000   1.0000
     1.0000   1.0000   1.0000   1.0000   1.0000   1.0000   1.0000   1.0000
     1.0000   1.0000   1.0000   1.0000   1.0000   1.0000   1.0000   1.0000
     1.0000   1.0000   1.0000   1.0000   1.0000   1.0000   1.0000   1.0000
     1.0000   1.0000   1.0000   1.0000   1.0000   1.0000   1.0000   1.0000
     1.0000   1.0000   1.0000   1.0000   1.0000   1.0000   1.0000   1.0000
     1.0000   1.0000   1.0000   1.0000   1.0000   1.0000   1.0000   1.0000
     1.0000   1.0000   1.0000   1.0000   1.0000   1.0000   1.0000   1.0000
     1.0000   1.0000   1.0000   1.0000   1.0000   1.0000   1.0000   1.0000
     1.0000   1.0000   1.0000   1.0000   1.0000   1.0000   1.0000   1.0000
     1.0000   1.0000   1.0000   1.0000   1.0000   1.0000   1.0000   1.0000
     1.0000   1.0000   1.0000   1.0000   1.0000   1.0000   1.0000   1.0000
     1.0000   1.0000   1.0000   1.0000   1.0000   1.0000   1.0000   1.0000
     1.0000   1.0000   1.0000   1.0000   1.0000   1.0000   1.0000   1.0000
     1.0000   1.0000   1.0000   1.0000   1.0000   1.0000   1.0000   1.0000
     1.0000   1.0000   1.0000   1.0000   1.0000   1.0000   1.0000   1.0000
     1.0000   1.0000   1.0000   1.0000   1.0000   1.0000   1.0000   1.0000
     1.0000   1.0000   0.0000

          k = 0.4000-0.0000 0.0000 (112231 PWs)   bands (ev):

   -73.8134 -73.8096 -73.8064 -73.8045 -73.8018 -73.8013 -73.7983 -73.7958
   -73.7935 -73.7888 -73.7876 -73.7861 -73.7820 -73.7410 -73.7314 -73.7284
   -38.2051 -38.1961 -38.1943 -38.1716 -38.1678 -38.1584 -38.1480 -38.1405
   -38.1244 -38.1160 -38.1055 -38.0702 -38.0531 -38.0475 -38.0431 -38.0321
   -38.0256 -38.0223 -38.0173 -38.0153 -38.0102 -38.0052 -37.9988 -37.9945
   -37.9922 -37.9886 -37.9862 -37.9847 -37.9818 -37.9791 -37.9760 -37.9751
   -37.9685 -37.9653 -37.9576 -37.9521 -37.9496 -37.9455 -37.9369 -37.9351
   -37.9246 -37.9198 -37.9167 -37.9096 -37.8956 -37.8891 -37.8731 -37.8614
   -21.4926 -15.3538 -14.4711 -14.0952 -14.0595 -13.5633 -13.5601 -13.1656
   -13.1188 -13.0087 -12.9254 -12.8009 -12.7899 -12.7059 -12.6778 -12.5993
   -12.5955 -12.5714 -12.5569 -12.4534 -12.4195 -12.4082 -12.3614 -12.3051
   -12.2896 -12.2675 -12.2506 -12.2328 -12.2179 -12.1546 -12.1443 -12.1042
   -12.0946 -12.0336  -7.8858  -7.5415  -6.1744  -6.1667  -6.1330  -6.1121
    -6.1037  -5.7498  -5.7349  -5.7161  -5.6810  -5.6298  -5.6036  -5.5552
    -5.5006  -5.4692  -5.3474  -5.3306  -5.2859  -5.2672  -5.2391  -5.2237
    -5.0924  -4.8955  -4.8826  -4.8042  -4.7522  -4.5604  -4.5277  -4.4529
    -4.4027  -4.3414  -4.3335  -4.3068  -4.2718  -4.2598  -4.2376  -4.2046
    -4.1707  -4.1136  -4.1054  -4.0860  -4.0499  -3.7546  -3.7283  -3.7217
    -3.7017  -3.6924  -3.6064  -3.4776  -3.4228  -3.3910  -3.3646  -3.3105
    -3.2748  -3.2392  -3.2268  -3.1964  -3.1683  -3.1382  -3.1181  -3.0745
    -3.0316  -2.9845  -2.9616  -2.9430  -2.9346  -2.9115  -2.8968  -2.8879
    -2.7621  -2.7314  -2.6881  -2.6377  -2.6092  -2.5620  -2.5241  -2.4607
    -2.4534  -2.4091  -2.3780  -2.3344  -2.3106  -2.2136  -2.1731  -2.1444
    -2.1212  -2.1168  -2.0949  -2.0829  -1.9940  -1.9770  -1.9637  -1.9308
    -1.9154  -1.8900  -1.8674  -1.8541  -1.8371  -1.8123  -1.7752  -1.7537
    -1.7237  -1.6994  -1.6804  -1.6644  -1.6434  -1.6164  -1.5859  -1.5663
    -1.5470  -1.5378  -1.5181  -1.4903  -1.4396  -1.4017  -1.3574  -1.3291
    -1.2763  -1.2517  -1.1926  -1.1706  -1.1435  -1.0946  -1.0363  -0.9756
    -0.8599  -0.8405  -0.6755  -0.6668  -0.6281  -0.6144  -0.6065  -0.5323
    -0.5278  -0.4258  -0.3708  -0.2440  -0.1992  -0.1851  -0.1470   0.0788
     0.1644   1.3685   1.6859

     occupation numbers 
     1.0000   1.0000   1.0000   1.0000   1.0000   1.0000   1.0000   1.0000
     1.0000   1.0000   1.0000   1.0000   1.0000   1.0000   1.0000   1.0000
     1.0000   1.0000   1.0000   1.0000   1.0000   1.0000   1.0000   1.0000
     1.0000   1.0000   1.0000   1.0000   1.0000   1.0000   1.0000   1.0000
     1.0000   1.0000   1.0000   1.0000   1.0000   1.0000   1.0000   1.0000
     1.0000   1.0000   1.0000   1.0000   1.0000   1.0000   1.0000   1.0000
     1.0000   1.0000   1.0000   1.0000   1.0000   1.0000   1.0000   1.0000
     1.0000   1.0000   1.0000   1.0000   1.0000   1.0000   1.0000   1.0000
     1.0000   1.0000   1.0000   1.0000   1.0000   1.0000   1.0000   1.0000
     1.0000   1.0000   1.0000   1.0000   1.0000   1.0000   1.0000   1.0000
     1.0000   1.0000   1.0000   1.0000   1.0000   1.0000   1.0000   1.0000
     1.0000   1.0000   1.0000   1.0000   1.0000   1.0000   1.0000   1.0000
     1.0000   1.0000   1.0000   1.0000   1.0000   1.0000   1.0000   1.0000
     1.0000   1.0000   1.0000   1.0000   1.0000   1.0000   1.0000   1.0000
     1.0000   1.0000   1.0000   1.0000   1.0000   1.0000   1.0000   1.0000
     1.0000   1.0000   1.0000   1.0000   1.0000   1.0000   1.0000   1.0000
     1.0000   1.0000   1.0000   1.0000   1.0000   1.0000   1.0000   1.0000
     1.0000   1.0000   1.0000   1.0000   1.0000   1.0000   1.0000   1.0000
     1.0000   1.0000   1.0000   1.0000   1.0000   1.0000   1.0000   1.0000
     1.0000   1.0000   1.0000   1.0000   1.0000   1.0000   1.0000   1.0000
     1.0000   1.0000   1.0000   1.0000   1.0000   1.0000   1.0000   1.0000
     1.0000   1.0000   1.0000   1.0000   1.0000   1.0000   1.0000   1.0000
     1.0000   1.0000   1.0000   1.0000   1.0000   1.0000   1.0000   1.0000
     1.0000   1.0000   1.0000   1.0000   1.0000   1.0000   1.0000   1.0000
     1.0000   1.0000   1.0000   1.0000   1.0000   1.0000   1.0000   1.0000
     1.0000   1.0000   1.0000   1.0000   1.0000   1.0000   1.0000   1.0000
     1.0000   1.0000   1.0000   1.0000   1.0000   1.0000   1.0000   1.0000
     1.0000   1.0000   1.0000   1.0000   1.0000   1.0000   1.0000   1.0000
     1.0000   1.0000   1.0000   1.0000   1.0000   1.0000   1.0000   1.0000
     1.0000   1.0000   1.0000   1.0000   1.0000   1.0000   1.0000   1.0000
     1.0000   1.0000   0.0000

          k =-0.4000 0.4619 0.0000 (112237 PWs)   bands (ev):

   -73.8133 -73.8096 -73.8066 -73.8044 -73.8019 -73.8012 -73.7981 -73.7958
   -73.7936 -73.7888 -73.7876 -73.7861 -73.7820 -73.7410 -73.7314 -73.7284
   -38.1954 -38.1893 -38.1795 -38.1770 -38.1693 -38.1654 -38.1574 -38.1425
   -38.1387 -38.1225 -38.0862 -38.0830 -38.0771 -38.0441 -38.0406 -38.0349
   -38.0277 -38.0239 -38.0153 -38.0071 -38.0045 -37.9997 -37.9976 -37.9955
   -37.9936 -37.9925 -37.9891 -37.9846 -37.9813 -37.9760 -37.9687 -37.9654
   -37.9598 -37.9550 -37.9522 -37.9505 -37.9489 -37.9422 -37.9376 -37.9358
   -37.9301 -37.9235 -37.9191 -37.9157 -37.9050 -37.8865 -37.8739 -37.8660
   -21.4926 -15.3538 -14.3330 -14.2868 -14.1118 -13.5922 -13.2936 -13.2907
   -12.9548 -12.9444 -12.8818 -12.8533 -12.8240 -12.7985 -12.7932 -12.6603
   -12.6312 -12.5927 -12.4900 -12.4803 -12.3837 -12.3713 -12.3436 -12.3222
   -12.3074 -12.2955 -12.2576 -12.2321 -12.2269 -12.1306 -12.1176 -12.1120
   -12.0774 -12.0142  -7.8858  -7.5415  -6.1524  -6.0443  -6.0113  -5.9646
    -5.9094  -5.8854  -5.8721  -5.8536  -5.8046  -5.7401  -5.6812  -5.6204
    -5.6050  -5.5371  -5.3532  -5.2776  -5.2421  -5.2116  -5.1959  -5.1635
    -5.1522  -4.8479  -4.8273  -4.7368  -4.6155  -4.5797  -4.5379  -4.5170
    -4.4839  -4.4186  -4.3767  -4.3188  -4.3015  -4.2372  -4.2224  -4.2028
    -4.1882  -4.1586  -4.1168  -4.0901  -3.9510  -3.9431  -3.7836  -3.6608
    -3.6074  -3.5821  -3.4210  -3.3847  -3.3494  -3.3168  -3.2973  -3.2739
    -3.2683  -3.2602  -3.2364  -3.2251  -3.2149  -3.2068  -3.1390  -3.1154
    -3.0899  -3.0730  -3.0529  -3.0344  -2.9801  -2.9176  -2.8363  -2.7951
    -2.7287  -2.7008  -2.6841  -2.6603  -2.6036  -2.5751  -2.4835  -2.4030
    -2.3875  -2.3192  -2.3151  -2.3085  -2.2581  -2.1790  -2.1647  -2.1477
    -2.1274  -2.0822  -2.0674  -2.0389  -2.0166  -1.9633  -1.9499  -1.9340
    -1.9213  -1.9076  -1.8842  -1.8702  -1.8569  -1.8461  -1.8391  -1.8316
    -1.8047  -1.7806  -1.7444  -1.7157  -1.6900  -1.6765  -1.6539  -1.6379
    -1.6119  -1.5705  -1.5179  -1.4930  -1.4731  -1.4511  -1.4015  -1.3000
    -1.2650  -1.2250  -1.1574  -1.1082  -1.0852  -1.0636  -1.0318  -0.9486
    -0.8077  -0.7798  -0.6937  -0.6830  -0.6491  -0.6361  -0.5929  -0.5735
    -0.5569  -0.3910  -0.2712  -0.2664  -0.1680  -0.1119  -0.0692   0.1226
     0.1957   1.3762   1.7002

     occupation numbers 
     1.0000   1.0000   1.0000   1.0000   1.0000   1.0000   1.0000   1.0000
     1.0000   1.0000   1.0000   1.0000   1.0000   1.0000   1.0000   1.0000
     1.0000   1.0000   1.0000   1.0000   1.0000   1.0000   1.0000   1.0000
     1.0000   1.0000   1.0000   1.0000   1.0000   1.0000   1.0000   1.0000
     1.0000   1.0000   1.0000   1.0000   1.0000   1.0000   1.0000   1.0000
     1.0000   1.0000   1.0000   1.0000   1.0000   1.0000   1.0000   1.0000
     1.0000   1.0000   1.0000   1.0000   1.0000   1.0000   1.0000   1.0000
     1.0000   1.0000   1.0000   1.0000   1.0000   1.0000   1.0000   1.0000
     1.0000   1.0000   1.0000   1.0000   1.0000   1.0000   1.0000   1.0000
     1.0000   1.0000   1.0000   1.0000   1.0000   1.0000   1.0000   1.0000
     1.0000   1.0000   1.0000   1.0000   1.0000   1.0000   1.0000   1.0000
     1.0000   1.0000   1.0000   1.0000   1.0000   1.0000   1.0000   1.0000
     1.0000   1.0000   1.0000   1.0000   1.0000   1.0000   1.0000   1.0000
     1.0000   1.0000   1.0000   1.0000   1.0000   1.0000   1.0000   1.0000
     1.0000   1.0000   1.0000   1.0000   1.0000   1.0000   1.0000   1.0000
     1.0000   1.0000   1.0000   1.0000   1.0000   1.0000   1.0000   1.0000
     1.0000   1.0000   1.0000   1.0000   1.0000   1.0000   1.0000   1.0000
     1.0000   1.0000   1.0000   1.0000   1.0000   1.0000   1.0000   1.0000
     1.0000   1.0000   1.0000   1.0000   1.0000   1.0000   1.0000   1.0000
     1.0000   1.0000   1.0000   1.0000   1.0000   1.0000   1.0000   1.0000
     1.0000   1.0000   1.0000   1.0000   1.0000   1.0000   1.0000   1.0000
     1.0000   1.0000   1.0000   1.0000   1.0000   1.0000   1.0000   1.0000
     1.0000   1.0000   1.0000   1.0000   1.0000   1.0000   1.0000   1.0000
     1.0000   1.0000   1.0000   1.0000   1.0000   1.0000   1.0000   1.0000
     1.0000   1.0000   1.0000   1.0000   1.0000   1.0000   1.0000   1.0000
     1.0000   1.0000   1.0000   1.0000   1.0000   1.0000   1.0000   1.0000
     1.0000   1.0000   1.0000   1.0000   1.0000   1.0000   1.0000   1.0000
     1.0000   1.0000   1.0000   1.0000   1.0000   1.0000   1.0000   1.0000
     1.0000   1.0000   1.0000   1.0000   1.0000   1.0000   1.0000   1.0000
     1.0000   1.0000   1.0000   1.0000   1.0000   1.0000   1.0000   1.0000
     1.0000   1.0000   0.0000

          k = 0.6000 0.1155 0.0000 (112237 PWs)   bands (ev):

   -73.8133 -73.8097 -73.8065 -73.8044 -73.8020 -73.8010 -73.7984 -73.7958
   -73.7935 -73.7888 -73.7875 -73.7862 -73.7820 -73.7410 -73.7314 -73.7284
   -38.1945 -38.1902 -38.1803 -38.1771 -38.1688 -38.1650 -38.1572 -38.1425
   -38.1392 -38.1222 -38.0861 -38.0835 -38.0776 -38.0428 -38.0407 -38.0352
   -38.0276 -38.0243 -38.0143 -38.0076 -38.0050 -37.9994 -37.9980 -37.9962
   -37.9937 -37.9912 -37.9890 -37.9850 -37.9813 -37.9760 -37.9688 -37.9648
   -37.9611 -37.9548 -37.9521 -37.9508 -37.9482 -37.9427 -37.9372 -37.9346
   -37.9291 -37.9239 -37.9190 -37.9170 -37.9045 -37.8874 -37.8761 -37.8637
   -21.4926 -15.3538 -14.3325 -14.2874 -14.1117 -13.5922 -13.3010 -13.2832
   -12.9613 -12.9376 -12.8769 -12.8570 -12.8241 -12.7986 -12.7940 -12.6633
   -12.6298 -12.5909 -12.5001 -12.4698 -12.3905 -12.3675 -12.3399 -12.3184
   -12.3077 -12.2975 -12.2610 -12.2325 -12.2278 -12.1285 -12.1183 -12.1123
   -12.0769 -12.0144  -7.8858  -7.5415  -6.1524  -6.0408  -6.0080  -5.9627
    -5.9200  -5.9021  -5.8729  -5.8306  -5.8034  -5.7451  -5.6834  -5.6180
    -5.6073  -5.5334  -5.3516  -5.2748  -5.2506  -5.2188  -5.1927  -5.1664
    -5.1434  -4.8502  -4.8339  -4.6868  -4.6398  -4.6018  -4.5446  -4.5081
    -4.4843  -4.4289  -4.3764  -4.3161  -4.2941  -4.2374  -4.2276  -4.1941
    -4.1853  -4.1627  -4.1162  -4.0920  -3.9528  -3.9421  -3.7804  -3.6587
    -3.6092  -3.5736  -3.4220  -3.3626  -3.3531  -3.3243  -3.2901  -3.2808
    -3.2778  -3.2534  -3.2383  -3.2274  -3.2155  -3.1953  -3.1696  -3.1351
    -3.0808  -3.0719  -3.0490  -3.0133  -2.9839  -2.9290  -2.8325  -2.7948
    -2.7338  -2.7108  -2.6899  -2.6343  -2.6162  -2.5377  -2.4936  -2.4494
    -2.3834  -2.3256  -2.3103  -2.2877  -2.2388  -2.1907  -2.1669  -2.1347
    -2.1116  -2.0923  -2.0700  -2.0298  -2.0052  -1.9724  -1.9570  -1.9445
    -1.9250  -1.8954  -1.8910  -1.8738  -1.8633  -1.8545  -1.8470  -1.8314
    -1.7979  -1.7844  -1.7364  -1.7198  -1.6886  -1.6786  -1.6481  -1.6284
    -1.6110  -1.5912  -1.5228  -1.5094  -1.4644  -1.4240  -1.3874  -1.3119
    -1.2735  -1.2173  -1.1505  -1.1299  -1.0895  -1.0440  -1.0080  -0.9683
    -0.8043  -0.7837  -0.6902  -0.6879  -0.6497  -0.6437  -0.5922  -0.5858
    -0.5428  -0.3925  -0.2738  -0.2600  -0.1656  -0.1152  -0.0685   0.1231
     0.1962   1.3666   1.7121

     occupation numbers 
     1.0000   1.0000   1.0000   1.0000   1.0000   1.0000   1.0000   1.0000
     1.0000   1.0000   1.0000   1.0000   1.0000   1.0000   1.0000   1.0000
     1.0000   1.0000   1.0000   1.0000   1.0000   1.0000   1.0000   1.0000
     1.0000   1.0000   1.0000   1.0000   1.0000   1.0000   1.0000   1.0000
     1.0000   1.0000   1.0000   1.0000   1.0000   1.0000   1.0000   1.0000
     1.0000   1.0000   1.0000   1.0000   1.0000   1.0000   1.0000   1.0000
     1.0000   1.0000   1.0000   1.0000   1.0000   1.0000   1.0000   1.0000
     1.0000   1.0000   1.0000   1.0000   1.0000   1.0000   1.0000   1.0000
     1.0000   1.0000   1.0000   1.0000   1.0000   1.0000   1.0000   1.0000
     1.0000   1.0000   1.0000   1.0000   1.0000   1.0000   1.0000   1.0000
     1.0000   1.0000   1.0000   1.0000   1.0000   1.0000   1.0000   1.0000
     1.0000   1.0000   1.0000   1.0000   1.0000   1.0000   1.0000   1.0000
     1.0000   1.0000   1.0000   1.0000   1.0000   1.0000   1.0000   1.0000
     1.0000   1.0000   1.0000   1.0000   1.0000   1.0000   1.0000   1.0000
     1.0000   1.0000   1.0000   1.0000   1.0000   1.0000   1.0000   1.0000
     1.0000   1.0000   1.0000   1.0000   1.0000   1.0000   1.0000   1.0000
     1.0000   1.0000   1.0000   1.0000   1.0000   1.0000   1.0000   1.0000
     1.0000   1.0000   1.0000   1.0000   1.0000   1.0000   1.0000   1.0000
     1.0000   1.0000   1.0000   1.0000   1.0000   1.0000   1.0000   1.0000
     1.0000   1.0000   1.0000   1.0000   1.0000   1.0000   1.0000   1.0000
     1.0000   1.0000   1.0000   1.0000   1.0000   1.0000   1.0000   1.0000
     1.0000   1.0000   1.0000   1.0000   1.0000   1.0000   1.0000   1.0000
     1.0000   1.0000   1.0000   1.0000   1.0000   1.0000   1.0000   1.0000
     1.0000   1.0000   1.0000   1.0000   1.0000   1.0000   1.0000   1.0000
     1.0000   1.0000   1.0000   1.0000   1.0000   1.0000   1.0000   1.0000
     1.0000   1.0000   1.0000   1.0000   1.0000   1.0000   1.0000   1.0000
     1.0000   1.0000   1.0000   1.0000   1.0000   1.0000   1.0000   1.0000
     1.0000   1.0000   1.0000   1.0000   1.0000   1.0000   1.0000   1.0000
     1.0000   1.0000   1.0000   1.0000   1.0000   1.0000   1.0000   1.0000
     1.0000   1.0000   1.0000   1.0000   1.0000   1.0000   1.0000   1.0000
     1.0000   1.0000   0.0000

     highest occupied, lowest unoccupied level (ev):     1.6178    1.6764

!    total energy              =  -16138.55512525 Ry
     total all-electron energy =   -595550.628331 Ry
     estimated scf accuracy    <          2.5E-11 Ry

     The total energy is the sum of the following terms:
     one-electron contribution =  -18311.66535449 Ry
     hartree contribution      =    9259.62720951 Ry
     xc contribution           =    -931.72155058 Ry
     ewald contribution        =    6415.19432283 Ry
     DFT-D3 Dispersion         =      -0.65559576 Ry
     one-center paw contrib.   =  -12569.33415676 Ry
      -> PAW hartree energy AE =      92.00281184 Ry
      -> PAW hartree energy PS =     -91.51075792 Ry
      -> PAW xc energy AE      =    -644.66491186 Ry
      -> PAW xc energy PS      =      38.62151290 Ry
      -> total E_H with PAW    =    9260.11926344 Ry
      -> total E_XC with PAW   =   -1537.76494955 Ry

     total magnetization       =     1.00 Bohr mag/cell
     absolute magnetization    =     1.12 Bohr mag/cell

     convergence has been achieved in  33 iterations

     negative rho (up, down):  4.794E-03 5.161E-03

     Forces acting on atoms (cartesian axes, Ry/au):

     atom    1 type  2   force =    -0.00000463   -0.00008177   -0.00014911
     atom    2 type  2   force =    -0.00019099    0.00001894    0.00012847
     atom    3 type  2   force =    -0.00025775   -0.00016355   -0.00000545
     atom    4 type  2   force =     0.00028218    0.00027630    0.00004828
     atom    5 type  2   force =    -0.00001320   -0.00023024   -0.00000000
     atom    6 type  2   force =    -0.00001509    0.00006527   -0.00000721
     atom    7 type  2   force =     0.00006231   -0.00002527    0.00008123
     atom    8 type  2   force =     0.00013659    0.00007678    0.00006772
     atom    9 type  2   force =    -0.00021263   -0.00007598    0.00005645
     atom   10 type  2   force =     0.00008917    0.00010167    0.00009092
     atom   11 type  2   force =    -0.00006021    0.00020327    0.00000072
     atom   12 type  2   force =    -0.00000945    0.00006899   -0.00013604
     atom   13 type  2   force =    -0.00013568    0.00015755    0.00008136
     atom   14 type  2   force =     0.00011512    0.00001247   -0.00000052
     atom   15 type  2   force =     0.00000238   -0.00016628   -0.00007362
     atom   16 type  2   force =    -0.00023943   -0.00015820   -0.00004677
     atom   17 type  1   force =    -0.00008898    0.00017403   -0.00002206
     atom   18 type  1   force =    -0.00005838   -0.00018552   -0.00006443
     atom   19 type  1   force =    -0.00010898    0.00010867   -0.00003081
     atom   20 type  1   force =     0.00012492   -0.00002085   -0.00006697
     atom   21 type  1   force =    -0.00008669    0.00000638    0.00005442
     atom   22 type  1   force =    -0.00003100   -0.00000130   -0.00034327
     atom   23 type  1   force =    -0.00006323    0.00002072    0.00003061
     atom   24 type  1   force =     0.00012306    0.00000226    0.00001736
     atom   25 type  1   force =    -0.00001976   -0.00003912    0.00001798
     atom   26 type  1   force =     0.00005076   -0.00007629   -0.00008424
     atom   27 type  1   force =     0.00009696    0.00006971   -0.00002740
     atom   28 type  1   force =    -0.00027900    0.00003167   -0.00036447
     atom   29 type  1   force =    -0.00002089   -0.00012627   -0.00012670
     atom   30 type  1   force =    -0.00007557   -0.00000625    0.00008234
     atom   31 type  1   force =    -0.00020977   -0.00006548   -0.00003997
     atom   32 type  1   force =     0.00025385    0.00008025   -0.00017002
     atom   33 type  1   force =     0.00002575    0.00005102   -0.00015638
     atom   34 type  1   force =     0.00001083    0.00006438    0.00004310
     atom   35 type  1   force =     0.00002252    0.00000020   -0.00003491
     atom   36 type  1   force =    -0.00003609   -0.00004529    0.00004724
     atom   37 type  1   force =    -0.00011286    0.00001582   -0.00012284
     atom   38 type  1   force =     0.00008987   -0.00016039    0.00001019
     atom   39 type  1   force =     0.00014669    0.00003238    0.00002839
     atom   40 type  1   force =     0.00011105   -0.00003132    0.00007095
     atom   41 type  1   force =    -0.00011716    0.00005061    0.00006661
     atom   42 type  1   force =     0.00004398    0.00005772    0.00000188
     atom   43 type  1   force =    -0.00025087    0.00000741    0.00014877
     atom   44 type  1   force =    -0.00007706    0.00009818   -0.00036874
     atom   45 type  1   force =    -0.00009844   -0.00004365    0.00005350
     atom   46 type  1   force =     0.00000912    0.00003982   -0.00015338
     atom   47 type  1   force =    -0.00004625   -0.00017267   -0.00015948
     atom   48 type  1   force =    -0.00002821    0.00004790    0.00015291
     atom   49 type  3   force =     0.00097041   -0.00000211   -0.00032778
     atom   50 type  3   force =    -0.00033036   -0.00077897    0.00057507
     atom   51 type  3   force =    -0.00035759   -0.00010219   -0.00014395
     atom   52 type  3   force =     0.00044659    0.00033298    0.00053222
     atom   53 type  3   force =    -0.00021379    0.00037425    0.00025544
     atom   54 type  4   force =     0.00622574   -0.02262764    0.00841280
     atom   55 type  5   force =    -0.00028975    0.00120253   -0.00059230
     atom   56 type  6   force =     0.00067187   -0.00155341    0.00094142
     atom   57 type  6   force =     0.00008235    0.00001825    0.00044733
     atom   58 type  6   force =    -0.00605431    0.02307163   -0.00872685
     The non-local contrib.  to forces
     atom    1 type  2   force =    -0.00047559    0.00023659   -0.00009289
     atom    2 type  2   force =     0.00035531   -0.00015096   -0.00019520
     atom    3 type  2   force =    -0.00390272   -0.00385817    0.00603702
     atom    4 type  2   force =    -0.00236794   -0.00004834    0.00309672
     atom    5 type  2   force =    -0.00054984    0.00926228    0.00835898
     atom    6 type  2   force =     0.00405431   -0.00045030    0.01270188
     atom    7 type  2   force =     0.00359648   -0.00281829    0.00571282
     atom    8 type  2   force =     0.00048059    0.00022279    0.00051763
     atom    9 type  2   force =     0.00018591    0.00103343    0.00331852
     atom   10 type  2   force =    -0.00362659    0.00166061    0.01381838
     atom   11 type  2   force =    -0.00040040   -0.00030619    0.01550823
     atom   12 type  2   force =     0.00589066   -0.00340597    0.00757232
     atom   13 type  2   force =    -0.00013433    0.00028778   -0.00031567
     atom   14 type  2   force =     0.00074688    0.00162022    0.00307884
     atom   15 type  2   force =    -0.00071644   -0.00209802    0.00704447
     atom   16 type  2   force =    -0.00286035   -0.00023437    0.00573646
     atom   17 type  1   force =     0.00084064    0.00126764   -0.27570601
     atom   18 type  1   force =     0.00429142    0.00240502   -0.27657203
     atom   19 type  1   force =     0.00094974    0.00009446   -0.27534233
     atom   20 type  1   force =    -0.00088202   -0.00064006   -0.27640795
     atom   21 type  1   force =    -0.00026899    0.00141472   -0.27544879
     atom   22 type  1   force =     0.01183626    0.02357866   -0.15678996
     atom   23 type  1   force =    -0.00168450   -0.00216038   -0.18677926
     atom   24 type  1   force =     0.00274255   -0.00128651   -0.27539619
     atom   25 type  1   force =     0.00010785   -0.00086426   -0.27674324
     atom   26 type  1   force =     0.00287645    0.00951890   -0.25647676
     atom   27 type  1   force =     0.01818876    0.00620619   -0.22551430
     atom   28 type  1   force =     0.01935492   -0.01743143   -0.19306447
     atom   29 type  1   force =     0.00088807   -0.00184335   -0.27490922
     atom   30 type  1   force =    -0.00195987    0.00125235   -0.27604026
     atom   31 type  1   force =    -0.02392946   -0.01162268   -0.21281466
     atom   32 type  1   force =    -0.00974060   -0.00786270   -0.24421010
     atom   33 type  1   force =    -0.00022873    0.00030996    0.27622783
     atom   34 type  1   force =     0.00171812    0.00243441    0.27673358
     atom   35 type  1   force =     0.00154162   -0.00049432    0.27628227
     atom   36 type  1   force =    -0.00083281   -0.00082602    0.27581428
     atom   37 type  1   force =     0.00033229    0.00197067    0.27561776
     atom   38 type  1   force =     0.00295709    0.00258650    0.27716298
     atom   39 type  1   force =     0.00248638    0.00067070    0.27703044
     atom   40 type  1   force =     0.00205431   -0.00164280    0.27530575
     atom   41 type  1   force =     0.00022000    0.00048353    0.27665156
     atom   42 type  1   force =    -0.00264164    0.00246889    0.27560172
     atom   43 type  1   force =    -0.00192503   -0.00055711    0.27975461
     atom   44 type  1   force =     0.00088675   -0.00429746    0.27701609
     atom   45 type  1   force =    -0.00063628   -0.00172470    0.27610231
     atom   46 type  1   force =    -0.00124755   -0.00047803    0.27628078
     atom   47 type  1   force =    -0.00342083   -0.00009002    0.27526636
     atom   48 type  1   force =    -0.00234704   -0.00163698    0.27540901
     atom   49 type  3   force =    -0.18433233    0.03151335   -0.06008631
     atom   50 type  3   force =    -0.00817533   -0.13027199   -0.07506469
     atom   51 type  3   force =     0.19384030   -0.01617922   -0.09593069
     atom   52 type  3   force =     0.02020467    0.14046427   -0.09324236
     atom   53 type  3   force =     0.02064523    0.02838693    0.14806728
     atom   54 type  4   force =    -0.86879925   -0.28282471    0.92581633
     atom   55 type  5   force =     1.88176312    0.54390331   -1.51266742
     atom   56 type  6   force =    -0.00670974   -0.07216802   -0.06505885
     atom   57 type  6   force =     0.01168570   -0.01483093    0.09894494
     atom   58 type  6   force =    -0.02748329    0.07963405   -0.03788473
     The ionic contribution  to forces
     atom    1 type  2   force =    -0.93934585   -0.19562857   -8.51228101
     atom    2 type  2   force =    -0.97109911   -1.15698305   -8.88001363
     atom    3 type  2   force =     1.92223913    0.65020364   -9.43973004
     atom    4 type  2   force =     1.76651700    1.72469375   -9.24158205
     atom    5 type  2   force =    -0.76028748   -3.39392133  -10.32558623
     atom    6 type  2   force =    -3.93391539   -3.11175619  -14.38139404
     atom    7 type  2   force =    -3.78907493    1.11541464  -12.06306131
     atom    8 type  2   force =    -0.45955955    0.22254088   -8.34413717
     atom    9 type  2   force =     1.12835363   -2.55050288  -10.29924572
     atom   10 type  2   force =     1.18895579   -3.57192509  -19.43167097
     atom   11 type  2   force =    -2.00131918    2.17451407  -20.50205271
     atom   12 type  2   force =    -1.90155596    2.98563594  -10.56661620
     atom   13 type  2   force =     0.52976192    0.57641886   -8.41985915
     atom   14 type  2   force =     3.83226227   -2.05740566  -11.86152071
     atom   15 type  2   force =     3.84713381    1.90216937  -17.31822215
     atom   16 type  2   force =     0.57164311    4.70754743  -12.98735655
     atom   17 type  1   force =    -0.14018557   -0.66151077   32.26066332
     atom   18 type  1   force =    -2.24124323   -1.69649846   31.29318747
     atom   19 type  1   force =    -1.12782155    0.05272267   31.69853891
     atom   20 type  1   force =     1.01150153    0.86391389   32.41885043
     atom   21 type  1   force =     0.17395973   -1.94600043   32.03445188
     atom   22 type  1   force =    -2.23777113   -5.30479285   25.62153826
     atom   23 type  1   force =    -4.76113034    0.06303081   24.69074051
     atom   24 type  1   force =    -2.11316325    1.73115607   31.40506322
     atom   25 type  1   force =    -0.02598561    0.43234138   32.25583069
     atom   26 type  1   force =     2.91764934   -4.06817762   28.41118846
     atom   27 type  1   force =     1.27432574   -0.00841803   20.49382370
     atom   28 type  1   force =    -2.26275602    5.24398440   26.48535746
     atom   29 type  1   force =     0.01960310    1.75649465   32.08043574
     atom   30 type  1   force =     1.12871051   -0.96854649   32.14834962
     atom   31 type  1   force =     4.85879403    0.33661427   28.22799248
     atom   32 type  1   force =     3.17845268    3.98390745   28.83928608
     atom   33 type  1   force =    -0.05128731   -0.12671452  -39.08007074
     atom   34 type  1   force =    -0.56948891   -0.42786576  -39.19373990
     atom   35 type  1   force =    -0.28918738   -0.04255670  -39.24754181
     atom   36 type  1   force =     0.27300474    0.22242588  -39.08995791
     atom   37 type  1   force =    -0.01842721   -0.48727287  -39.20273397
     atom   38 type  1   force =    -0.41731498   -0.93186236  -40.31571590
     atom   39 type  1   force =    -0.90997695   -0.05705526  -40.68654004
     atom   40 type  1   force =    -0.52223507    0.40399128  -39.34399602
     atom   41 type  1   force =     0.05824835    0.12833416  -39.16754339
     atom   42 type  1   force =     0.64042691   -0.72201898  -40.20943191
     atom   43 type  1   force =     0.29417459    0.05135125  -41.17797862
     atom   44 type  1   force =    -0.25864206    0.97339066  -40.32984834
     atom   45 type  1   force =     0.01553376    0.50322559  -39.10191675
     atom   46 type  1   force =     0.32788723   -0.23270626  -39.01141350
     atom   47 type  1   force =     0.87995188   -0.02483616  -39.93817960
     atom   48 type  1   force =     0.55132452    0.76660864  -40.07738892
     atom   49 type  3   force =   -21.26958765    3.68374812   58.89339490
     atom   50 type  3   force =    -1.57971505  -20.68369110   58.08397748
     atom   51 type  3   force =    21.71744858   -2.58683313   61.19783776
     atom   52 type  3   force =     2.76309665   20.98035381   58.84434628
     atom   53 type  3   force =     7.91954238    2.07114763   63.37669949
     atom   54 type  4   force =     4.45707877   -0.03934012   20.63622055
     atom   55 type  5   force =   -13.32825111   -2.90872067   24.85867877
     atom   56 type  6   force =     0.54294118    2.65018057    5.38702344
     atom   57 type  6   force =    -2.24531295    0.17437425    1.35255611
     atom   58 type  6   force =     1.33511795   -3.16889472    4.75229395
     The local contribution  to forces
     atom    1 type  2   force =     0.93941752    0.19576963    8.51220136
     atom    2 type  2   force =     0.97059582    1.15662917    8.88008582
     atom    3 type  2   force =    -1.91893530   -0.64715063    9.43444867
     atom    4 type  2   force =    -1.76426484   -1.72424907    9.23884601
     atom    5 type  2   force =     0.76042840    3.38448962   10.31684994
     atom    6 type  2   force =     3.92911613    3.11079626   14.36629304
     atom    7 type  2   force =     3.78419437   -1.11229501   12.05572091
     atom    8 type  2   force =     0.45916397   -0.22278383    8.34407928
     atom    9 type  2   force =    -1.12850348    2.54890577   10.29547295
     atom   10 type  2   force =    -1.18511359    3.57079047   19.41494919
     atom   11 type  2   force =     2.00240544   -2.17382126   20.48164862
     atom   12 type  2   force =     1.89586828   -2.98201881   10.55865224
     atom   13 type  2   force =    -0.52953755   -0.57626180    8.41998611
     atom   14 type  2   force =    -3.83137520    2.05556107   11.85632160
     atom   15 type  2   force =    -3.84584887   -1.90003402   17.30655652
     atom   16 type  2   force =    -0.56912911   -4.70584468   12.97928576
     atom   17 type  1   force =     0.13922532    0.66017910  -31.98636387
     atom   18 type  1   force =     2.23625153    1.69340961  -31.01851533
     atom   19 type  1   force =     1.12646989   -0.05264540  -31.42485580
     atom   20 type  1   force =    -1.01013282   -0.86298980  -32.14391092
     atom   21 type  1   force =    -0.17367310    1.94398021  -31.76041256
     atom   22 type  1   force =     2.22582981    5.28047921  -25.46459720
     atom   23 type  1   force =     4.76136141   -0.06090723  -24.50361493
     atom   24 type  1   force =     2.10984585   -1.72930699  -31.13144086
     atom   25 type  1   force =     0.02575010   -0.43137594  -31.98045850
     atom   26 type  1   force =    -2.92064614    4.05906910  -28.15474224
     atom   27 type  1   force =    -1.29105256    0.00191356  -20.26670794
     atom   28 type  1   force =     2.24364428   -5.22589957  -26.29252096
     atom   29 type  1   force =    -0.02044113   -1.75426472  -31.80708427
     atom   30 type  1   force =    -1.12647164    0.96700227  -31.87368940
     atom   31 type  1   force =    -4.83513671   -0.32549024  -28.01472938
     atom   32 type  1   force =    -3.16922344   -3.97558753  -28.59543769
     atom   33 type  1   force =     0.05150939    0.12644439   38.80466050
     atom   34 type  1   force =     0.56778574    0.42554794   38.91805043
     atom   35 type  1   force =     0.28767516    0.04301454   38.97218920
     atom   36 type  1   force =    -0.27223839   -0.22167971   38.81516799
     atom   37 type  1   force =     0.01799418    0.48539899   38.92795283
     atom   38 type  1   force =     0.41443386    0.92909478   40.03933742
     atom   39 type  1   force =     0.90758625    0.05640519   40.41030906
     atom   40 type  1   force =     0.52038538   -0.40240319   39.06970552
     atom   41 type  1   force =    -0.05854635   -0.12873664   38.89194640
     atom   42 type  1   force =    -0.63770841    0.71961629   39.93464106
     atom   43 type  1   force =    -0.29251240   -0.05078347   40.89914799
     atom   44 type  1   force =     0.25768742   -0.96898984   40.05326178
     atom   45 type  1   force =    -0.01501384   -0.50155368   38.82685544
     atom   46 type  1   force =    -0.32667055    0.23320166   38.73598362
     atom   47 type  1   force =    -0.87661458    0.02471899   39.66354744
     atom   48 type  1   force =    -0.54900041   -0.76490594   39.80290940
     atom   49 type  3   force =    21.45150191   -3.71404804  -58.82267761
     atom   50 type  3   force =     1.59142042   20.81288882  -57.99914706
     atom   51 type  3   force =   -21.90839854    2.60147462  -61.09494406
     atom   52 type  3   force =    -2.78012624  -21.11831916  -58.74221814
     atom   53 type  3   force =    -7.93889885   -2.09820761  -63.51890469
     atom   54 type  4   force =    -3.59996454    0.29448374  -21.54049479
     atom   55 type  5   force =    11.46496988    2.37080200  -23.35751599
     atom   56 type  6   force =    -0.53561407   -2.57969886   -5.32123255
     atom   57 type  6   force =     2.23392015   -0.15938420   -1.45113657
     atom   58 type  6   force =    -1.31380880    3.11256205   -4.72326972
     The core correction contribution to forces
     atom    1 type  2   force =     0.00025941   -0.00048982   -0.00037512
     atom    2 type  2   force =    -0.00015594    0.00035589   -0.00024279
     atom    3 type  2   force =     0.00079700    0.00078237   -0.00149979
     atom    4 type  2   force =     0.00075026    0.00026054   -0.00095109
     atom    5 type  2   force =     0.00021024   -0.00077931   -0.00060683
     atom    6 type  2   force =    -0.00028726    0.00076926   -0.00009488
     atom    7 type  2   force =     0.00050954   -0.00013681    0.00031905
     atom    8 type  2   force =    -0.00002370    0.00012230   -0.00061761
     atom    9 type  2   force =     0.00000897   -0.00005581   -0.00027202
     atom   10 type  2   force =    -0.00007193   -0.00142555    0.00039481
     atom   11 type  2   force =    -0.00121303    0.00051064    0.00110300
     atom   12 type  2   force =    -0.00068048    0.00050204   -0.00079344
     atom   13 type  2   force =    -0.00018219   -0.00017961   -0.00006081
     atom   14 type  2   force =    -0.00063542   -0.00026348    0.00047242
     atom   15 type  2   force =     0.00047383    0.00032353    0.00113493
     atom   16 type  2   force =     0.00025940   -0.00056072    0.00045807
     atom   17 type  1   force =    -0.00005244   -0.00000714    0.00196457
     atom   18 type  1   force =    -0.00015899   -0.00008388    0.00203943
     atom   19 type  1   force =    -0.00004833   -0.00005478    0.00197247
     atom   20 type  1   force =    -0.00000398    0.00000147    0.00199024
     atom   21 type  1   force =    -0.00003856   -0.00003564    0.00197234
     atom   22 type  1   force =    -0.00009339   -0.00041947   -0.00040057
     atom   23 type  1   force =     0.00004729    0.00006976   -0.00004001
     atom   24 type  1   force =    -0.00006729    0.00004269    0.00198180
     atom   25 type  1   force =     0.00005174    0.00002257    0.00198617
     atom   26 type  1   force =    -0.00002179   -0.00024193    0.00142911
     atom   27 type  1   force =    -0.00046041   -0.00005947    0.00111624
     atom   28 type  1   force =    -0.00030225    0.00037784    0.00019973
     atom   29 type  1   force =    -0.00002112    0.00009991    0.00197919
     atom   30 type  1   force =     0.00007973   -0.00003683    0.00200938
     atom   31 type  1   force =     0.00052044    0.00026234    0.00063819
     atom   32 type  1   force =     0.00016325    0.00019606    0.00123021
     atom   33 type  1   force =     0.00001673   -0.00000374   -0.00193206
     atom   34 type  1   force =    -0.00003150   -0.00005387   -0.00198908
     atom   35 type  1   force =     0.00000255    0.00003606   -0.00193389
     atom   36 type  1   force =     0.00001929    0.00002513   -0.00191729
     atom   37 type  1   force =     0.00000513   -0.00004336   -0.00192642
     atom   38 type  1   force =     0.00001029    0.00001093   -0.00197470
     atom   39 type  1   force =     0.00002947    0.00002695   -0.00198056
     atom   40 type  1   force =    -0.00005817    0.00000902   -0.00192227
     atom   41 type  1   force =    -0.00003620   -0.00001292   -0.00194788
     atom   42 type  1   force =    -0.00002445   -0.00003872   -0.00193346
     atom   43 type  1   force =     0.00000268   -0.00001124   -0.00220899
     atom   44 type  1   force =    -0.00002579    0.00001942   -0.00198804
     atom   45 type  1   force =     0.00001194    0.00001600   -0.00195964
     atom   46 type  1   force =     0.00003335    0.00000919   -0.00196699
     atom   47 type  1   force =     0.00004967    0.00003146   -0.00190580
     atom   48 type  1   force =     0.00002350    0.00000562   -0.00189415
     atom   49 type  3   force =     0.00424951   -0.00133359   -0.00310433
     atom   50 type  3   force =    -0.00144906    0.00369875   -0.00371177
     atom   51 type  3   force =    -0.00463875    0.00092639   -0.00153725
     atom   52 type  3   force =    -0.00175219   -0.00488788   -0.00188485
     atom   53 type  3   force =    -0.00268141   -0.00113591   -0.00365005
     atom   54 type  4   force =     0.01780767    0.00497383   -0.01238638
     atom   55 type  5   force =    -0.01846447   -0.00484282    0.01189874
     atom   56 type  6   force =     0.00000000    0.00000000    0.00000000
     atom   57 type  6   force =     0.00000000    0.00000000    0.00000000
     atom   58 type  6   force =     0.00000000    0.00000000    0.00000000
     The Hubbard contrib.    to forces
     atom    1 type  2   force =     0.00000000    0.00000000    0.00000000
     atom    2 type  2   force =     0.00000000    0.00000000    0.00000000
     atom    3 type  2   force =     0.00000000    0.00000000    0.00000000
     atom    4 type  2   force =     0.00000000    0.00000000    0.00000000
     atom    5 type  2   force =     0.00000000    0.00000000    0.00000000
     atom    6 type  2   force =     0.00000000    0.00000000    0.00000000
     atom    7 type  2   force =     0.00000000    0.00000000    0.00000000
     atom    8 type  2   force =     0.00000000    0.00000000    0.00000000
     atom    9 type  2   force =     0.00000000    0.00000000    0.00000000
     atom   10 type  2   force =     0.00000000    0.00000000    0.00000000
     atom   11 type  2   force =     0.00000000    0.00000000    0.00000000
     atom   12 type  2   force =     0.00000000    0.00000000    0.00000000
     atom   13 type  2   force =     0.00000000    0.00000000    0.00000000
     atom   14 type  2   force =     0.00000000    0.00000000    0.00000000
     atom   15 type  2   force =     0.00000000    0.00000000    0.00000000
     atom   16 type  2   force =     0.00000000    0.00000000    0.00000000
     atom   17 type  1   force =     0.00000000    0.00000000    0.00000000
     atom   18 type  1   force =     0.00000000    0.00000000    0.00000000
     atom   19 type  1   force =     0.00000000    0.00000000    0.00000000
     atom   20 type  1   force =     0.00000000    0.00000000    0.00000000
     atom   21 type  1   force =     0.00000000    0.00000000    0.00000000
     atom   22 type  1   force =     0.00000000    0.00000000    0.00000000
     atom   23 type  1   force =     0.00000000    0.00000000    0.00000000
     atom   24 type  1   force =     0.00000000    0.00000000    0.00000000
     atom   25 type  1   force =     0.00000000    0.00000000    0.00000000
     atom   26 type  1   force =     0.00000000    0.00000000    0.00000000
     atom   27 type  1   force =     0.00000000    0.00000000    0.00000000
     atom   28 type  1   force =     0.00000000    0.00000000    0.00000000
     atom   29 type  1   force =     0.00000000    0.00000000    0.00000000
     atom   30 type  1   force =     0.00000000    0.00000000    0.00000000
     atom   31 type  1   force =     0.00000000    0.00000000    0.00000000
     atom   32 type  1   force =     0.00000000    0.00000000    0.00000000
     atom   33 type  1   force =     0.00000000    0.00000000    0.00000000
     atom   34 type  1   force =     0.00000000    0.00000000    0.00000000
     atom   35 type  1   force =     0.00000000    0.00000000    0.00000000
     atom   36 type  1   force =     0.00000000    0.00000000    0.00000000
     atom   37 type  1   force =     0.00000000    0.00000000    0.00000000
     atom   38 type  1   force =     0.00000000    0.00000000    0.00000000
     atom   39 type  1   force =     0.00000000    0.00000000    0.00000000
     atom   40 type  1   force =     0.00000000    0.00000000    0.00000000
     atom   41 type  1   force =     0.00000000    0.00000000    0.00000000
     atom   42 type  1   force =     0.00000000    0.00000000    0.00000000
     atom   43 type  1   force =     0.00000000    0.00000000    0.00000000
     atom   44 type  1   force =     0.00000000    0.00000000    0.00000000
     atom   45 type  1   force =     0.00000000    0.00000000    0.00000000
     atom   46 type  1   force =     0.00000000    0.00000000    0.00000000
     atom   47 type  1   force =     0.00000000    0.00000000    0.00000000
     atom   48 type  1   force =     0.00000000    0.00000000    0.00000000
     atom   49 type  3   force =     0.00000000    0.00000000    0.00000000
     atom   50 type  3   force =     0.00000000    0.00000000    0.00000000
     atom   51 type  3   force =     0.00000000    0.00000000    0.00000000
     atom   52 type  3   force =     0.00000000    0.00000000    0.00000000
     atom   53 type  3   force =     0.00000000    0.00000000    0.00000000
     atom   54 type  4   force =     0.00000000    0.00000000    0.00000000
     atom   55 type  5   force =     0.00000000    0.00000000    0.00000000
     atom   56 type  6   force =     0.00000000    0.00000000    0.00000000
     atom   57 type  6   force =     0.00000000    0.00000000    0.00000000
     atom   58 type  6   force =     0.00000000    0.00000000    0.00000000
     The SCF correction term to forces
     atom    1 type  2   force =    -0.00000060   -0.00000007    0.00000118
     atom    2 type  2   force =     0.00000016   -0.00000065    0.00000103
     atom    3 type  2   force =     0.00000170    0.00000058    0.00000194
     atom    4 type  2   force =     0.00000050    0.00000145    0.00000123
     atom    5 type  2   force =     0.00000076    0.00000028    0.00000122
     atom    6 type  2   force =     0.00000060   -0.00000089    0.00000170
     atom    7 type  2   force =    -0.00000036    0.00000107    0.00000151
     atom    8 type  2   force =     0.00000059    0.00000031    0.00000138
     atom    9 type  2   force =    -0.00000131    0.00000022    0.00000097
     atom   10 type  2   force =     0.00000048   -0.00000152    0.00000102
     atom   11 type  2   force =    -0.00000008   -0.00000033    0.00000204
     atom   12 type  2   force =    -0.00000108    0.00000118    0.00000089
     atom   13 type  2   force =    -0.00000033    0.00000057    0.00000150
     atom   14 type  2   force =    -0.00000122   -0.00000202    0.00000082
     atom   15 type  2   force =     0.00000015   -0.00000082    0.00000125
     atom   16 type  2   force =    -0.00000004    0.00000226    0.00000068
     atom   17 type  1   force =     0.00000011    0.00000027    0.00000027
     atom   18 type  1   force =     0.00000002   -0.00000015    0.00000054
     atom   19 type  1   force =     0.00000040    0.00000014    0.00000055
     atom   20 type  1   force =     0.00000064    0.00000042    0.00000021
     atom   21 type  1   force =    -0.00000002   -0.00000007   -0.00000006
     atom   22 type  1   force =     0.00000067    0.00000002    0.00000035
     atom   23 type  1   force =    -0.00000038   -0.00000015    0.00000126
     atom   24 type  1   force =    -0.00000026    0.00000019    0.00000017
     atom   25 type  1   force =    -0.00000012   -0.00000011    0.00000012
     atom   26 type  1   force =    -0.00000077    0.00000001   -0.00000006
     atom   27 type  1   force =    -0.00000011   -0.00000116    0.00000070
     atom   28 type  1   force =    -0.00000034    0.00000045    0.00000091
     atom   29 type  1   force =     0.00000001    0.00000022    0.00000012
     atom   30 type  1   force =     0.00000012   -0.00000031    0.00000034
     atom   31 type  1   force =     0.00000009   -0.00000034    0.00000077
     atom   32 type  1   force =    -0.00000006    0.00000050    0.00000083
     atom   33 type  1   force =     0.00000008    0.00000021    0.00000054
     atom   34 type  1   force =    -0.00000021   -0.00000037    0.00000043
     atom   35 type  1   force =     0.00000020    0.00000011    0.00000036
     atom   36 type  1   force =     0.00000059    0.00000046    0.00000055
     atom   37 type  1   force =     0.00000009    0.00000000    0.00000083
     atom   38 type  1   force =     0.00000091   -0.00000008    0.00000082
     atom   39 type  1   force =    -0.00000024   -0.00000004    0.00000003
     atom   40 type  1   force =    -0.00000026    0.00000043    0.00000073
     atom   41 type  1   force =    -0.00000005    0.00000002    0.00000055
     atom   42 type  1   force =    -0.00000072    0.00000003    0.00000089
     atom   43 type  1   force =     0.00000011   -0.00000120    0.00000038
     atom   44 type  1   force =    -0.00000023    0.00000065    0.00000007
     atom   45 type  1   force =    -0.00000011    0.00000021    0.00000063
     atom   46 type  1   force =    -0.00000001   -0.00000045    0.00000038
     atom   47 type  1   force =    -0.00000006   -0.00000041   -0.00000000
     atom   48 type  1   force =    -0.00000009    0.00000050    0.00000002
     atom   49 type  3   force =     0.00000038   -0.00000042    0.00000192
     atom   50 type  3   force =    -0.00000016    0.00000034    0.00000154
     atom   51 type  3   force =    -0.00000122   -0.00000047    0.00000198
     atom   52 type  3   force =    -0.00000065   -0.00000060    0.00000234
     atom   53 type  3   force =    -0.00000045   -0.00000021   -0.00000056
     atom   54 type  4   force =     0.00000001    0.00000010   -0.00000097
     atom   55 type  5   force =     0.00000037    0.00000020   -0.00000101
     atom   56 type  6   force =    -0.00000001   -0.00000002   -0.00000015
     atom   57 type  6   force =     0.00000010    0.00000003   -0.00000008
     atom   58 type  6   force =    -0.00000001    0.00000005   -0.00000014

     DFT-D3 dispersion contribution to forces:
     atom    1 type  2   force =     0.00014031    0.00003169    0.00039725
     atom    2 type  2   force =     0.00011259    0.00016976    0.00049312
     atom    3 type  2   force =    -0.00045774   -0.00014013    0.00073665
     atom    4 type  2   force =    -0.00035297   -0.00038082    0.00063735
     atom    5 type  2   force =     0.00018456    0.00071942    0.00098282
     atom    6 type  2   force =     0.00101636    0.00070834    0.00248497
     atom    7 type  2   force =     0.00083703   -0.00018965    0.00138814
     atom    8 type  2   force =     0.00007452   -0.00002446    0.00022410
     atom    9 type  2   force =    -0.00025652    0.00054451    0.00078165
     atom   10 type  2   force =    -0.00005515    0.00100397    0.00259838
     atom   11 type  2   force =     0.00046687   -0.00069245    0.00379143
     atom   12 type  2   force =     0.00046896   -0.00064418    0.00104804
     atom   13 type  2   force =    -0.00004338   -0.00010703    0.00032927
     atom   14 type  2   force =    -0.00088236    0.00050355    0.00164641
     atom   15 type  2   force =    -0.00104027   -0.00052511    0.00341124
     atom   16 type  2   force =    -0.00015261   -0.00106691    0.00182870
     atom   17 type  1   force =     0.00008280    0.00024614   -0.00058044
     atom   18 type  1   force =     0.00080071    0.00058356   -0.00020463
     atom   19 type  1   force =     0.00034071   -0.00000721   -0.00034473
     atom   20 type  1   force =    -0.00035860   -0.00030555   -0.00058909
     atom   21 type  1   force =    -0.00006593    0.00064881   -0.00050850
     atom   22 type  1   force =     0.00016661    0.00115435   -0.00009425
     atom   23 type  1   force =     0.00134311   -0.00001088   -0.00027707
     atom   24 type  1   force =     0.00076529   -0.00060199   -0.00019089
     atom   25 type  1   force =     0.00005611   -0.00016155   -0.00059738
     atom   26 type  1   force =     0.00019350   -0.00024354   -0.00148287
     atom   27 type  1   force =    -0.00090463    0.00042984   -0.00274592
     atom   28 type  1   force =    -0.00021977   -0.00099881   -0.00033726
     atom   29 type  1   force =    -0.00005000   -0.00061177   -0.00054836
     atom   30 type  1   force =    -0.00043461    0.00032398   -0.00054745
     atom   31 type  1   force =    -0.00045833    0.00017238   -0.00112748
     atom   32 type  1   force =     0.00060185   -0.00057232   -0.00103946
     atom   33 type  1   force =     0.00001542    0.00001595    0.00095744
     atom   34 type  1   force =     0.00002742    0.00000324    0.00098753
     atom   35 type  1   force =    -0.00000980    0.00000171    0.00096885
     atom   36 type  1   force =     0.00001033    0.00001019    0.00093951
     atom   37 type  1   force =    -0.00001751   -0.00003640    0.00096603
     atom   38 type  1   force =     0.00000252    0.00001106    0.00119946
     atom   39 type  1   force =     0.00002160   -0.00001393    0.00120935
     atom   40 type  1   force =    -0.00003531    0.00001516    0.00097712
     atom   41 type  1   force =    -0.00000308   -0.00001634    0.00095927
     atom   42 type  1   force =    -0.00000789    0.00003142    0.00112347
     atom   43 type  1   force =     0.00000900    0.00001039    0.00143329
     atom   44 type  1   force =     0.00001666   -0.00002404    0.00118959
     atom   45 type  1   force =     0.00000591   -0.00000586    0.00097140
     atom   46 type  1   force =     0.00000648    0.00001492    0.00096223
     atom   47 type  1   force =    -0.00001250    0.00000469    0.00111201
     atom   48 type  1   force =    -0.00002887   -0.00002271    0.00111744
     atom   49 type  3   force =    -0.00086158    0.00011969   -0.00785645
     atom   50 type  3   force =    -0.00241136   -0.00340257   -0.00548054
     atom   51 type  3   force =     0.00139186    0.00051082   -0.00557181
     atom   52 type  3   force =    -0.00097582    0.00272375   -0.00647115
     atom   53 type  3   force =     0.00117915    0.00018463   -0.00195614
     atom   54 type  4   force =     0.00010290    0.00008074   -0.00074205
     atom   55 type  5   force =    -0.00030771    0.00006172   -0.00098550
     atom   56 type  6   force =     0.00005433    0.00013414    0.00020942
     atom   57 type  6   force =    -0.00021083   -0.00013968    0.00008282
     atom   58 type  6   force =     0.00011967   -0.00022859    0.00013368

     Total force =     0.035744     Total SCF correction =     0.000010

     DFT-D3 dispersion Force =     0.017432


     Computing stress (Cartesian axis) and pressure


     negative rho (up, down):  4.794E-03 5.161E-03
          total   stress  (Ry/bohr**3)                   (kbar)     P=       -1.62
  -0.00001053  -0.00000034   0.00000035           -1.55       -0.05        0.05
  -0.00000034  -0.00001164   0.00000099           -0.05       -1.71        0.15
   0.00000035   0.00000099  -0.00001092            0.05        0.15       -1.61

     kinetic stress (kbar)   7256.19     -1.15     -9.30
                               -1.15   7272.54     -0.31
                               -9.30     -0.31   7301.37

     local   stress (kbar)-135460.40    -63.76    519.16
                              -63.76-134008.39    220.27
                              519.16    220.27 134100.68

     nonloc. stress (kbar)  -1419.16     -0.13      0.32
                               -0.13  -1420.36      0.31
                                0.32      0.31  -1427.23

     hartree stress (kbar)  68216.90     29.37   -249.12
                               29.37  67561.52   -103.08
                             -249.12   -103.08 -63301.41

     exc-cor stress (kbar)   2000.79      0.01     -0.00
                                0.01   2000.37     -0.04
                               -0.00     -0.04   2000.33

     corecor stress (kbar)  -3626.55      0.04      0.05
                                0.04  -3626.82      0.01
                                0.05      0.01  -3627.24

     ewald   stress (kbar)  63034.95     35.56   -261.02
                               35.56  62223.64   -117.00
                             -261.02   -117.00 -75045.55

     hubbard stress (kbar)      0.00      0.00      0.00
                                0.00      0.00      0.00
                                0.00      0.00      0.00

     DFT-D   stress (kbar)     -4.26      0.02     -0.04
                                0.02     -4.22      0.01
                               -0.04      0.01     -2.55

     XDM     stress (kbar)      0.00      0.00      0.00
                                0.00      0.00      0.00
                                0.00      0.00      0.00

     dft-nl  stress (kbar)      0.00      0.00      0.00
                                0.00      0.00      0.00
                                0.00      0.00      0.00

     TS-vdW  stress (kbar)      0.00      0.00      0.00
                                0.00      0.00      0.00
                                0.00      0.00      0.00

     MDB     stress (kbar)      0.00      0.00      0.00
                                0.00      0.00      0.00
                                0.00      0.00      0.00

     3D-RISM stress (kbar)      0.00      0.00      0.00
                                0.00      0.00      0.00
                                0.00      0.00      0.00


     Writing all to output data dir ./Ag-WS2-H2NOH.save/ :
     XML data file, charge density, pseudopotentials, collected wavefunctions

     init_run     :    180.72s CPU    184.39s WALL (       1 calls)
     electrons    :  12578.51s CPU  12812.38s WALL (       1 calls)
     forces       :     44.89s CPU     46.51s WALL (       1 calls)
     force_dftd3  :      0.13s CPU      0.14s WALL (       1 calls)
     stress       :    163.23s CPU    167.55s WALL (       1 calls)
     stres_dftd3  :      0.12s CPU      0.14s WALL (       1 calls)

     Called by init_run:
     wfcinit      :    172.56s CPU    175.57s WALL (       1 calls)
     wfcinit:atom :      0.76s CPU      0.77s WALL (      26 calls)
     wfcinit:wfcr :    167.98s CPU    170.86s WALL (      26 calls)
     potinit      :      2.76s CPU      2.89s WALL (       1 calls)
     hinit0       :      1.55s CPU      1.66s WALL (       1 calls)

     Called by electrons:
     c_bands      :  10911.43s CPU  11096.96s WALL (      34 calls)
     sum_band     :   1547.96s CPU   1582.81s WALL (      34 calls)
     v_of_rho     :     19.61s CPU     20.68s WALL (      34 calls)
     v_h          :      0.98s CPU      1.07s WALL (      34 calls)
     v_xc         :     19.78s CPU     20.82s WALL (      36 calls)
     newd         :     56.64s CPU     68.01s WALL (      34 calls)
     PAW_pot      :     38.13s CPU     38.55s WALL (      34 calls)
     mix_rho      :      5.00s CPU      5.27s WALL (      34 calls)
     energy_dftd3 :      0.06s CPU      0.06s WALL (       1 calls)

     Called by c_bands:
     init_us_2    :    123.76s CPU    127.59s WALL (    1846 calls)
     cegterg      :  10750.59s CPU  10931.03s WALL (     884 calls)

     Called by sum_band:
     sum_band:wei :      0.01s CPU      0.01s WALL (      34 calls)
     sum_band:loo :   1443.09s CPU   1464.59s WALL (      34 calls)
     sum_band:buf :     10.89s CPU     11.10s WALL (     884 calls)
     sum_band:ini :     60.03s CPU     61.34s WALL (     884 calls)
     sum_band:cal :    303.65s CPU    311.53s WALL (     884 calls)
     sum_band:bec :      3.89s CPU      3.96s WALL (     884 calls)
     addusdens    :    101.03s CPU    114.19s WALL (      34 calls)
                                        0.00s GPU  (      34 calls)
     addusd:skk   :      1.56s CPU      1.70s WALL (     204 calls)
                                        0.00s GPU  (     204 calls)

     Called by *egterg:
     cdiaghg      :    590.83s CPU    614.35s WALL (    6252 calls)
     cegterg:over :    591.41s CPU    606.18s WALL (    5394 calls)
     cegterg:upda :    275.23s CPU    280.31s WALL (    5394 calls)
     cegterg:last :    516.08s CPU    525.32s WALL (    1847 calls)
     cdiaghg:chol :     50.04s CPU     50.48s WALL (    6252 calls)
     cdiaghg:inve :      8.20s CPU      8.30s WALL (    6252 calls)
     cdiaghg:para :    167.63s CPU    180.95s WALL (   12504 calls)
     h_psi        :   8031.68s CPU   8142.06s WALL (    6304 calls)
     s_psi        :    711.86s CPU    719.56s WALL (    6304 calls)
     g_psi        :     10.00s CPU     10.30s WALL (    5394 calls)

     Called by h_psi:
     h_psi:calbec :    961.35s CPU    985.22s WALL (    6304 calls)
     vloc_psi     :   6315.24s CPU   6390.86s WALL (    6304 calls)
     add_vuspsi   :    726.58s CPU    735.45s WALL (    6304 calls)

     General routines
     calbec       :   1414.20s CPU   1450.09s WALL (    7630 calls)
     fft          :     20.96s CPU     22.50s WALL (     890 calls)
     ffts         :      1.87s CPU      1.99s WALL (     136 calls)
     fftw         :   6774.10s CPU   6849.45s WALL ( 1333632 calls)
     interpolate  :      2.95s CPU      3.13s WALL (      68 calls)

     Parallel routines

     PAW routines
     PAW_pot      :     38.13s CPU     38.55s WALL (      34 calls)

     PWSCF        :  12978.37s CPU  13262.73s WALL


   This run was terminated on:   6: 4:18   2Aug2026            

=------------------------------------------------------------------------------=
   JOB DONE.
=------------------------------------------------------------------------------=
