
     Program PWSCF v.7.4.1 starts on  1Aug2026 at 12:20: 4 

     This program is part of the open-source Quantum ESPRESSO suite
     for quantum simulation of materials; please cite
         "P. Giannozzi et al., J. Phys.:Condens. Matter 21 395502 (2009);
         "P. Giannozzi et al., J. Phys.:Condens. Matter 29 465901 (2017);
         "P. Giannozzi et al., J. Chem. Phys. 152 154105 (2020);
          URL http://www.quantum-espresso.org", 
     in publications or presentations arising from this work. More details at
     http://www.quantum-espresso.org/quote

     Parallel version (MPI & OpenMP), running on      64 processor cores
     Number of MPI processes:                64
     Threads/MPI process:                     1

     MPI processes distributed on     1 nodes
     41409 MiB available memory on the printing compute node when the environment starts

     Reading input from disp_016_atom56_-1y.in

     Current dimensions of program PWSCF are:
     Max number of different atomic species (ntypx) = 10
     Max number of k-points (npk) =  40000
     Max angular momentum in pseudopotentials (lmaxx) =  4
     file S.pbe-n-kjpaw_psl.1.0.0.UPF: wavefunction(s)  3S 3P renormalized
     file W.pbe-spn-kjpaw_psl.1.0.0.UPF: wavefunction(s)  6S 5P 5D renormalized
     file Ag.pbe-n-kjpaw_psl.1.0.0.UPF: wavefunction(s)  5S 5P renormalized
     file N.pbe-n-kjpaw_psl.1.0.0.UPF: wavefunction(s)  2S renormalized
     file O.pbe-n-kjpaw_psl.1.0.0.UPF: wavefunction(s)  2S 2P renormalized
     file H.pbe-kjpaw_psl.1.0.0.UPF: wavefunction(s)  1S renormalized
     Message from routine setup:
     the system is metallic, specify occupations

     R & G space division:  proc/nbgrp/npool/nimage =      64
     Subspace diagonalization in iterative solution of the eigenvalue problem:
     one sub-group per band group will be used
     ELPA distributed-memory algorithm (size of sub-group:  2*  2 procs)


     Parallelization info
     --------------------
     sticks:   dense  smooth     PW     G-vecs:    dense   smooth      PW
     Min         247     123     32                39673    14017    1874
     Max         248     124     33                39680    14030    1885
     Sum       15841    7909   2065              2539249   897387  120111

     Using Slab Decomposition



     bravais-lattice index     =            0
     lattice parameter (alat)  =      23.9624  a.u.
     unit-cell volume          =   18794.0729 (a.u.)^3
     number of atoms/cell      =           58
     number of atomic types    =            6
     number of electrons       =       485.00 (up: 243.00, down: 242.00)
     number of Kohn-Sham states=          243
     kinetic-energy cutoff     =      50.0000  Ry
     charge density cutoff     =     400.0000  Ry
     scf convergence threshold =      1.0E-10
     mixing beta               =       0.4000
     number of iterations used =            8  plain     mixing
     Exchange-correlation= SLA  PW   PBX  PBC
                           (   1   4   3   4   0   0   0)

     celldm(1)=  23.962422  celldm(2)=   0.000000  celldm(3)=   0.000000
     celldm(4)=   0.000000  celldm(5)=   0.000000  celldm(6)=   0.000000

     crystal axes: (cart. coord. in units of alat)
               a(1) = (   1.000000   0.000000   0.000000 )  
               a(2) = (  -0.500000   0.866025   0.000000 )  
               a(3) = (   0.000000   0.000000   1.577241 )  

     reciprocal axes: (cart. coord. in units 2 pi/alat)
               b(1) = (  1.000000  0.577350 -0.000000 )  
               b(2) = (  0.000000  1.154701  0.000000 )  
               b(3) = (  0.000000 -0.000000  0.634018 )  


     PseudoPot. # 1 for S  read from file:
     /share/work_r640/fmigm008/pseudo/S.pbe-n-kjpaw_psl.1.0.0.UPF
     MD5 check sum: fb45dfebcf3e72a4e1bd4a866ec2e262
     Pseudo is Projector augmented-wave + core cor, Zval =  6.0
     Generated using &quot;atomic&quot; code by A. Dal Corso  v.6.3
     Shape of augmentation charge: PSQ
     Using radial grid of 1151 points,  6 beta functions with: 
                l(1) =   0
                l(2) =   0
                l(3) =   1
                l(4) =   1
                l(5) =   2
                l(6) =   2
     Q(r) pseudized with 0 coefficients 


     PseudoPot. # 2 for W  read from file:
     /share/work_r640/fmigm008/pseudo/W.pbe-spn-kjpaw_psl.1.0.0.UPF
     MD5 check sum: 03c3df5b60893f488392c7401945500a
     Pseudo is Projector augmented-wave + core cor, Zval = 14.0
     Generated using &quot;atomic&quot; code by A. Dal Corso  v.6.2.2
     Shape of augmentation charge: PSQ
     Using radial grid of 1273 points,  6 beta functions with: 
                l(1) =   0
                l(2) =   0
                l(3) =   1
                l(4) =   1
                l(5) =   2
                l(6) =   2
     Q(r) pseudized with 0 coefficients 


     PseudoPot. # 3 for Ag read from file:
     /share/work_r640/fmigm008/pseudo/Ag.pbe-n-kjpaw_psl.1.0.0.UPF
     MD5 check sum: 51099775af2a3182a6a1caffb86952a3
     Pseudo is Projector augmented-wave + core cor, Zval = 11.0
     Generated using &quot;atomic&quot; code by A. Dal Corso  v.6.2.2
     Shape of augmentation charge: PSQ
     Using radial grid of 1237 points,  6 beta functions with: 
                l(1) =   0
                l(2) =   0
                l(3) =   1
                l(4) =   1
                l(5) =   2
                l(6) =   2
     Q(r) pseudized with 0 coefficients 


     PseudoPot. # 4 for N  read from file:
     /share/work_r640/fmigm008/pseudo/N.pbe-n-kjpaw_psl.1.0.0.UPF
     MD5 check sum: 14c48229446f9f2d411169a3abcbc3fa
     Pseudo is Projector augmented-wave + core cor, Zval =  5.0
     Generated using &quot;atomic&quot; code by A. Dal Corso  v.6.3
     Shape of augmentation charge: PSQ
     Using radial grid of 1085 points,  4 beta functions with: 
                l(1) =   0
                l(2) =   0
                l(3) =   1
                l(4) =   1
     Q(r) pseudized with 0 coefficients 


     PseudoPot. # 5 for O  read from file:
     /share/work_r640/fmigm008/pseudo/O.pbe-n-kjpaw_psl.1.0.0.UPF
     MD5 check sum: e99d9cef9b487d1ca56f5b95ecd0fd7a
     Pseudo is Projector augmented-wave + core cor, Zval =  6.0
     Generated using &quot;atomic&quot; code by A. Dal Corso  v.6.3
     Shape of augmentation charge: PSQ
     Using radial grid of 1095 points,  4 beta functions with: 
                l(1) =   0
                l(2) =   0
                l(3) =   1
                l(4) =   1
     Q(r) pseudized with 0 coefficients 


     PseudoPot. # 6 for H  read from file:
     /share/work_r640/fmigm008/pseudo/H.pbe-kjpaw_psl.1.0.0.UPF
     MD5 check sum: d81a744832360e4a8af0b0b5b123bc2a
     Pseudo is Projector augmented-wave, Zval =  1.0
     Generated using &quot;atomic&quot; code by A. Dal Corso  v.6.3MaX
     Shape of augmentation charge: PSQ
     Using radial grid of  929 points,  2 beta functions with: 
                l(1) =   0
                l(2) =   0
     Q(r) pseudized with 0 coefficients 


     atomic species   valence    mass     pseudopotential
     S                 6.00    32.06500     S ( 1.00)
     W                14.00   183.84000     W ( 1.00)
     Ag               11.00   107.87000     Ag( 1.00)
     N                 5.00    14.00700     N ( 1.00)
     O                 6.00    15.99900     O ( 1.00)
     H                 1.00     1.00800     H ( 1.00)

     Starting magnetic structure 
     atomic species   magnetization
     S               0.000
     W               0.000
     Ag              0.000
     N               0.000
     O               0.000
     H               0.000

     No symmetry found


                                    s                        frac. trans.

      isym =  1     identity                                     

 cryst.   s( 1) = (     1          0          0      )
                  (     0          1          0      )
                  (     0          0          1      )

 cart.    s( 1) = (  1.0000000  0.0000000  0.0000000 )
                  (  0.0000000  1.0000000  0.0000000 )
                  (  0.0000000  0.0000000  1.0000000 )


   Cartesian axes

     site n.     atom                  positions (alat units)
         1        W      tau(   1) = (  -0.0028587   0.1395947   0.2444812  )
         2        W      tau(   2) = (  -0.1282026   0.3564836   0.2443568  )
         3        W      tau(   3) = (  -0.2537731   0.5727289   0.2442261  )
         4        W      tau(   4) = (  -0.3783723   0.7888166   0.2441498  )
         5        W      tau(   5) = (   0.2469096   0.1395426   0.2440120  )
         6        W      tau(   6) = (   0.1225026   0.3570726   0.2432304  )
         7        W      tau(   7) = (  -0.0034888   0.5727502   0.2429844  )
         8        W      tau(   8) = (  -0.1283671   0.7891505   0.2439766  )
         9        W      tau(   9) = (   0.4969194   0.1397378   0.2430413  )
        10        W      tau(  10) = (   0.3721499   0.3552416   0.2405337  )
        11        W      tau(  11) = (   0.2452295   0.5727639   0.2402480  )
        12        W      tau(  12) = (   0.1220165   0.7890246   0.2436243  )
        13        W      tau(  13) = (   0.7467445   0.1394449   0.2440642  )
        14        W      tau(  14) = (   0.6211264   0.3563823   0.2436826  )
        15        W      tau(  15) = (   0.4971469   0.5732720   0.2421413  )
        16        W      tau(  16) = (   0.3721785   0.7886524   0.2428338  )
        17        S      tau(  17) = (   0.1219502   0.0672380   0.3684592  )
        18        S      tau(  18) = (  -0.0024014   0.2846735   0.3681910  )
        19        S      tau(  19) = (  -0.1281525   0.5008469   0.3682441  )
        20        S      tau(  20) = (  -0.2533258   0.7170167   0.3685687  )
        21        S      tau(  21) = (   0.3722606   0.0676427   0.3679766  )
        22        S      tau(  22) = (   0.2484890   0.2849851   0.3676532  )
        23        S      tau(  23) = (   0.1218721   0.5017515   0.3660861  )
        24        S      tau(  24) = (  -0.0030403   0.7167922   0.3679041  )
        25        S      tau(  25) = (   0.6215745   0.0674060   0.3678624  )
        26        S      tau(  26) = (   0.4959803   0.2843589   0.3667029  )
        27        S      tau(  27) = (   0.3710177   0.5007270   0.3638206  )
        28        S      tau(  28) = (   0.2481984   0.7153351   0.3669892  )
        29        S      tau(  29) = (   0.8717811   0.0668114   0.3679626  )
        30        S      tau(  30) = (   0.7463862   0.2840842   0.3681041  )
        31        S      tau(  31) = (   0.6195449   0.5004430   0.3687043  )
        32        S      tau(  32) = (   0.4956231   0.7159829   0.3681683  )
        33        S      tau(  33) = (   0.1218639   0.0672424   0.1203644  )
        34        S      tau(  34) = (  -0.0031686   0.2839920   0.1203246  )
        35        S      tau(  35) = (  -0.1290559   0.5005458   0.1199474  )
        36        S      tau(  36) = (  -0.2533637   0.7168463   0.1201865  )
        37        S      tau(  37) = (   0.3715067   0.0672515   0.1197328  )
        38        S      tau(  38) = (   0.2459712   0.2831895   0.1185177  )
        39        S      tau(  39) = (   0.1200987   0.4999851   0.1172124  )
        40        S      tau(  40) = (  -0.0034124   0.7174366   0.1195727  )
        41        S      tau(  41) = (   0.6220409   0.0671938   0.1195919  )
        42        S      tau(  42) = (   0.4978914   0.2834015   0.1177695  )
        43        S      tau(  43) = (   0.3720771   0.5008174   0.1169455  )
        44        S      tau(  44) = (   0.2466393   0.7180153   0.1180007  )
        45        S      tau(  45) = (   0.8722199   0.0680125   0.1199081  )
        46        S      tau(  46) = (   0.7469729   0.2840633   0.1202901  )
        47        S      tau(  47) = (   0.6222799   0.5003741   0.1191499  )
        48        S      tau(  48) = (   0.4972527   0.7176301   0.1185580  )
        49        Ag     tau(  49) = (   0.1547683   0.5150674   0.5753024  )
        50        Ag     tau(  50) = (   0.3069329   0.3595674   0.5464056  )
        51        Ag     tau(  51) = (   0.5024756   0.4743393   0.5615070  )
        52        Ag     tau(  52) = (   0.3399570   0.6321033   0.5430870  )
        53        Ag     tau(  53) = (   0.3428646   0.4953663   0.7084671  )
        54        N      tau(  54) = (   0.2596825   0.4648737   0.8674395  )
        55        O      tau(  55) = (   0.1477385   0.4509631   0.8500100  )
        56        H      tau(  56) = (   0.2650389   0.5218889   0.9229976  )
        57        H      tau(  57) = (   0.1408570   0.4629232   0.7729758  )
        58        H      tau(  58) = (   0.2837088   0.3964009   0.9032094  )

     --------------------------------------------
     DFT-D3 Dispersion Correction (3-body terms):
     --------------------------------------------
       Reference C6 values for interpolation: 

         atom   Coordination number   C6
         H          0.912             6.05
         H          0.000            15.18
         N          0.000            50.54
         N          0.994            44.25
         N          2.014            39.35
         N          2.990            31.16
         O          0.000            31.01
         O          0.993            25.63
         O          1.989            20.74
         S          0.000           268.01
         S          0.995           261.99
         S          1.990           251.62
         Ag         0.000           853.49
         Ag         0.968           537.23
         W          0.000          1628.72
         W          1.929          1086.81
         W         10.915           796.19

       Values used:

         atom   Coordination number  R0_AB[au]  C6      C8
         W          9.805            3.766    796.19 128250.55
         W          9.806            3.766    796.19 128250.55
         W          9.854            3.766    796.19 128250.55
         W          9.866            3.766    796.19 128250.55
         W          9.842            3.766    796.19 128250.55
         W          9.851            3.766    796.19 128250.55
         W          9.870            3.766    796.19 128250.55
         W          9.833            3.766    796.19 128250.55
         W          9.854            3.766    796.19 128250.55
         W          9.880            3.766    796.19 128250.55
         W          9.879            3.766    796.19 128250.55
         W          9.846            3.766    796.19 128250.55
         W          9.811            3.766    796.19 128250.55
         W          9.849            3.766    796.19 128250.55
         W          9.870            3.766    796.19 128250.55
         W          9.855            3.766    796.19 128250.55
         S          3.670            3.128    251.62  12327.25
         S          3.672            3.128    251.62  12327.25
         S          3.679            3.128    251.62  12327.25
         S          3.675            3.128    251.62  12327.25
         S          3.690            3.128    251.62  12327.25
         S          4.579            3.128    251.62  12327.25
         S          4.512            3.128    251.62  12327.25
         S          3.693            3.128    251.62  12327.25
         S          3.676            3.128    251.62  12327.25
         S          3.843            3.128    251.62  12327.25
         S          4.976            3.128    251.62  12327.25
         S          4.443            3.128    251.62  12327.25
         S          3.677            3.128    251.62  12327.25
         S          3.672            3.128    251.62  12327.25
         S          4.198            3.128    251.62  12327.25
         S          3.918            3.128    251.62  12327.25
         S          3.700            3.128    251.62  12327.25
         S          3.699            3.128    251.62  12327.25
         S          3.697            3.128    251.62  12327.25
         S          3.697            3.128    251.62  12327.25
         S          3.689            3.128    251.62  12327.25
         S          3.673            3.128    251.62  12327.25
         S          3.669            3.128    251.62  12327.25
         S          3.689            3.128    251.62  12327.25
         S          3.693            3.128    251.62  12327.25
         S          3.672            3.128    251.62  12327.25
         S          3.662            3.128    251.62  12327.25
         S          3.672            3.128    251.62  12327.25
         S          3.693            3.128    251.62  12327.25
         S          3.697            3.128    251.62  12327.25
         S          3.686            3.128    251.62  12327.25
         S          3.680            3.128    251.62  12327.25
         Ag         3.221            3.147    537.23  47741.54
         Ag         3.973            3.147    537.23  47741.54
         Ag         3.317            3.147    537.23  47741.54
         Ag         4.158            3.147    537.23  47741.54
         Ag         4.123            3.147    537.23  47741.54
         N          3.753            2.478     31.16    687.50
         O          2.001            2.345     20.82    420.12
         H          1.007            2.062      6.17     74.65
         H          1.030            2.062      6.16     74.42
         H          1.007            2.062      6.18     74.65

         Molecular C6 ( Ry / a.u.^6 ) =   1190031.04


   Crystallographic axes

     site n.     atom                  positions (cryst. coord.)
         1        W      tau(   1) = (  0.0777364  0.1611901  0.1550056  )
         2        W      tau(   2) = (  0.0776133  0.4116318  0.1549267  )
         3        W      tau(   3) = (  0.0768921  0.6613303  0.1548438  )
         4        W      tau(   4) = (  0.0770512  0.9108469  0.1547955  )
         5        W      tau(   5) = (  0.3274746  0.1611299  0.1547081  )
         6        W      tau(   6) = (  0.3286586  0.4123119  0.1542125  )
         7        W      tau(   7) = (  0.3271886  0.6613549  0.1540566  )
         8        W      tau(   8) = (  0.3272492  0.9112326  0.1546856  )
         9        W      tau(   9) = (  0.5775970  0.1613553  0.1540926  )
        10        W      tau(  10) = (  0.5772488  0.4101977  0.1525028  )
        11        W      tau(  11) = (  0.5759149  0.6613708  0.1523217  )
        12        W      tau(  12) = (  0.5775601  0.9110871  0.1544623  )
        13        W      tau(  13) = (  0.8272530  0.1610171  0.1547412  )
        14        W      tau(  14) = (  0.8268839  0.4115149  0.1544993  )
        15        W      tau(  15) = (  0.8281256  0.6619575  0.1535220  )
        16        W      tau(  16) = (  0.8275072  0.9106573  0.1539611  )
        17        S      tau(  17) = (  0.1607701  0.0776397  0.2336099  )
        18        S      tau(  18) = (  0.1619549  0.3287126  0.2334399  )
        19        S      tau(  19) = (  0.1610116  0.5783281  0.2334735  )
        20        S      tau(  20) = (  0.1606439  0.8279395  0.2336794  )
        21        S      tau(  21) = (  0.4113141  0.0781070  0.2333040  )
        22        S      tau(  22) = (  0.4130252  0.3290725  0.2330989  )
        23        S      tau(  23) = (  0.4115585  0.5793727  0.2321053  )
        24        S      tau(  24) = (  0.4107998  0.8276803  0.2332579  )
        25        S      tau(  25) = (  0.6604913  0.0778337  0.2332315  )
        26        S      tau(  26) = (  0.6601550  0.3283494  0.2324963  )
        27        S      tau(  27) = (  0.6601125  0.5781897  0.2306689  )
        28        S      tau(  28) = (  0.6611973  0.8259978  0.2326779  )
        29        S      tau(  29) = (  0.9103547  0.0771472  0.2332950  )
        30        S      tau(  30) = (  0.9104023  0.3280322  0.2333848  )
        31        S      tau(  31) = (  0.9084758  0.5778618  0.2337653  )
        32        S      tau(  32) = (  0.9089960  0.8267459  0.2334255  )
        33        S      tau(  33) = (  0.1606863  0.0776448  0.0763132  )
        34        S      tau(  34) = (  0.1607942  0.3279257  0.0762880  )
        35        S      tau(  35) = (  0.1599344  0.5779805  0.0760488  )
        36        S      tau(  36) = (  0.1605077  0.8277428  0.0762004  )
        37        S      tau(  37) = (  0.4103343  0.0776554  0.0759128  )
        38        S      tau(  38) = (  0.4094707  0.3269991  0.0751424  )
        39        S      tau(  39) = (  0.4087652  0.5773330  0.0743148  )
        40        S      tau(  40) = (  0.4107999  0.8284245  0.0758113  )
        41        S      tau(  41) = (  0.6608352  0.0775887  0.0758235  )
        42        S      tau(  42) = (  0.6615133  0.3272438  0.0746680  )
        43        S      tau(  43) = (  0.6612241  0.5782941  0.0741456  )
        44        S      tau(  44) = (  0.6611856  0.8290927  0.0748146  )
        45        S      tau(  45) = (  0.9114869  0.0785340  0.0760239  )
        46        S      tau(  46) = (  0.9109769  0.3280081  0.0762661  )
        47        S      tau(  47) = (  0.9111710  0.5777822  0.0755432  )
        48        S      tau(  48) = (  0.9115766  0.8286478  0.0751680  )
        49        Ag     tau(  49) = (  0.4521427  0.5947486  0.3647523  )
        50        Ag     tau(  50) = (  0.5145293  0.4151927  0.3464312  )
        51        Ag     tau(  51) = (  0.7763355  0.5477198  0.3560058  )
        52        Ag     tau(  52) = (  0.7049020  0.7298900  0.3443271  )
        53        Ag     tau(  53) = (  0.6288645  0.5719998  0.4491812  )
        54        N      tau(  54) = (  0.5280775  0.5367899  0.5499726  )
        55        O      tau(  55) = (  0.4081021  0.5207274  0.5389220  )
        56        H      tau(  56) = (  0.5663516  0.6026254  0.5851974  )
        57        H      tau(  57) = (  0.4081259  0.5345377  0.4900809  )
        58        H      tau(  58) = (  0.5125710  0.4577243  0.5726514  )

     number of k points=    13
                       cart. coord. in units 2pi/alat
        k(    1) = (   0.0000000   0.0000000   0.0000000), wk =   0.0400000
        k(    2) = (   0.0000000   0.2309401   0.0000000), wk =   0.0800000
        k(    3) = (   0.0000000   0.4618802   0.0000000), wk =   0.0800000
        k(    4) = (   0.2000000   0.3464102   0.0000000), wk =   0.0800000
        k(    5) = (   0.2000000   0.5773503   0.0000000), wk =   0.0800000
        k(    6) = (  -0.2000000   0.1154701   0.0000000), wk =   0.0800000
        k(    7) = (   0.2000000   0.1154701   0.0000000), wk =   0.0800000
        k(    8) = (  -0.4000000   0.2309401   0.0000000), wk =   0.0800000
        k(    9) = (   0.4000000   0.2309401   0.0000000), wk =   0.0800000
        k(   10) = (  -0.2000000   0.3464102   0.0000000), wk =   0.0800000
        k(   11) = (   0.4000000  -0.0000000   0.0000000), wk =   0.0800000
        k(   12) = (  -0.4000000   0.4618802   0.0000000), wk =   0.0800000
        k(   13) = (   0.6000000   0.1154701   0.0000000), wk =   0.0800000

                       cryst. coord.
        k(    1) = (   0.0000000   0.0000000   0.0000000), wk =   0.0400000
        k(    2) = (   0.0000000   0.2000000   0.0000000), wk =   0.0800000
        k(    3) = (   0.0000000   0.4000000   0.0000000), wk =   0.0800000
        k(    4) = (   0.2000000   0.2000000   0.0000000), wk =   0.0800000
        k(    5) = (   0.2000000   0.4000000   0.0000000), wk =   0.0800000
        k(    6) = (  -0.2000000   0.2000000   0.0000000), wk =   0.0800000
        k(    7) = (   0.2000000   0.0000000   0.0000000), wk =   0.0800000
        k(    8) = (  -0.4000000   0.4000000   0.0000000), wk =   0.0800000
        k(    9) = (   0.4000000   0.0000000   0.0000000), wk =   0.0800000
        k(   10) = (  -0.2000000   0.4000000   0.0000000), wk =   0.0800000
        k(   11) = (   0.4000000  -0.2000000   0.0000000), wk =   0.0800000
        k(   12) = (  -0.4000000   0.6000000   0.0000000), wk =   0.0800000
        k(   13) = (   0.6000000  -0.2000000   0.0000000), wk =   0.0800000

     Dense  grid:  2539249 G-vectors     FFT dimensions: ( 160, 160, 243)

     Smooth grid:   897387 G-vectors     FFT dimensions: ( 108, 108, 180)

     Dynamical RAM for                 wfc:       6.50 MB

     Dynamical RAM for     wfc (w. buffer):     175.50 MB

     Dynamical RAM for           str. fact:       3.63 MB

     Dynamical RAM for           local pot:       0.00 MB

     Dynamical RAM for          nlocal pot:      26.11 MB

     Dynamical RAM for                qrad:       9.63 MB

     Dynamical RAM for          rho,v,vnew:       8.32 MB

     Dynamical RAM for               rhoin:       2.77 MB

     Dynamical RAM for            rho*nmix:      19.38 MB

     Dynamical RAM for           G-vectors:       2.38 MB

     Dynamical RAM for          h,s,v(r/c):       2.70 MB

     Dynamical RAM for          <psi|beta>:       3.62 MB

     Dynamical RAM for                 psi:      13.00 MB

     Dynamical RAM for                hpsi:      13.00 MB

     Dynamical RAM for                spsi:      13.00 MB

     Dynamical RAM for      wfcinit/wfcrot:      14.35 MB

     Dynamical RAM for           addusdens:     132.60 MB

     Dynamical RAM for          addusforce:     170.39 MB

     Dynamical RAM for         addusstress:     122.61 MB

     Estimated static dynamical RAM per process >     237.27 MB

     Estimated max dynamical RAM per process >     427.03 MB

     Estimated total dynamical RAM >      26.69 GB
     Generating pointlists ...
     new r_m :   0.0782 (alat units)  1.8731 (a.u.) for type    1
     new r_m :   0.0782 (alat units)  1.8731 (a.u.) for type    2
     new r_m :   0.0751 (alat units)  1.7989 (a.u.) for type    3
     new r_m :   0.0329 (alat units)  0.7887 (a.u.) for type    4
     new r_m :   0.0323 (alat units)  0.7736 (a.u.) for type    5
     new r_m :   0.0323 (alat units)  0.7736 (a.u.) for type    6

     Initial potential from superposition of free atoms

     starting charge     484.9880, renormalised to     485.0000

     negative rho (up, down):  1.010E-03 1.010E-03
     Starting wfcs are  392 randomized atomic wfcs
     Checking if some PAW data can be deallocated... 
       PAW data deallocated on   32 nodes for type:  1
       PAW data deallocated on   42 nodes for type:  2
       PAW data deallocated on   59 nodes for type:  3
       PAW data deallocated on   63 nodes for type:  4
       PAW data deallocated on   63 nodes for type:  5
       PAW data deallocated on   61 nodes for type:  6

     total cpu time spent up to now is      165.8 secs

     per-process dynamical memory:   308.7 Mb

     Self-consistent Calculation

     iteration #  1     ecut=    50.00 Ry     beta= 0.40
     Davidson diagonalization with overlap

---- Real-time Memory Report at c_bands before calling an iterative solver
           365 MiB given to the printing process from OS
           301 MiB allocation reported by mallinfo(arena+hblkhd)
         22904 MiB available memory on the node where the printing process lives
------------------
     ethr =  1.00E-02,  avg # of iterations =  2.0

     Threshold (ethr) on eigenvalues was too large:
     Diagonalizing with lowered threshold

     Davidson diagonalization with overlap

---- Real-time Memory Report at c_bands before calling an iterative solver
           470 MiB given to the printing process from OS
           304 MiB allocation reported by mallinfo(arena+hblkhd)
         18533 MiB available memory on the node where the printing process lives
------------------
     ethr =  4.34E-04,  avg # of iterations =  4.8

     negative rho (up, down):  1.026E-02 6.711E-03

     total cpu time spent up to now is      826.7 secs

     total energy              =  -16138.22527370 Ry
     estimated scf accuracy    <       2.44461792 Ry

     total magnetization       =     1.00 Bohr mag/cell
     absolute magnetization    =     4.14 Bohr mag/cell

     iteration #  2     ecut=    50.00 Ry     beta= 0.40
     Davidson diagonalization with overlap

---- Real-time Memory Report at c_bands before calling an iterative solver
           478 MiB given to the printing process from OS
           311 MiB allocation reported by mallinfo(arena+hblkhd)
         19192 MiB available memory on the node where the printing process lives
------------------
     ethr =  5.04E-04,  avg # of iterations =  7.3

     negative rho (up, down):  3.217E-02 2.302E-02

     total cpu time spent up to now is     1177.5 secs

     total energy              =  -16138.44656346 Ry
     estimated scf accuracy    <       0.41280677 Ry

     total magnetization       =     1.00 Bohr mag/cell
     absolute magnetization    =     3.05 Bohr mag/cell

     iteration #  3     ecut=    50.00 Ry     beta= 0.40
     Davidson diagonalization with overlap

---- Real-time Memory Report at c_bands before calling an iterative solver
           480 MiB given to the printing process from OS
           313 MiB allocation reported by mallinfo(arena+hblkhd)
         17037 MiB available memory on the node where the printing process lives
------------------
     ethr =  8.51E-05,  avg # of iterations =  8.4

     negative rho (up, down):  3.681E-02 2.749E-02

     total cpu time spent up to now is     1542.1 secs

     total energy              =  -16138.51404949 Ry
     estimated scf accuracy    <       0.22204475 Ry

     total magnetization       =     1.00 Bohr mag/cell
     absolute magnetization    =     2.37 Bohr mag/cell

     iteration #  4     ecut=    50.00 Ry     beta= 0.40
     Davidson diagonalization with overlap

---- Real-time Memory Report at c_bands before calling an iterative solver
           482 MiB given to the printing process from OS
           314 MiB allocation reported by mallinfo(arena+hblkhd)
         20748 MiB available memory on the node where the printing process lives
------------------
     ethr =  4.58E-05,  avg # of iterations =  9.8

     negative rho (up, down):  3.080E-02 2.395E-02

     total cpu time spent up to now is     1876.7 secs

     total energy              =  -16138.54465952 Ry
     estimated scf accuracy    <       0.05179511 Ry

     total magnetization       =     1.00 Bohr mag/cell
     absolute magnetization    =     1.98 Bohr mag/cell

     iteration #  5     ecut=    50.00 Ry     beta= 0.40
     Davidson diagonalization with overlap

---- Real-time Memory Report at c_bands before calling an iterative solver
           510 MiB given to the printing process from OS
           347 MiB allocation reported by mallinfo(arena+hblkhd)
         20272 MiB available memory on the node where the printing process lives
------------------
     ethr =  1.07E-05,  avg # of iterations =  7.3

     negative rho (up, down):  2.108E-02 1.673E-02

     total cpu time spent up to now is     2224.3 secs

     total energy              =  -16138.54976397 Ry
     estimated scf accuracy    <       0.03161114 Ry

     total magnetization       =     1.00 Bohr mag/cell
     absolute magnetization    =     1.71 Bohr mag/cell

     iteration #  6     ecut=    50.00 Ry     beta= 0.40
     Davidson diagonalization with overlap

---- Real-time Memory Report at c_bands before calling an iterative solver
           515 MiB given to the printing process from OS
           348 MiB allocation reported by mallinfo(arena+hblkhd)
         19684 MiB available memory on the node where the printing process lives
------------------
     ethr =  6.52E-06,  avg # of iterations =  7.3

     negative rho (up, down):  1.382E-02 1.142E-02

     total cpu time spent up to now is     2548.5 secs

     total energy              =  -16138.55292094 Ry
     estimated scf accuracy    <       0.01661059 Ry

     total magnetization       =     1.00 Bohr mag/cell
     absolute magnetization    =     1.48 Bohr mag/cell

     iteration #  7     ecut=    50.00 Ry     beta= 0.40
     Davidson diagonalization with overlap

---- Real-time Memory Report at c_bands before calling an iterative solver
           515 MiB given to the printing process from OS
           350 MiB allocation reported by mallinfo(arena+hblkhd)
         18168 MiB available memory on the node where the printing process lives
------------------
     ethr =  3.42E-06,  avg # of iterations =  5.5

     negative rho (up, down):  2.005E-02 2.060E-02

     total cpu time spent up to now is     2849.8 secs

     total energy              =  -16138.55151226 Ry
     estimated scf accuracy    <       0.00829385 Ry

     total magnetization       =     1.00 Bohr mag/cell
     absolute magnetization    =     1.33 Bohr mag/cell

     iteration #  8     ecut=    50.00 Ry     beta= 0.40
     Davidson diagonalization with overlap

---- Real-time Memory Report at c_bands before calling an iterative solver
           517 MiB given to the printing process from OS
           351 MiB allocation reported by mallinfo(arena+hblkhd)
         18532 MiB available memory on the node where the printing process lives
------------------
     ethr =  1.71E-06,  avg # of iterations =  8.1

     negative rho (up, down):  2.105E-02 2.220E-02

     total cpu time spent up to now is     3155.1 secs

     total energy              =  -16138.55117934 Ry
     estimated scf accuracy    <       0.00222206 Ry

     total magnetization       =     1.00 Bohr mag/cell
     absolute magnetization    =     1.22 Bohr mag/cell

     iteration #  9     ecut=    50.00 Ry     beta= 0.40
     Davidson diagonalization with overlap

---- Real-time Memory Report at c_bands before calling an iterative solver
           517 MiB given to the printing process from OS
           351 MiB allocation reported by mallinfo(arena+hblkhd)
         17750 MiB available memory on the node where the printing process lives
------------------
     ethr =  4.58E-07,  avg # of iterations =  8.0

     negative rho (up, down):  1.517E-02 1.610E-02

     total cpu time spent up to now is     3510.0 secs

     total energy              =  -16138.55312443 Ry
     estimated scf accuracy    <       0.00049391 Ry

     total magnetization       =     1.00 Bohr mag/cell
     absolute magnetization    =     1.17 Bohr mag/cell

     iteration # 10     ecut=    50.00 Ry     beta= 0.40
     Davidson diagonalization with overlap

---- Real-time Memory Report at c_bands before calling an iterative solver
           518 MiB given to the printing process from OS
           352 MiB allocation reported by mallinfo(arena+hblkhd)
         20713 MiB available memory on the node where the printing process lives
------------------
     ethr =  1.02E-07,  avg # of iterations =  7.0

     negative rho (up, down):  1.091E-02 1.167E-02

     total cpu time spent up to now is     3876.7 secs

     total energy              =  -16138.55420178 Ry
     estimated scf accuracy    <       0.00015981 Ry

     total magnetization       =     1.00 Bohr mag/cell
     absolute magnetization    =     1.15 Bohr mag/cell

     iteration # 11     ecut=    50.00 Ry     beta= 0.40
     Davidson diagonalization with overlap

---- Real-time Memory Report at c_bands before calling an iterative solver
           521 MiB given to the printing process from OS
           354 MiB allocation reported by mallinfo(arena+hblkhd)
         18353 MiB available memory on the node where the printing process lives
------------------
     ethr =  3.30E-08,  avg # of iterations =  7.8

     negative rho (up, down):  7.915E-03 8.519E-03

     total cpu time spent up to now is     4269.4 secs

     total energy              =  -16138.55478453 Ry
     estimated scf accuracy    <       0.00010795 Ry

     total magnetization       =     1.00 Bohr mag/cell
     absolute magnetization    =     1.14 Bohr mag/cell

     iteration # 12     ecut=    50.00 Ry     beta= 0.40
     Davidson diagonalization with overlap

---- Real-time Memory Report at c_bands before calling an iterative solver
           521 MiB given to the printing process from OS
           354 MiB allocation reported by mallinfo(arena+hblkhd)
         19656 MiB available memory on the node where the printing process lives
------------------
     ethr =  2.23E-08,  avg # of iterations =  6.5

     negative rho (up, down):  6.027E-03 6.492E-03

     total cpu time spent up to now is     4623.5 secs

     total energy              =  -16138.55505533 Ry
     estimated scf accuracy    <       0.00002943 Ry

     total magnetization       =     1.00 Bohr mag/cell
     absolute magnetization    =     1.13 Bohr mag/cell

     iteration # 13     ecut=    50.00 Ry     beta= 0.40
     Davidson diagonalization with overlap

---- Real-time Memory Report at c_bands before calling an iterative solver
           521 MiB given to the printing process from OS
           354 MiB allocation reported by mallinfo(arena+hblkhd)
         16595 MiB available memory on the node where the printing process lives
------------------
     ethr =  6.07E-09,  avg # of iterations =  7.0

     negative rho (up, down):  5.191E-03 5.596E-03

     total cpu time spent up to now is     4994.9 secs

     total energy              =  -16138.55515059 Ry
     estimated scf accuracy    <       0.00001500 Ry

     total magnetization       =     1.00 Bohr mag/cell
     absolute magnetization    =     1.12 Bohr mag/cell

     iteration # 14     ecut=    50.00 Ry     beta= 0.40
     Davidson diagonalization with overlap

---- Real-time Memory Report at c_bands before calling an iterative solver
           521 MiB given to the printing process from OS
           354 MiB allocation reported by mallinfo(arena+hblkhd)
         19032 MiB available memory on the node where the printing process lives
------------------
     ethr =  3.09E-09,  avg # of iterations =  2.0

     negative rho (up, down):  4.863E-03 5.242E-03

     total cpu time spent up to now is     5274.9 secs

     total energy              =  -16138.55518786 Ry
     estimated scf accuracy    <       0.00001063 Ry

     total magnetization       =     1.00 Bohr mag/cell
     absolute magnetization    =     1.12 Bohr mag/cell

     iteration # 15     ecut=    50.00 Ry     beta= 0.40
     Davidson diagonalization with overlap

---- Real-time Memory Report at c_bands before calling an iterative solver
           521 MiB given to the printing process from OS
           354 MiB allocation reported by mallinfo(arena+hblkhd)
         16634 MiB available memory on the node where the printing process lives
------------------
     ethr =  2.19E-09,  avg # of iterations =  2.0

     negative rho (up, down):  4.884E-03 5.255E-03

     total cpu time spent up to now is     5536.7 secs

     total energy              =  -16138.55518659 Ry
     estimated scf accuracy    <       0.00000971 Ry

     total magnetization       =     1.00 Bohr mag/cell
     absolute magnetization    =     1.12 Bohr mag/cell

     iteration # 16     ecut=    50.00 Ry     beta= 0.40
     Davidson diagonalization with overlap

---- Real-time Memory Report at c_bands before calling an iterative solver
           521 MiB given to the printing process from OS
           354 MiB allocation reported by mallinfo(arena+hblkhd)
         18674 MiB available memory on the node where the printing process lives
------------------
     ethr =  2.00E-09,  avg # of iterations =  1.3

     negative rho (up, down):  4.814E-03 5.184E-03

     total cpu time spent up to now is     5790.3 secs

     total energy              =  -16138.55519345 Ry
     estimated scf accuracy    <       0.00001228 Ry

     total magnetization       =     1.00 Bohr mag/cell
     absolute magnetization    =     1.12 Bohr mag/cell

     iteration # 17     ecut=    50.00 Ry     beta= 0.40
     Davidson diagonalization with overlap

---- Real-time Memory Report at c_bands before calling an iterative solver
           521 MiB given to the printing process from OS
           354 MiB allocation reported by mallinfo(arena+hblkhd)
         19817 MiB available memory on the node where the printing process lives
------------------
     ethr =  2.00E-09,  avg # of iterations =  7.0

     negative rho (up, down):  5.047E-03 5.430E-03

     total cpu time spent up to now is     6194.8 secs

     total energy              =  -16138.55516810 Ry
     estimated scf accuracy    <       0.00002335 Ry

     total magnetization       =     1.00 Bohr mag/cell
     absolute magnetization    =     1.12 Bohr mag/cell

     iteration # 18     ecut=    50.00 Ry     beta= 0.40
     Davidson diagonalization with overlap

---- Real-time Memory Report at c_bands before calling an iterative solver
           522 MiB given to the printing process from OS
           355 MiB allocation reported by mallinfo(arena+hblkhd)
         16416 MiB available memory on the node where the printing process lives
------------------
     ethr =  2.00E-09,  avg # of iterations =  7.5

     negative rho (up, down):  5.337E-03 5.736E-03

     total cpu time spent up to now is     6512.4 secs

     total energy              =  -16138.55513997 Ry
     estimated scf accuracy    <       0.00001245 Ry

     total magnetization       =     1.00 Bohr mag/cell
     absolute magnetization    =     1.12 Bohr mag/cell

     iteration # 19     ecut=    50.00 Ry     beta= 0.40
     Davidson diagonalization with overlap

---- Real-time Memory Report at c_bands before calling an iterative solver
           522 MiB given to the printing process from OS
           355 MiB allocation reported by mallinfo(arena+hblkhd)
         16029 MiB available memory on the node where the printing process lives
------------------
     ethr =  2.00E-09,  avg # of iterations =  6.0

     negative rho (up, down):  5.423E-03 5.830E-03

     total cpu time spent up to now is     6833.9 secs

     total energy              =  -16138.55513247 Ry
     estimated scf accuracy    <       0.00001165 Ry

     total magnetization       =     1.00 Bohr mag/cell
     absolute magnetization    =     1.12 Bohr mag/cell

     iteration # 20     ecut=    50.00 Ry     beta= 0.40
     Davidson diagonalization with overlap

---- Real-time Memory Report at c_bands before calling an iterative solver
           522 MiB given to the printing process from OS
           355 MiB allocation reported by mallinfo(arena+hblkhd)
         17164 MiB available memory on the node where the printing process lives
------------------
     ethr =  2.00E-09,  avg # of iterations =  1.0

     negative rho (up, down):  5.388E-03 5.795E-03

     total cpu time spent up to now is     7082.5 secs

     total energy              =  -16138.55513571 Ry
     estimated scf accuracy    <       0.00001034 Ry

     total magnetization       =     1.00 Bohr mag/cell
     absolute magnetization    =     1.12 Bohr mag/cell

     iteration # 21     ecut=    50.00 Ry     beta= 0.40
     Davidson diagonalization with overlap

---- Real-time Memory Report at c_bands before calling an iterative solver
           522 MiB given to the printing process from OS
           355 MiB allocation reported by mallinfo(arena+hblkhd)
         15877 MiB available memory on the node where the printing process lives
------------------
     ethr =  2.00E-09,  avg # of iterations =  1.0

     negative rho (up, down):  5.291E-03 5.690E-03

     total cpu time spent up to now is     7330.7 secs

     total energy              =  -16138.55514502 Ry
     estimated scf accuracy    <       0.00000790 Ry

     total magnetization       =     1.00 Bohr mag/cell
     absolute magnetization    =     1.12 Bohr mag/cell

     iteration # 22     ecut=    50.00 Ry     beta= 0.40
     Davidson diagonalization with overlap

---- Real-time Memory Report at c_bands before calling an iterative solver
           522 MiB given to the printing process from OS
           355 MiB allocation reported by mallinfo(arena+hblkhd)
         16021 MiB available memory on the node where the printing process lives
------------------
     ethr =  1.63E-09,  avg # of iterations =  1.8

     negative rho (up, down):  5.275E-03 5.675E-03

     total cpu time spent up to now is     7590.7 secs

     total energy              =  -16138.55514656 Ry
     estimated scf accuracy    <       0.00000586 Ry

     total magnetization       =     1.00 Bohr mag/cell
     absolute magnetization    =     1.12 Bohr mag/cell

     iteration # 23     ecut=    50.00 Ry     beta= 0.40
     Davidson diagonalization with overlap

---- Real-time Memory Report at c_bands before calling an iterative solver
           522 MiB given to the printing process from OS
           355 MiB allocation reported by mallinfo(arena+hblkhd)
         19632 MiB available memory on the node where the printing process lives
------------------
     ethr =  1.21E-09,  avg # of iterations =  1.0

     negative rho (up, down):  5.292E-03 5.692E-03

     total cpu time spent up to now is     7838.7 secs

     total energy              =  -16138.55514491 Ry
     estimated scf accuracy    <       0.00000532 Ry

     total magnetization       =     1.00 Bohr mag/cell
     absolute magnetization    =     1.12 Bohr mag/cell

     iteration # 24     ecut=    50.00 Ry     beta= 0.40
     Davidson diagonalization with overlap

---- Real-time Memory Report at c_bands before calling an iterative solver
           522 MiB given to the printing process from OS
           355 MiB allocation reported by mallinfo(arena+hblkhd)
         18120 MiB available memory on the node where the printing process lives
------------------
     ethr =  1.10E-09,  avg # of iterations =  1.0

     negative rho (up, down):  4.827E-03 5.197E-03

     total cpu time spent up to now is     8087.3 secs

     total energy              =  -16138.55519318 Ry
     estimated scf accuracy    <       0.00000522 Ry

     total magnetization       =     1.00 Bohr mag/cell
     absolute magnetization    =     1.12 Bohr mag/cell

     iteration # 25     ecut=    50.00 Ry     beta= 0.40
     Davidson diagonalization with overlap

---- Real-time Memory Report at c_bands before calling an iterative solver
           522 MiB given to the printing process from OS
           355 MiB allocation reported by mallinfo(arena+hblkhd)
         18030 MiB available memory on the node where the printing process lives
------------------
     ethr =  1.08E-09,  avg # of iterations =  7.5

     negative rho (up, down):  4.815E-03 5.180E-03

     total cpu time spent up to now is     8468.9 secs

     total energy              =  -16138.55519179 Ry
     estimated scf accuracy    <       0.00001524 Ry

     total magnetization       =     1.00 Bohr mag/cell
     absolute magnetization    =     1.12 Bohr mag/cell

     iteration # 26     ecut=    50.00 Ry     beta= 0.40
     Davidson diagonalization with overlap

---- Real-time Memory Report at c_bands before calling an iterative solver
           522 MiB given to the printing process from OS
           355 MiB allocation reported by mallinfo(arena+hblkhd)
         15378 MiB available memory on the node where the printing process lives
------------------
     ethr =  1.08E-09,  avg # of iterations =  6.7

     negative rho (up, down):  4.810E-03 5.179E-03

     total cpu time spent up to now is     8872.9 secs

     total energy              =  -16138.55519398 Ry
     estimated scf accuracy    <       0.00000319 Ry

     total magnetization       =     1.00 Bohr mag/cell
     absolute magnetization    =     1.12 Bohr mag/cell

     iteration # 27     ecut=    50.00 Ry     beta= 0.40
     Davidson diagonalization with overlap

---- Real-time Memory Report at c_bands before calling an iterative solver
           522 MiB given to the printing process from OS
           355 MiB allocation reported by mallinfo(arena+hblkhd)
         19753 MiB available memory on the node where the printing process lives
------------------
     ethr =  6.58E-10,  avg # of iterations =  7.9

     negative rho (up, down):  4.816E-03 5.185E-03

     total cpu time spent up to now is     9238.1 secs

     total energy              =  -16138.55519329 Ry
     estimated scf accuracy    <       0.00000121 Ry

     total magnetization       =     1.00 Bohr mag/cell
     absolute magnetization    =     1.12 Bohr mag/cell

     iteration # 28     ecut=    50.00 Ry     beta= 0.40
     Davidson diagonalization with overlap

---- Real-time Memory Report at c_bands before calling an iterative solver
           522 MiB given to the printing process from OS
           355 MiB allocation reported by mallinfo(arena+hblkhd)
         17586 MiB available memory on the node where the printing process lives
------------------
     ethr =  2.49E-10,  avg # of iterations =  7.7

     negative rho (up, down):  4.803E-03 5.171E-03

     total cpu time spent up to now is     9606.0 secs

     total energy              =  -16138.55519497 Ry
     estimated scf accuracy    <       0.00000087 Ry

     total magnetization       =     1.00 Bohr mag/cell
     absolute magnetization    =     1.12 Bohr mag/cell

     iteration # 29     ecut=    50.00 Ry     beta= 0.40
     Davidson diagonalization with overlap

---- Real-time Memory Report at c_bands before calling an iterative solver
           522 MiB given to the printing process from OS
           355 MiB allocation reported by mallinfo(arena+hblkhd)
         18367 MiB available memory on the node where the printing process lives
------------------
     ethr =  1.79E-10,  avg # of iterations =  2.0

     negative rho (up, down):  4.800E-03 5.168E-03

     total cpu time spent up to now is     9873.4 secs

     total energy              =  -16138.55519515 Ry
     estimated scf accuracy    <       0.00000054 Ry

     total magnetization       =     1.00 Bohr mag/cell
     absolute magnetization    =     1.12 Bohr mag/cell

     iteration # 30     ecut=    50.00 Ry     beta= 0.40
     Davidson diagonalization with overlap

---- Real-time Memory Report at c_bands before calling an iterative solver
           522 MiB given to the printing process from OS
           355 MiB allocation reported by mallinfo(arena+hblkhd)
         18919 MiB available memory on the node where the printing process lives
------------------
     ethr =  1.12E-10,  avg # of iterations =  7.6

     negative rho (up, down):  4.799E-03 5.167E-03

     total cpu time spent up to now is    10230.2 secs

     total energy              =  -16138.55519524 Ry
     estimated scf accuracy    <       0.00000012 Ry

     total magnetization       =     1.00 Bohr mag/cell
     absolute magnetization    =     1.12 Bohr mag/cell

     iteration # 31     ecut=    50.00 Ry     beta= 0.40
     Davidson diagonalization with overlap

---- Real-time Memory Report at c_bands before calling an iterative solver
           522 MiB given to the printing process from OS
           355 MiB allocation reported by mallinfo(arena+hblkhd)
         17553 MiB available memory on the node where the printing process lives
------------------
     ethr =  2.45E-11,  avg # of iterations =  4.7

     negative rho (up, down):  4.798E-03 5.166E-03

     total cpu time spent up to now is    10554.1 secs

     total energy              =  -16138.55519522 Ry
     estimated scf accuracy    <       0.00000006 Ry

     total magnetization       =     1.00 Bohr mag/cell
     absolute magnetization    =     1.12 Bohr mag/cell

     iteration # 32     ecut=    50.00 Ry     beta= 0.40
     Davidson diagonalization with overlap

---- Real-time Memory Report at c_bands before calling an iterative solver
           522 MiB given to the printing process from OS
           355 MiB allocation reported by mallinfo(arena+hblkhd)
         17656 MiB available memory on the node where the printing process lives
------------------
     ethr =  1.21E-11,  avg # of iterations =  7.0

     negative rho (up, down):  4.798E-03 5.166E-03

     total cpu time spent up to now is    10893.0 secs

     total energy              =  -16138.55519525 Ry
     estimated scf accuracy    <          9.4E-09 Ry

     total magnetization       =     1.00 Bohr mag/cell
     absolute magnetization    =     1.12 Bohr mag/cell

     iteration # 33     ecut=    50.00 Ry     beta= 0.40
     Davidson diagonalization with overlap

---- Real-time Memory Report at c_bands before calling an iterative solver
           522 MiB given to the printing process from OS
           355 MiB allocation reported by mallinfo(arena+hblkhd)
         17728 MiB available memory on the node where the printing process lives
------------------
     ethr =  1.94E-12,  avg # of iterations =  6.4

     negative rho (up, down):  4.798E-03 5.166E-03

     total cpu time spent up to now is    11231.8 secs

     total energy              =  -16138.55519526 Ry
     estimated scf accuracy    <          5.7E-09 Ry

     total magnetization       =     1.00 Bohr mag/cell
     absolute magnetization    =     1.12 Bohr mag/cell

     iteration # 34     ecut=    50.00 Ry     beta= 0.40
     Davidson diagonalization with overlap

---- Real-time Memory Report at c_bands before calling an iterative solver
           522 MiB given to the printing process from OS
           355 MiB allocation reported by mallinfo(arena+hblkhd)
         18895 MiB available memory on the node where the printing process lives
------------------
     ethr =  1.18E-12,  avg # of iterations =  2.0

     negative rho (up, down):  4.798E-03 5.166E-03

     total cpu time spent up to now is    11504.6 secs

     total energy              =  -16138.55519527 Ry
     estimated scf accuracy    <          3.0E-09 Ry

     total magnetization       =     1.00 Bohr mag/cell
     absolute magnetization    =     1.12 Bohr mag/cell

     iteration # 35     ecut=    50.00 Ry     beta= 0.40
     Davidson diagonalization with overlap

---- Real-time Memory Report at c_bands before calling an iterative solver
           522 MiB given to the printing process from OS
           355 MiB allocation reported by mallinfo(arena+hblkhd)
         16562 MiB available memory on the node where the printing process lives
------------------
     ethr =  6.19E-13,  avg # of iterations =  7.2

     negative rho (up, down):  4.797E-03 5.165E-03

     total cpu time spent up to now is    11882.5 secs

     total energy              =  -16138.55519527 Ry
     estimated scf accuracy    <          1.1E-09 Ry

     total magnetization       =     1.00 Bohr mag/cell
     absolute magnetization    =     1.12 Bohr mag/cell

     iteration # 36     ecut=    50.00 Ry     beta= 0.40
     Davidson diagonalization with overlap

---- Real-time Memory Report at c_bands before calling an iterative solver
           522 MiB given to the printing process from OS
           355 MiB allocation reported by mallinfo(arena+hblkhd)
         16341 MiB available memory on the node where the printing process lives
------------------
     ethr =  2.17E-13,  avg # of iterations =  5.5

     negative rho (up, down):  4.797E-03 5.165E-03

     total cpu time spent up to now is    12211.4 secs

     total energy              =  -16138.55519527 Ry
     estimated scf accuracy    <          6.6E-10 Ry

     total magnetization       =     1.00 Bohr mag/cell
     absolute magnetization    =     1.12 Bohr mag/cell

     iteration # 37     ecut=    50.00 Ry     beta= 0.40
     Davidson diagonalization with overlap

---- Real-time Memory Report at c_bands before calling an iterative solver
           522 MiB given to the printing process from OS
           355 MiB allocation reported by mallinfo(arena+hblkhd)
         19976 MiB available memory on the node where the printing process lives
------------------
     ethr =  1.36E-13,  avg # of iterations =  7.2

     negative rho (up, down):  4.797E-03 5.165E-03

     total cpu time spent up to now is    12523.9 secs

     total energy              =  -16138.55519527 Ry
     estimated scf accuracy    <          3.1E-10 Ry

     total magnetization       =     1.00 Bohr mag/cell
     absolute magnetization    =     1.12 Bohr mag/cell

     iteration # 38     ecut=    50.00 Ry     beta= 0.40
     Davidson diagonalization with overlap

---- Real-time Memory Report at c_bands before calling an iterative solver
           522 MiB given to the printing process from OS
           355 MiB allocation reported by mallinfo(arena+hblkhd)
         20048 MiB available memory on the node where the printing process lives
------------------
     ethr =  1.00E-13,  avg # of iterations =  6.1

     negative rho (up, down):  4.797E-03 5.165E-03

     total cpu time spent up to now is    12825.4 secs

     total energy              =  -16138.55519527 Ry
     estimated scf accuracy    <          2.3E-10 Ry

     total magnetization       =     1.00 Bohr mag/cell
     absolute magnetization    =     1.12 Bohr mag/cell

     iteration # 39     ecut=    50.00 Ry     beta= 0.40
     Davidson diagonalization with overlap

---- Real-time Memory Report at c_bands before calling an iterative solver
           522 MiB given to the printing process from OS
           355 MiB allocation reported by mallinfo(arena+hblkhd)
         19855 MiB available memory on the node where the printing process lives
------------------
     ethr =  1.00E-13,  avg # of iterations =  2.0

     negative rho (up, down):  4.797E-03 5.165E-03

     total cpu time spent up to now is    13087.9 secs

     total energy              =  -16138.55519527 Ry
     estimated scf accuracy    <          1.6E-10 Ry

     total magnetization       =     1.00 Bohr mag/cell
     absolute magnetization    =     1.12 Bohr mag/cell

     iteration # 40     ecut=    50.00 Ry     beta= 0.40
     Davidson diagonalization with overlap

---- Real-time Memory Report at c_bands before calling an iterative solver
           522 MiB given to the printing process from OS
           355 MiB allocation reported by mallinfo(arena+hblkhd)
         19880 MiB available memory on the node where the printing process lives
------------------
     ethr =  1.00E-13,  avg # of iterations =  2.0

     negative rho (up, down):  4.797E-03 5.165E-03

     Magnetic moment per site  (integrated on atomic sphere of radius R)
     atom   1 (R=0.078)  charge= 10.3731  magn=  0.0015
     atom   2 (R=0.078)  charge= 10.3731  magn=  0.0080
     atom   3 (R=0.078)  charge= 10.3740  magn= -0.0007
     atom   4 (R=0.078)  charge= 10.3743  magn=  0.0147
     atom   5 (R=0.078)  charge= 10.3763  magn=  0.0111
     atom   6 (R=0.078)  charge= 10.3757  magn=  0.0063
     atom   7 (R=0.078)  charge= 10.3783  magn=  0.0052
     atom   8 (R=0.078)  charge= 10.3749  magn=  0.0108
     atom   9 (R=0.078)  charge= 10.3753  magn=  0.0033
     atom  10 (R=0.078)  charge= 10.3820  magn=  0.0365
     atom  11 (R=0.078)  charge= 10.3836  magn=  0.0167
     atom  12 (R=0.078)  charge= 10.3743  magn=  0.0164
     atom  13 (R=0.078)  charge= 10.3732  magn=  0.0029
     atom  14 (R=0.078)  charge= 10.3740  magn= -0.0006
     atom  15 (R=0.078)  charge= 10.3816  magn=  0.0171
     atom  16 (R=0.078)  charge= 10.3760  magn=  0.0042
     atom  17 (R=0.078)  charge=  4.1591  magn=  0.0027
     atom  18 (R=0.078)  charge=  4.1558  magn=  0.0017
     atom  19 (R=0.078)  charge=  4.1586  magn= -0.0000
     atom  20 (R=0.078)  charge=  4.1590  magn=  0.0027
     atom  21 (R=0.078)  charge=  4.1594  magn=  0.0025
     atom  22 (R=0.078)  charge=  4.1750  magn=  0.0122
     atom  23 (R=0.078)  charge=  4.1787  magn=  0.0050
     atom  24 (R=0.078)  charge=  4.1586  magn=  0.0036
     atom  25 (R=0.078)  charge=  4.1591  magn=  0.0022
     atom  26 (R=0.078)  charge=  4.1626  magn=  0.0026
     atom  27 (R=0.078)  charge=  4.1805  magn=  0.0068
     atom  28 (R=0.078)  charge=  4.1668  magn=  0.0125
     atom  29 (R=0.078)  charge=  4.1578  magn=  0.0030
     atom  30 (R=0.078)  charge=  4.1574  magn=  0.0007
     atom  31 (R=0.078)  charge=  4.1566  magn=  0.0017
     atom  32 (R=0.078)  charge=  4.1575  magn=  0.0062
     atom  33 (R=0.078)  charge=  4.1610  magn=  0.0008
     atom  34 (R=0.078)  charge=  4.1591  magn=  0.0009
     atom  35 (R=0.078)  charge=  4.1606  magn= -0.0002
     atom  36 (R=0.078)  charge=  4.1609  magn=  0.0001
     atom  37 (R=0.078)  charge=  4.1601  magn=  0.0005
     atom  38 (R=0.078)  charge=  4.1589  magn=  0.0036
     atom  39 (R=0.078)  charge=  4.1568  magn=  0.0010
     atom  40 (R=0.078)  charge=  4.1595  magn= -0.0001
     atom  41 (R=0.078)  charge=  4.1602  magn=  0.0005
     atom  42 (R=0.078)  charge=  4.1579  magn=  0.0018
     atom  43 (R=0.078)  charge=  4.1526  magn=  0.0025
     atom  44 (R=0.078)  charge=  4.1584  magn=  0.0032
     atom  45 (R=0.078)  charge=  4.1594  magn=  0.0015
     atom  46 (R=0.078)  charge=  4.1597  magn=  0.0002
     atom  47 (R=0.078)  charge=  4.1603  magn=  0.0006
     atom  48 (R=0.078)  charge=  4.1598  magn=  0.0022
     atom  49 (R=0.075)  charge=  8.3762  magn=  0.0118
     atom  50 (R=0.075)  charge=  8.3724  magn=  0.0310
     atom  51 (R=0.075)  charge=  8.3760  magn=  0.0134
     atom  52 (R=0.075)  charge=  8.3726  magn=  0.0330
     atom  53 (R=0.075)  charge=  8.3617  magn=  0.0185
     atom  54 (R=0.033)  charge=  1.2841  magn= -0.0002
     atom  55 (R=0.032)  charge=  2.0230  magn=  0.0004
     atom  56 (R=0.032)  charge=  0.4292  magn=  0.0002
     atom  57 (R=0.032)  charge=  0.4029  magn=  0.0001
     atom  58 (R=0.032)  charge=  0.4178  magn=  0.0001

     total cpu time spent up to now is    13348.8 secs

     End of self-consistent calculation

 ------ SPIN UP ------------


          k = 0.0000 0.0000 0.0000 (112117 PWs)   bands (ev):

   -73.8175 -73.8140 -73.8110 -73.8085 -73.8065 -73.8056 -73.8030 -73.8010
   -73.7962 -73.7943 -73.7915 -73.7894 -73.7876 -73.7549 -73.7501 -73.7406
   -38.2254 -38.2205 -38.2193 -38.1644 -38.1636 -38.1587 -38.1583 -38.1519
   -38.1441 -38.0603 -38.0574 -38.0548 -38.0542 -38.0491 -38.0470 -38.0452
   -38.0317 -38.0300 -38.0274 -38.0268 -38.0230 -38.0223 -38.0200 -38.0179
   -38.0173 -38.0144 -38.0128 -38.0050 -37.9961 -37.9931 -37.9918 -37.9888
   -37.9872 -37.9830 -37.9693 -37.9591 -37.9578 -37.9549 -37.9523 -37.9469
   -37.9258 -37.9189 -37.9144 -37.9138 -37.9100 -37.9051 -37.8708 -37.8675
   -21.5210 -15.4856 -14.5994 -13.7128 -13.6996 -13.6755 -13.6451 -13.6319
   -13.6216 -12.9840 -12.7144 -12.6788 -12.6564 -12.6406 -12.6042 -12.5824
   -12.5410 -12.5082 -12.4742 -12.4579 -12.4467 -12.4446 -12.4233 -12.4220
   -12.4171 -12.2247 -12.2027 -12.1914 -12.1757 -12.1587 -12.1548 -12.1511
   -12.1480 -12.1454  -7.9391  -7.5791  -6.3444  -6.3288  -6.3106  -6.2863
    -6.1826  -5.6166  -5.5753  -5.5532  -5.5349  -5.5298  -5.4960  -5.4474
    -5.4167  -5.3939  -5.3162  -5.2861  -5.2640  -5.1082  -5.0960  -5.0668
    -5.0618  -5.0573  -5.0562  -5.0017  -5.0003  -4.9913  -4.5268  -4.4439
    -4.4046  -4.3497  -4.2966  -4.2867  -4.2707  -4.2497  -4.2355  -4.1854
    -4.0832  -4.0133  -3.9813  -3.9652  -3.9391  -3.7983  -3.7631  -3.7612
    -3.7064  -3.6808  -3.6773  -3.6188  -3.5182  -3.4772  -3.4101  -3.4058
    -3.3764  -3.3688  -3.3024  -3.2284  -3.1998  -3.1858  -3.1670  -3.1459
    -3.1364  -3.1284  -3.1142  -3.1109  -3.0660  -2.9644  -2.8248  -2.7751
    -2.7260  -2.6810  -2.6518  -2.5946  -2.5862  -2.5271  -2.5176  -2.4687
    -2.4639  -2.4373  -2.4357  -2.4300  -2.4043  -2.3459  -2.2963  -2.2127
    -2.1365  -2.0887  -1.9834  -1.9802  -1.9577  -1.9359  -1.8729  -1.8407
    -1.8181  -1.7857  -1.7717  -1.7690  -1.7556  -1.7545  -1.7461  -1.7446
    -1.7405  -1.7120  -1.7020  -1.6698  -1.6629  -1.6483  -1.6387  -1.6128
    -1.5847  -1.5347  -1.5266  -1.5090  -1.4560  -1.4209  -1.3762  -1.3597
    -1.3141  -1.2791  -1.2077  -1.1010  -1.0638  -1.0325  -1.0171  -0.9987
    -0.7323  -0.6962  -0.6919  -0.6897  -0.6804  -0.6765  -0.6513  -0.6482
    -0.6321  -0.3991  -0.3906  -0.3791  -0.3640  -0.3516  -0.3434  -0.3262
     0.1949   1.2536   1.5336

     occupation numbers 
     1.0000   1.0000   1.0000   1.0000   1.0000   1.0000   1.0000   1.0000
     1.0000   1.0000   1.0000   1.0000   1.0000   1.0000   1.0000   1.0000
     1.0000   1.0000   1.0000   1.0000   1.0000   1.0000   1.0000   1.0000
     1.0000   1.0000   1.0000   1.0000   1.0000   1.0000   1.0000   1.0000
     1.0000   1.0000   1.0000   1.0000   1.0000   1.0000   1.0000   1.0000
     1.0000   1.0000   1.0000   1.0000   1.0000   1.0000   1.0000   1.0000
     1.0000   1.0000   1.0000   1.0000   1.0000   1.0000   1.0000   1.0000
     1.0000   1.0000   1.0000   1.0000   1.0000   1.0000   1.0000   1.0000
     1.0000   1.0000   1.0000   1.0000   1.0000   1.0000   1.0000   1.0000
     1.0000   1.0000   1.0000   1.0000   1.0000   1.0000   1.0000   1.0000
     1.0000   1.0000   1.0000   1.0000   1.0000   1.0000   1.0000   1.0000
     1.0000   1.0000   1.0000   1.0000   1.0000   1.0000   1.0000   1.0000
     1.0000   1.0000   1.0000   1.0000   1.0000   1.0000   1.0000   1.0000
     1.0000   1.0000   1.0000   1.0000   1.0000   1.0000   1.0000   1.0000
     1.0000   1.0000   1.0000   1.0000   1.0000   1.0000   1.0000   1.0000
     1.0000   1.0000   1.0000   1.0000   1.0000   1.0000   1.0000   1.0000
     1.0000   1.0000   1.0000   1.0000   1.0000   1.0000   1.0000   1.0000
     1.0000   1.0000   1.0000   1.0000   1.0000   1.0000   1.0000   1.0000
     1.0000   1.0000   1.0000   1.0000   1.0000   1.0000   1.0000   1.0000
     1.0000   1.0000   1.0000   1.0000   1.0000   1.0000   1.0000   1.0000
     1.0000   1.0000   1.0000   1.0000   1.0000   1.0000   1.0000   1.0000
     1.0000   1.0000   1.0000   1.0000   1.0000   1.0000   1.0000   1.0000
     1.0000   1.0000   1.0000   1.0000   1.0000   1.0000   1.0000   1.0000
     1.0000   1.0000   1.0000   1.0000   1.0000   1.0000   1.0000   1.0000
     1.0000   1.0000   1.0000   1.0000   1.0000   1.0000   1.0000   1.0000
     1.0000   1.0000   1.0000   1.0000   1.0000   1.0000   1.0000   1.0000
     1.0000   1.0000   1.0000   1.0000   1.0000   1.0000   1.0000   1.0000
     1.0000   1.0000   1.0000   1.0000   1.0000   1.0000   1.0000   1.0000
     1.0000   1.0000   1.0000   1.0000   1.0000   1.0000   1.0000   1.0000
     1.0000   1.0000   1.0000   1.0000   1.0000   1.0000   1.0000   1.0000
     1.0000   1.0000   1.0000

          k = 0.0000 0.2309 0.0000 (112171 PWs)   bands (ev):

   -73.8173 -73.8142 -73.8110 -73.8087 -73.8063 -73.8056 -73.8030 -73.8010
   -73.7964 -73.7943 -73.7914 -73.7895 -73.7876 -73.7549 -73.7501 -73.7406
   -38.2202 -38.2152 -38.2130 -38.1709 -38.1662 -38.1628 -38.1559 -38.1484
   -38.1414 -38.1041 -38.0794 -38.0773 -38.0533 -38.0496 -38.0461 -38.0332
   -38.0298 -38.0270 -38.0247 -38.0221 -38.0189 -38.0168 -38.0139 -38.0121
   -38.0050 -37.9996 -37.9978 -37.9964 -37.9945 -37.9926 -37.9891 -37.9877
   -37.9863 -37.9829 -37.9696 -37.9624 -37.9602 -37.9553 -37.9523 -37.9471
   -37.9331 -37.9234 -37.9224 -37.9120 -37.9088 -37.9015 -37.8782 -37.8690
   -21.5210 -15.4856 -14.5578 -13.9782 -13.8034 -13.7863 -13.4953 -13.4623
   -13.3256 -12.9681 -12.8080 -12.7363 -12.6985 -12.6886 -12.6560 -12.5886
   -12.5560 -12.5440 -12.4954 -12.4777 -12.4580 -12.4382 -12.4244 -12.3179
   -12.2861 -12.2643 -12.2451 -12.2151 -12.1863 -12.1754 -12.1690 -12.1535
   -12.0962 -12.0810  -7.9391  -7.5791  -6.2829  -6.2715  -6.2408  -6.2378
    -6.1798  -5.6720  -5.6487  -5.6315  -5.5610  -5.5199  -5.4906  -5.4725
    -5.4315  -5.4194  -5.3973  -5.3224  -5.3182  -5.2888  -5.2716  -5.0747
    -5.0676  -5.0194  -5.0035  -4.9576  -4.7409  -4.7356  -4.5932  -4.4867
    -4.4553  -4.3876  -4.3244  -4.2902  -4.2116  -4.1627  -4.1483  -4.1220
    -4.1012  -4.0643  -4.0450  -4.0027  -3.9865  -3.9142  -3.9111  -3.9026
    -3.6780  -3.5777  -3.5446  -3.5110  -3.4708  -3.4458  -3.4401  -3.3856
    -3.3656  -3.3175  -3.2991  -3.2824  -3.2776  -3.2109  -3.1964  -3.1509
    -3.1059  -2.9988  -2.9671  -2.9363  -2.8613  -2.7977  -2.7784  -2.7506
    -2.7265  -2.7199  -2.7010  -2.6885  -2.6605  -2.6379  -2.6123  -2.5465
    -2.5253  -2.5079  -2.4795  -2.4461  -2.3657  -2.3178  -2.2069  -2.1664
    -2.1270  -2.0900  -2.0202  -2.0059  -1.9870  -1.9706  -1.9393  -1.9126
    -1.8931  -1.8656  -1.8548  -1.8206  -1.7940  -1.7661  -1.7486  -1.7372
    -1.7244  -1.7061  -1.6913  -1.6685  -1.6525  -1.6113  -1.5876  -1.5544
    -1.5381  -1.4970  -1.4862  -1.4633  -1.4354  -1.3745  -1.3389  -1.3290
    -1.2987  -1.2832  -1.2489  -1.2281  -1.1699  -1.0740  -1.0515  -1.0308
    -0.8989  -0.7820  -0.7642  -0.7517  -0.5748  -0.5664  -0.5547  -0.5362
    -0.5232  -0.5133  -0.4149  -0.3790  -0.3674  -0.2691  -0.1722  -0.1472
     0.1759   1.2600   1.5649

     occupation numbers 
     1.0000   1.0000   1.0000   1.0000   1.0000   1.0000   1.0000   1.0000
     1.0000   1.0000   1.0000   1.0000   1.0000   1.0000   1.0000   1.0000
     1.0000   1.0000   1.0000   1.0000   1.0000   1.0000   1.0000   1.0000
     1.0000   1.0000   1.0000   1.0000   1.0000   1.0000   1.0000   1.0000
     1.0000   1.0000   1.0000   1.0000   1.0000   1.0000   1.0000   1.0000
     1.0000   1.0000   1.0000   1.0000   1.0000   1.0000   1.0000   1.0000
     1.0000   1.0000   1.0000   1.0000   1.0000   1.0000   1.0000   1.0000
     1.0000   1.0000   1.0000   1.0000   1.0000   1.0000   1.0000   1.0000
     1.0000   1.0000   1.0000   1.0000   1.0000   1.0000   1.0000   1.0000
     1.0000   1.0000   1.0000   1.0000   1.0000   1.0000   1.0000   1.0000
     1.0000   1.0000   1.0000   1.0000   1.0000   1.0000   1.0000   1.0000
     1.0000   1.0000   1.0000   1.0000   1.0000   1.0000   1.0000   1.0000
     1.0000   1.0000   1.0000   1.0000   1.0000   1.0000   1.0000   1.0000
     1.0000   1.0000   1.0000   1.0000   1.0000   1.0000   1.0000   1.0000
     1.0000   1.0000   1.0000   1.0000   1.0000   1.0000   1.0000   1.0000
     1.0000   1.0000   1.0000   1.0000   1.0000   1.0000   1.0000   1.0000
     1.0000   1.0000   1.0000   1.0000   1.0000   1.0000   1.0000   1.0000
     1.0000   1.0000   1.0000   1.0000   1.0000   1.0000   1.0000   1.0000
     1.0000   1.0000   1.0000   1.0000   1.0000   1.0000   1.0000   1.0000
     1.0000   1.0000   1.0000   1.0000   1.0000   1.0000   1.0000   1.0000
     1.0000   1.0000   1.0000   1.0000   1.0000   1.0000   1.0000   1.0000
     1.0000   1.0000   1.0000   1.0000   1.0000   1.0000   1.0000   1.0000
     1.0000   1.0000   1.0000   1.0000   1.0000   1.0000   1.0000   1.0000
     1.0000   1.0000   1.0000   1.0000   1.0000   1.0000   1.0000   1.0000
     1.0000   1.0000   1.0000   1.0000   1.0000   1.0000   1.0000   1.0000
     1.0000   1.0000   1.0000   1.0000   1.0000   1.0000   1.0000   1.0000
     1.0000   1.0000   1.0000   1.0000   1.0000   1.0000   1.0000   1.0000
     1.0000   1.0000   1.0000   1.0000   1.0000   1.0000   1.0000   1.0000
     1.0000   1.0000   1.0000   1.0000   1.0000   1.0000   1.0000   1.0000
     1.0000   1.0000   1.0000   1.0000   1.0000   1.0000   1.0000   1.0000
     1.0000   1.0000   1.0000

          k = 0.0000 0.4619 0.0000 (112236 PWs)   bands (ev):

   -73.8170 -73.8146 -73.8111 -73.8089 -73.8061 -73.8055 -73.8030 -73.8009
   -73.7966 -73.7943 -73.7912 -73.7897 -73.7876 -73.7549 -73.7501 -73.7406
   -38.2070 -38.2044 -38.1910 -38.1884 -38.1764 -38.1668 -38.1604 -38.1475
   -38.1315 -38.1267 -38.1061 -38.1016 -38.0643 -38.0590 -38.0478 -38.0390
   -38.0319 -38.0210 -38.0174 -38.0131 -38.0098 -38.0071 -38.0034 -38.0011
   -37.9992 -37.9978 -37.9973 -37.9916 -37.9889 -37.9861 -37.9828 -37.9792
   -37.9741 -37.9706 -37.9674 -37.9659 -37.9536 -37.9520 -37.9499 -37.9483
   -37.9435 -37.9368 -37.9321 -37.9165 -37.9116 -37.8957 -37.8941 -37.8719
   -21.5210 -15.4856 -14.4362 -14.2348 -13.8732 -13.8544 -13.2663 -13.2310
   -13.0214 -13.0005 -12.9712 -12.9184 -12.8339 -12.7319 -12.7055 -12.6898
   -12.5227 -12.5154 -12.4639 -12.4507 -12.4378 -12.4255 -12.3833 -12.3700
   -12.3514 -12.2851 -12.2173 -12.2026 -12.1781 -12.1598 -12.1579 -12.1535
   -12.0570 -12.0402  -7.9391  -7.5791  -6.1929  -6.1290  -6.1151  -6.0931
    -6.0283  -5.8743  -5.8620  -5.8396  -5.7157  -5.5359  -5.5012  -5.4898
    -5.4616  -5.4471  -5.4387  -5.3949  -5.3752  -5.3275  -5.3030  -5.0680
    -5.0647  -5.0319  -5.0104  -4.8123  -4.6338  -4.5308  -4.4881  -4.4418
    -4.3957  -4.3768  -4.3507  -4.3151  -4.2466  -4.2334  -4.1930  -4.1620
    -4.1310  -4.1203  -4.1044  -4.0782  -4.0668  -4.0534  -4.0439  -3.7011
    -3.5776  -3.5130  -3.4839  -3.4454  -3.4229  -3.3939  -3.3725  -3.3124
    -3.2988  -3.2837  -3.2645  -3.2419  -3.2227  -3.1906  -3.1656  -3.1092
    -3.0688  -3.0627  -3.0118  -2.9736  -2.9554  -2.9175  -2.8662  -2.7801
    -2.7545  -2.7104  -2.6703  -2.6414  -2.6131  -2.5751  -2.5446  -2.4992
    -2.4535  -2.4343  -2.3997  -2.3211  -2.2816  -2.2569  -2.2438  -2.1888
    -2.1296  -2.1014  -2.0481  -2.0219  -2.0122  -2.0020  -1.9850  -1.9564
    -1.9347  -1.9106  -1.8820  -1.8754  -1.8577  -1.8455  -1.8411  -1.8291
    -1.7765  -1.7702  -1.7261  -1.7183  -1.7002  -1.6721  -1.6355  -1.6223
    -1.5958  -1.5566  -1.5356  -1.5065  -1.4364  -1.3921  -1.3038  -1.2914
    -1.2390  -1.2053  -1.1931  -1.1523  -1.1223  -1.1000  -1.0509  -1.0143
    -0.9797  -0.8967  -0.7354  -0.7243  -0.6428  -0.6266  -0.4976  -0.4590
    -0.4454  -0.4351  -0.3997  -0.3822  -0.3160  -0.0961   0.0003   0.0234
     0.1262   1.2698   1.6175

     occupation numbers 
     1.0000   1.0000   1.0000   1.0000   1.0000   1.0000   1.0000   1.0000
     1.0000   1.0000   1.0000   1.0000   1.0000   1.0000   1.0000   1.0000
     1.0000   1.0000   1.0000   1.0000   1.0000   1.0000   1.0000   1.0000
     1.0000   1.0000   1.0000   1.0000   1.0000   1.0000   1.0000   1.0000
     1.0000   1.0000   1.0000   1.0000   1.0000   1.0000   1.0000   1.0000
     1.0000   1.0000   1.0000   1.0000   1.0000   1.0000   1.0000   1.0000
     1.0000   1.0000   1.0000   1.0000   1.0000   1.0000   1.0000   1.0000
     1.0000   1.0000   1.0000   1.0000   1.0000   1.0000   1.0000   1.0000
     1.0000   1.0000   1.0000   1.0000   1.0000   1.0000   1.0000   1.0000
     1.0000   1.0000   1.0000   1.0000   1.0000   1.0000   1.0000   1.0000
     1.0000   1.0000   1.0000   1.0000   1.0000   1.0000   1.0000   1.0000
     1.0000   1.0000   1.0000   1.0000   1.0000   1.0000   1.0000   1.0000
     1.0000   1.0000   1.0000   1.0000   1.0000   1.0000   1.0000   1.0000
     1.0000   1.0000   1.0000   1.0000   1.0000   1.0000   1.0000   1.0000
     1.0000   1.0000   1.0000   1.0000   1.0000   1.0000   1.0000   1.0000
     1.0000   1.0000   1.0000   1.0000   1.0000   1.0000   1.0000   1.0000
     1.0000   1.0000   1.0000   1.0000   1.0000   1.0000   1.0000   1.0000
     1.0000   1.0000   1.0000   1.0000   1.0000   1.0000   1.0000   1.0000
     1.0000   1.0000   1.0000   1.0000   1.0000   1.0000   1.0000   1.0000
     1.0000   1.0000   1.0000   1.0000   1.0000   1.0000   1.0000   1.0000
     1.0000   1.0000   1.0000   1.0000   1.0000   1.0000   1.0000   1.0000
     1.0000   1.0000   1.0000   1.0000   1.0000   1.0000   1.0000   1.0000
     1.0000   1.0000   1.0000   1.0000   1.0000   1.0000   1.0000   1.0000
     1.0000   1.0000   1.0000   1.0000   1.0000   1.0000   1.0000   1.0000
     1.0000   1.0000   1.0000   1.0000   1.0000   1.0000   1.0000   1.0000
     1.0000   1.0000   1.0000   1.0000   1.0000   1.0000   1.0000   1.0000
     1.0000   1.0000   1.0000   1.0000   1.0000   1.0000   1.0000   1.0000
     1.0000   1.0000   1.0000   1.0000   1.0000   1.0000   1.0000   1.0000
     1.0000   1.0000   1.0000   1.0000   1.0000   1.0000   1.0000   1.0000
     1.0000   1.0000   1.0000   1.0000   1.0000   1.0000   1.0000   1.0000
     1.0000   1.0000   1.0000

          k = 0.2000 0.3464 0.0000 (112231 PWs)   bands (ev):

   -73.8170 -73.8147 -73.8110 -73.8087 -73.8062 -73.8054 -73.8032 -73.8010
   -73.7963 -73.7945 -73.7912 -73.7897 -73.7876 -73.7549 -73.7501 -73.7406
   -38.2124 -38.2037 -38.2004 -38.1796 -38.1766 -38.1648 -38.1561 -38.1486
   -38.1327 -38.1242 -38.1169 -38.0780 -38.0601 -38.0564 -38.0480 -38.0377
   -38.0326 -38.0295 -38.0257 -38.0201 -38.0164 -38.0099 -38.0035 -38.0006
   -37.9959 -37.9931 -37.9914 -37.9896 -37.9873 -37.9846 -37.9831 -37.9818
   -37.9767 -37.9731 -37.9696 -37.9663 -37.9595 -37.9555 -37.9523 -37.9477
   -37.9416 -37.9324 -37.9266 -37.9215 -37.9055 -37.9004 -37.8871 -37.8726
   -21.5210 -15.4856 -14.4761 -14.1044 -14.0597 -13.5679 -13.5651 -13.1757
   -13.1193 -13.0104 -12.9363 -12.8109 -12.7906 -12.7114 -12.6723 -12.6064
   -12.5959 -12.5773 -12.5724 -12.4585 -12.4255 -12.3921 -12.3777 -12.3141
   -12.2909 -12.2739 -12.2529 -12.2332 -12.2213 -12.1556 -12.1511 -12.1086
   -12.0959 -12.0364  -7.9391  -7.5791  -6.1978  -6.1777  -6.1518  -6.1293
    -6.1062  -5.7673  -5.7383  -5.7220  -5.6824  -5.6451  -5.6028  -5.5675
    -5.5062  -5.4747  -5.3565  -5.3355  -5.2852  -5.2769  -5.2443  -5.2297
    -5.0963  -4.9064  -4.8909  -4.8169  -4.7520  -4.6076  -4.4925  -4.4716
    -4.3992  -4.3681  -4.3389  -4.3055  -4.2770  -4.2641  -4.2358  -4.2278
    -4.1740  -4.1237  -4.1085  -4.0931  -4.0565  -3.7679  -3.7377  -3.7276
    -3.7198  -3.6950  -3.6168  -3.4992  -3.4326  -3.4026  -3.3536  -3.3239
    -3.3008  -3.2474  -3.2275  -3.2081  -3.1705  -3.1518  -3.1095  -3.0926
    -3.0428  -3.0168  -2.9918  -2.9529  -2.9452  -2.9273  -2.9172  -2.9017
    -2.8206  -2.7461  -2.7245  -2.6554  -2.6373  -2.5651  -2.5253  -2.4812
    -2.4677  -2.4403  -2.3884  -2.3639  -2.3170  -2.2226  -2.1863  -2.1662
    -2.1329  -2.1262  -2.0984  -2.0900  -2.0196  -2.0004  -1.9827  -1.9531
    -1.9298  -1.9076  -1.8847  -1.8589  -1.8391  -1.8301  -1.8009  -1.7537
    -1.7388  -1.7206  -1.7134  -1.6804  -1.6730  -1.6242  -1.5970  -1.5763
    -1.5677  -1.5428  -1.5389  -1.5097  -1.4295  -1.3945  -1.3822  -1.3670
    -1.2930  -1.2273  -1.2094  -1.1870  -1.1581  -1.1201  -1.0372  -1.0203
    -0.8761  -0.8494  -0.6829  -0.6733  -0.6399  -0.6325  -0.6169  -0.5428
    -0.5339  -0.4410  -0.3772  -0.2566  -0.2123  -0.2010  -0.1606   0.0705
     0.1389   1.2827   1.5896

     occupation numbers 
     1.0000   1.0000   1.0000   1.0000   1.0000   1.0000   1.0000   1.0000
     1.0000   1.0000   1.0000   1.0000   1.0000   1.0000   1.0000   1.0000
     1.0000   1.0000   1.0000   1.0000   1.0000   1.0000   1.0000   1.0000
     1.0000   1.0000   1.0000   1.0000   1.0000   1.0000   1.0000   1.0000
     1.0000   1.0000   1.0000   1.0000   1.0000   1.0000   1.0000   1.0000
     1.0000   1.0000   1.0000   1.0000   1.0000   1.0000   1.0000   1.0000
     1.0000   1.0000   1.0000   1.0000   1.0000   1.0000   1.0000   1.0000
     1.0000   1.0000   1.0000   1.0000   1.0000   1.0000   1.0000   1.0000
     1.0000   1.0000   1.0000   1.0000   1.0000   1.0000   1.0000   1.0000
     1.0000   1.0000   1.0000   1.0000   1.0000   1.0000   1.0000   1.0000
     1.0000   1.0000   1.0000   1.0000   1.0000   1.0000   1.0000   1.0000
     1.0000   1.0000   1.0000   1.0000   1.0000   1.0000   1.0000   1.0000
     1.0000   1.0000   1.0000   1.0000   1.0000   1.0000   1.0000   1.0000
     1.0000   1.0000   1.0000   1.0000   1.0000   1.0000   1.0000   1.0000
     1.0000   1.0000   1.0000   1.0000   1.0000   1.0000   1.0000   1.0000
     1.0000   1.0000   1.0000   1.0000   1.0000   1.0000   1.0000   1.0000
     1.0000   1.0000   1.0000   1.0000   1.0000   1.0000   1.0000   1.0000
     1.0000   1.0000   1.0000   1.0000   1.0000   1.0000   1.0000   1.0000
     1.0000   1.0000   1.0000   1.0000   1.0000   1.0000   1.0000   1.0000
     1.0000   1.0000   1.0000   1.0000   1.0000   1.0000   1.0000   1.0000
     1.0000   1.0000   1.0000   1.0000   1.0000   1.0000   1.0000   1.0000
     1.0000   1.0000   1.0000   1.0000   1.0000   1.0000   1.0000   1.0000
     1.0000   1.0000   1.0000   1.0000   1.0000   1.0000   1.0000   1.0000
     1.0000   1.0000   1.0000   1.0000   1.0000   1.0000   1.0000   1.0000
     1.0000   1.0000   1.0000   1.0000   1.0000   1.0000   1.0000   1.0000
     1.0000   1.0000   1.0000   1.0000   1.0000   1.0000   1.0000   1.0000
     1.0000   1.0000   1.0000   1.0000   1.0000   1.0000   1.0000   1.0000
     1.0000   1.0000   1.0000   1.0000   1.0000   1.0000   1.0000   1.0000
     1.0000   1.0000   1.0000   1.0000   1.0000   1.0000   1.0000   1.0000
     1.0000   1.0000   1.0000   1.0000   1.0000   1.0000   1.0000   1.0000
     1.0000   1.0000   1.0000

          k = 0.2000 0.5774 0.0000 (112237 PWs)   bands (ev):

   -73.8169 -73.8147 -73.8111 -73.8089 -73.8061 -73.8053 -73.8031 -73.8009
   -73.7965 -73.7944 -73.7912 -73.7897 -73.7876 -73.7549 -73.7501 -73.7406
   -38.2013 -38.1974 -38.1872 -38.1839 -38.1771 -38.1716 -38.1658 -38.1510
   -38.1477 -38.1333 -38.0931 -38.0916 -38.0875 -38.0514 -38.0459 -38.0404
   -38.0343 -38.0310 -38.0180 -38.0177 -38.0079 -38.0054 -38.0031 -38.0014
   -38.0003 -37.9976 -37.9926 -37.9889 -37.9862 -37.9826 -37.9755 -37.9711
   -37.9697 -37.9671 -37.9622 -37.9595 -37.9568 -37.9535 -37.9508 -37.9465
   -37.9430 -37.9382 -37.9323 -37.9295 -37.9180 -37.8979 -37.8889 -37.8756
   -21.5210 -15.4856 -14.3371 -14.2936 -14.1153 -13.5963 -13.3026 -13.2943
   -12.9551 -12.9493 -12.8893 -12.8542 -12.8426 -12.8028 -12.7935 -12.6590
   -12.6317 -12.6038 -12.4929 -12.4850 -12.3848 -12.3731 -12.3596 -12.3241
   -12.3103 -12.2976 -12.2594 -12.2340 -12.2329 -12.1313 -12.1212 -12.1190
   -12.0793 -12.0169  -7.9391  -7.5791  -6.1902  -6.0594  -6.0103  -5.9871
    -5.9222  -5.8970  -5.8768  -5.8507  -5.8101  -5.7443  -5.6879  -5.6250
    -5.6138  -5.5417  -5.3644  -5.2675  -5.2559  -5.2203  -5.2051  -5.1717
    -5.1557  -4.8571  -4.8328  -4.7545  -4.6349  -4.5794  -4.5489  -4.5223
    -4.4755  -4.4193  -4.3997  -4.3201  -4.3128  -4.2400  -4.2335  -4.2136
    -4.1898  -4.1659  -4.1231  -4.0961  -3.9545  -3.9508  -3.7939  -3.6645
    -3.6541  -3.5690  -3.4430  -3.3943  -3.3628  -3.3303  -3.3109  -3.2870
    -3.2737  -3.2626  -3.2456  -3.2353  -3.2166  -3.2021  -3.1445  -3.1264
    -3.1029  -3.0814  -3.0630  -3.0364  -3.0088  -2.9601  -2.8798  -2.8325
    -2.7549  -2.7300  -2.6990  -2.6734  -2.6344  -2.5604  -2.5206  -2.4586
    -2.3998  -2.3347  -2.3211  -2.3093  -2.2558  -2.2076  -2.1805  -2.1368
    -2.1217  -2.1115  -2.0810  -2.0627  -2.0186  -1.9880  -1.9680  -1.9568
    -1.9397  -1.9192  -1.8983  -1.8817  -1.8709  -1.8573  -1.8443  -1.8363
    -1.8251  -1.7832  -1.7666  -1.7398  -1.7081  -1.6900  -1.6817  -1.6522
    -1.6193  -1.5738  -1.5624  -1.5093  -1.4795  -1.4673  -1.4153  -1.3348
    -1.2862  -1.1967  -1.1621  -1.1452  -1.0990  -1.0820  -1.0109  -1.0019
    -0.8147  -0.8004  -0.7030  -0.6921  -0.6610  -0.6464  -0.5936  -0.5841
    -0.5671  -0.4174  -0.2798  -0.2711  -0.1899  -0.1260  -0.0676   0.0888
     0.1874   1.2918   1.6059

     occupation numbers 
     1.0000   1.0000   1.0000   1.0000   1.0000   1.0000   1.0000   1.0000
     1.0000   1.0000   1.0000   1.0000   1.0000   1.0000   1.0000   1.0000
     1.0000   1.0000   1.0000   1.0000   1.0000   1.0000   1.0000   1.0000
     1.0000   1.0000   1.0000   1.0000   1.0000   1.0000   1.0000   1.0000
     1.0000   1.0000   1.0000   1.0000   1.0000   1.0000   1.0000   1.0000
     1.0000   1.0000   1.0000   1.0000   1.0000   1.0000   1.0000   1.0000
     1.0000   1.0000   1.0000   1.0000   1.0000   1.0000   1.0000   1.0000
     1.0000   1.0000   1.0000   1.0000   1.0000   1.0000   1.0000   1.0000
     1.0000   1.0000   1.0000   1.0000   1.0000   1.0000   1.0000   1.0000
     1.0000   1.0000   1.0000   1.0000   1.0000   1.0000   1.0000   1.0000
     1.0000   1.0000   1.0000   1.0000   1.0000   1.0000   1.0000   1.0000
     1.0000   1.0000   1.0000   1.0000   1.0000   1.0000   1.0000   1.0000
     1.0000   1.0000   1.0000   1.0000   1.0000   1.0000   1.0000   1.0000
     1.0000   1.0000   1.0000   1.0000   1.0000   1.0000   1.0000   1.0000
     1.0000   1.0000   1.0000   1.0000   1.0000   1.0000   1.0000   1.0000
     1.0000   1.0000   1.0000   1.0000   1.0000   1.0000   1.0000   1.0000
     1.0000   1.0000   1.0000   1.0000   1.0000   1.0000   1.0000   1.0000
     1.0000   1.0000   1.0000   1.0000   1.0000   1.0000   1.0000   1.0000
     1.0000   1.0000   1.0000   1.0000   1.0000   1.0000   1.0000   1.0000
     1.0000   1.0000   1.0000   1.0000   1.0000   1.0000   1.0000   1.0000
     1.0000   1.0000   1.0000   1.0000   1.0000   1.0000   1.0000   1.0000
     1.0000   1.0000   1.0000   1.0000   1.0000   1.0000   1.0000   1.0000
     1.0000   1.0000   1.0000   1.0000   1.0000   1.0000   1.0000   1.0000
     1.0000   1.0000   1.0000   1.0000   1.0000   1.0000   1.0000   1.0000
     1.0000   1.0000   1.0000   1.0000   1.0000   1.0000   1.0000   1.0000
     1.0000   1.0000   1.0000   1.0000   1.0000   1.0000   1.0000   1.0000
     1.0000   1.0000   1.0000   1.0000   1.0000   1.0000   1.0000   1.0000
     1.0000   1.0000   1.0000   1.0000   1.0000   1.0000   1.0000   1.0000
     1.0000   1.0000   1.0000   1.0000   1.0000   1.0000   1.0000   1.0000
     1.0000   1.0000   1.0000   1.0000   1.0000   1.0000   1.0000   1.0000
     1.0000   1.0000   1.0000

          k =-0.2000 0.1155 0.0000 (112171 PWs)   bands (ev):

   -73.8173 -73.8141 -73.8110 -73.8089 -73.8063 -73.8053 -73.8031 -73.8010
   -73.7962 -73.7944 -73.7915 -73.7894 -73.7876 -73.7549 -73.7501 -73.7406
   -38.2202 -38.2154 -38.2126 -38.1694 -38.1656 -38.1644 -38.1594 -38.1468
   -38.1402 -38.1035 -38.0807 -38.0766 -38.0517 -38.0491 -38.0451 -38.0349
   -38.0287 -38.0282 -38.0256 -38.0244 -38.0172 -38.0164 -38.0142 -38.0128
   -38.0046 -38.0012 -37.9981 -37.9967 -37.9939 -37.9923 -37.9887 -37.9869
   -37.9860 -37.9828 -37.9695 -37.9628 -37.9603 -37.9547 -37.9523 -37.9470
   -37.9333 -37.9252 -37.9213 -37.9111 -37.9090 -37.9009 -37.8753 -37.8721
   -21.5210 -15.4856 -14.5579 -13.9770 -13.8035 -13.7890 -13.4802 -13.4755
   -13.3262 -12.9685 -12.7930 -12.7603 -12.6929 -12.6831 -12.6584 -12.5883
   -12.5660 -12.5226 -12.4987 -12.4798 -12.4709 -12.4334 -12.4227 -12.3090
   -12.2956 -12.2626 -12.2452 -12.2144 -12.1876 -12.1766 -12.1687 -12.1514
   -12.0959 -12.0818  -7.9391  -7.5791  -6.2869  -6.2663  -6.2462  -6.2336
    -6.1799  -5.6803  -5.6410  -5.6266  -5.5508  -5.5331  -5.4939  -5.4703
    -5.4402  -5.4215  -5.3854  -5.3295  -5.3121  -5.2838  -5.2779  -5.0834
    -5.0642  -5.0172  -5.0010  -4.9529  -4.7418  -4.7367  -4.5750  -4.5168
    -4.4519  -4.3739  -4.3417  -4.2819  -4.2098  -4.1636  -4.1490  -4.1242
    -4.1013  -4.0677  -4.0417  -3.9977  -3.9854  -3.9167  -3.9070  -3.8983
    -3.6731  -3.5923  -3.5382  -3.5049  -3.4801  -3.4628  -3.4466  -3.3769
    -3.3677  -3.3219  -3.2970  -3.2807  -3.2670  -3.2078  -3.1964  -3.1563
    -3.1051  -2.9881  -2.9668  -2.9323  -2.8360  -2.8056  -2.7786  -2.7518
    -2.7334  -2.7164  -2.7003  -2.6922  -2.6785  -2.6548  -2.6088  -2.5489
    -2.5226  -2.4870  -2.4717  -2.4502  -2.3720  -2.3150  -2.1997  -2.1775
    -2.1371  -2.0916  -2.0236  -2.0074  -1.9816  -1.9683  -1.9467  -1.9095
    -1.8873  -1.8683  -1.8439  -1.8227  -1.8084  -1.7763  -1.7461  -1.7306
    -1.7121  -1.7028  -1.6866  -1.6690  -1.6556  -1.6107  -1.5783  -1.5577
    -1.5306  -1.5075  -1.4973  -1.4375  -1.4283  -1.3751  -1.3535  -1.3318
    -1.3155  -1.2779  -1.2583  -1.2259  -1.1677  -1.0829  -1.0489  -1.0201
    -0.9018  -0.7779  -0.7607  -0.7423  -0.5879  -0.5707  -0.5545  -0.5350
    -0.5204  -0.5121  -0.4169  -0.3847  -0.3606  -0.2670  -0.1739  -0.1470
     0.1746   1.2818   1.5411

     occupation numbers 
     1.0000   1.0000   1.0000   1.0000   1.0000   1.0000   1.0000   1.0000
     1.0000   1.0000   1.0000   1.0000   1.0000   1.0000   1.0000   1.0000
     1.0000   1.0000   1.0000   1.0000   1.0000   1.0000   1.0000   1.0000
     1.0000   1.0000   1.0000   1.0000   1.0000   1.0000   1.0000   1.0000
     1.0000   1.0000   1.0000   1.0000   1.0000   1.0000   1.0000   1.0000
     1.0000   1.0000   1.0000   1.0000   1.0000   1.0000   1.0000   1.0000
     1.0000   1.0000   1.0000   1.0000   1.0000   1.0000   1.0000   1.0000
     1.0000   1.0000   1.0000   1.0000   1.0000   1.0000   1.0000   1.0000
     1.0000   1.0000   1.0000   1.0000   1.0000   1.0000   1.0000   1.0000
     1.0000   1.0000   1.0000   1.0000   1.0000   1.0000   1.0000   1.0000
     1.0000   1.0000   1.0000   1.0000   1.0000   1.0000   1.0000   1.0000
     1.0000   1.0000   1.0000   1.0000   1.0000   1.0000   1.0000   1.0000
     1.0000   1.0000   1.0000   1.0000   1.0000   1.0000   1.0000   1.0000
     1.0000   1.0000   1.0000   1.0000   1.0000   1.0000   1.0000   1.0000
     1.0000   1.0000   1.0000   1.0000   1.0000   1.0000   1.0000   1.0000
     1.0000   1.0000   1.0000   1.0000   1.0000   1.0000   1.0000   1.0000
     1.0000   1.0000   1.0000   1.0000   1.0000   1.0000   1.0000   1.0000
     1.0000   1.0000   1.0000   1.0000   1.0000   1.0000   1.0000   1.0000
     1.0000   1.0000   1.0000   1.0000   1.0000   1.0000   1.0000   1.0000
     1.0000   1.0000   1.0000   1.0000   1.0000   1.0000   1.0000   1.0000
     1.0000   1.0000   1.0000   1.0000   1.0000   1.0000   1.0000   1.0000
     1.0000   1.0000   1.0000   1.0000   1.0000   1.0000   1.0000   1.0000
     1.0000   1.0000   1.0000   1.0000   1.0000   1.0000   1.0000   1.0000
     1.0000   1.0000   1.0000   1.0000   1.0000   1.0000   1.0000   1.0000
     1.0000   1.0000   1.0000   1.0000   1.0000   1.0000   1.0000   1.0000
     1.0000   1.0000   1.0000   1.0000   1.0000   1.0000   1.0000   1.0000
     1.0000   1.0000   1.0000   1.0000   1.0000   1.0000   1.0000   1.0000
     1.0000   1.0000   1.0000   1.0000   1.0000   1.0000   1.0000   1.0000
     1.0000   1.0000   1.0000   1.0000   1.0000   1.0000   1.0000   1.0000
     1.0000   1.0000   1.0000   1.0000   1.0000   1.0000   1.0000   1.0000
     1.0000   1.0000   1.0000

          k = 0.2000 0.1155 0.0000 (112171 PWs)   bands (ev):

   -73.8173 -73.8143 -73.8110 -73.8086 -73.8064 -73.8054 -73.8031 -73.8011
   -73.7961 -73.7945 -73.7914 -73.7895 -73.7876 -73.7549 -73.7501 -73.7406
   -38.2199 -38.2160 -38.2123 -38.1701 -38.1665 -38.1633 -38.1583 -38.1470
   -38.1404 -38.1037 -38.0805 -38.0769 -38.0519 -38.0494 -38.0457 -38.0349
   -38.0288 -38.0268 -38.0258 -38.0239 -38.0175 -38.0155 -38.0147 -38.0130
   -38.0049 -38.0003 -37.9982 -37.9967 -37.9941 -37.9919 -37.9899 -37.9869
   -37.9859 -37.9827 -37.9694 -37.9622 -37.9610 -37.9549 -37.9522 -37.9470
   -37.9333 -37.9245 -37.9208 -37.9130 -37.9082 -37.9011 -37.8769 -37.8705
   -21.5210 -15.4856 -14.5579 -13.9772 -13.8025 -13.7896 -13.4793 -13.4771
   -13.3254 -12.9685 -12.7932 -12.7596 -12.6925 -12.6843 -12.6587 -12.5883
   -12.5673 -12.5210 -12.4965 -12.4817 -12.4704 -12.4357 -12.4220 -12.3044
   -12.2953 -12.2656 -12.2482 -12.2095 -12.1932 -12.1735 -12.1717 -12.1489
   -12.0931 -12.0843  -7.9391  -7.5791  -6.2814  -6.2681  -6.2487  -6.2354
    -6.1799  -5.6742  -5.6444  -5.6242  -5.5519  -5.5375  -5.4910  -5.4730
    -5.4459  -5.4253  -5.3724  -5.3290  -5.3155  -5.2844  -5.2768  -5.0791
    -5.0720  -5.0151  -5.0047  -4.9475  -4.7426  -4.7374  -4.5707  -4.5127
    -4.4492  -4.3957  -4.3408  -4.2755  -4.2090  -4.1642  -4.1510  -4.1244
    -4.1009  -4.0578  -4.0417  -4.0048  -3.9837  -3.9142  -3.9112  -3.9008
    -3.6656  -3.5722  -3.5537  -3.5120  -3.4702  -3.4590  -3.4430  -3.3856
    -3.3738  -3.3138  -3.3034  -3.2843  -3.2617  -3.2149  -3.1983  -3.1490
    -3.1114  -3.0039  -2.9619  -2.9145  -2.8325  -2.8111  -2.7864  -2.7543
    -2.7399  -2.7143  -2.7007  -2.6942  -2.6702  -2.6405  -2.6015  -2.5519
    -2.5366  -2.5033  -2.4774  -2.4333  -2.3689  -2.3084  -2.2050  -2.1833
    -2.1261  -2.0933  -2.0211  -2.0022  -1.9744  -1.9709  -1.9329  -1.9104
    -1.9025  -1.8797  -1.8404  -1.8278  -1.8095  -1.7834  -1.7476  -1.7388
    -1.7130  -1.6952  -1.6826  -1.6604  -1.6422  -1.6283  -1.5924  -1.5465
    -1.5346  -1.5067  -1.4616  -1.4473  -1.4266  -1.4065  -1.3585  -1.3131
    -1.3071  -1.2987  -1.2528  -1.2132  -1.1722  -1.0688  -1.0488  -1.0318
    -0.9010  -0.7679  -0.7594  -0.7570  -0.5996  -0.5637  -0.5499  -0.5344
    -0.5227  -0.5170  -0.4124  -0.3855  -0.3569  -0.2678  -0.1701  -0.1509
     0.1753   1.2765   1.5475

     occupation numbers 
     1.0000   1.0000   1.0000   1.0000   1.0000   1.0000   1.0000   1.0000
     1.0000   1.0000   1.0000   1.0000   1.0000   1.0000   1.0000   1.0000
     1.0000   1.0000   1.0000   1.0000   1.0000   1.0000   1.0000   1.0000
     1.0000   1.0000   1.0000   1.0000   1.0000   1.0000   1.0000   1.0000
     1.0000   1.0000   1.0000   1.0000   1.0000   1.0000   1.0000   1.0000
     1.0000   1.0000   1.0000   1.0000   1.0000   1.0000   1.0000   1.0000
     1.0000   1.0000   1.0000   1.0000   1.0000   1.0000   1.0000   1.0000
     1.0000   1.0000   1.0000   1.0000   1.0000   1.0000   1.0000   1.0000
     1.0000   1.0000   1.0000   1.0000   1.0000   1.0000   1.0000   1.0000
     1.0000   1.0000   1.0000   1.0000   1.0000   1.0000   1.0000   1.0000
     1.0000   1.0000   1.0000   1.0000   1.0000   1.0000   1.0000   1.0000
     1.0000   1.0000   1.0000   1.0000   1.0000   1.0000   1.0000   1.0000
     1.0000   1.0000   1.0000   1.0000   1.0000   1.0000   1.0000   1.0000
     1.0000   1.0000   1.0000   1.0000   1.0000   1.0000   1.0000   1.0000
     1.0000   1.0000   1.0000   1.0000   1.0000   1.0000   1.0000   1.0000
     1.0000   1.0000   1.0000   1.0000   1.0000   1.0000   1.0000   1.0000
     1.0000   1.0000   1.0000   1.0000   1.0000   1.0000   1.0000   1.0000
     1.0000   1.0000   1.0000   1.0000   1.0000   1.0000   1.0000   1.0000
     1.0000   1.0000   1.0000   1.0000   1.0000   1.0000   1.0000   1.0000
     1.0000   1.0000   1.0000   1.0000   1.0000   1.0000   1.0000   1.0000
     1.0000   1.0000   1.0000   1.0000   1.0000   1.0000   1.0000   1.0000
     1.0000   1.0000   1.0000   1.0000   1.0000   1.0000   1.0000   1.0000
     1.0000   1.0000   1.0000   1.0000   1.0000   1.0000   1.0000   1.0000
     1.0000   1.0000   1.0000   1.0000   1.0000   1.0000   1.0000   1.0000
     1.0000   1.0000   1.0000   1.0000   1.0000   1.0000   1.0000   1.0000
     1.0000   1.0000   1.0000   1.0000   1.0000   1.0000   1.0000   1.0000
     1.0000   1.0000   1.0000   1.0000   1.0000   1.0000   1.0000   1.0000
     1.0000   1.0000   1.0000   1.0000   1.0000   1.0000   1.0000   1.0000
     1.0000   1.0000   1.0000   1.0000   1.0000   1.0000   1.0000   1.0000
     1.0000   1.0000   1.0000   1.0000   1.0000   1.0000   1.0000   1.0000
     1.0000   1.0000   1.0000

          k =-0.4000 0.2309 0.0000 (112236 PWs)   bands (ev):

   -73.8171 -73.8144 -73.8111 -73.8093 -73.8062 -73.8048 -73.8033 -73.8010
   -73.7962 -73.7945 -73.7915 -73.7895 -73.7876 -73.7549 -73.7501 -73.7406
   -38.2082 -38.2024 -38.1909 -38.1846 -38.1836 -38.1648 -38.1617 -38.1476
   -38.1309 -38.1245 -38.1064 -38.1015 -38.0636 -38.0585 -38.0476 -38.0404
   -38.0297 -38.0252 -38.0150 -38.0128 -38.0100 -38.0087 -38.0047 -38.0002
   -37.9991 -37.9980 -37.9958 -37.9932 -37.9881 -37.9864 -37.9828 -37.9799
   -37.9757 -37.9700 -37.9666 -37.9658 -37.9538 -37.9518 -37.9499 -37.9473
   -37.9451 -37.9388 -37.9303 -37.9176 -37.9096 -37.8927 -37.8910 -37.8767
   -21.5210 -15.4856 -14.4367 -14.2336 -13.8705 -13.8587 -13.2504 -13.2447
   -13.0258 -12.9985 -12.9761 -12.9117 -12.8333 -12.7341 -12.7046 -12.6858
   -12.5373 -12.5102 -12.4625 -12.4537 -12.4313 -12.4240 -12.3873 -12.3642
   -12.3537 -12.2829 -12.2229 -12.2010 -12.1766 -12.1622 -12.1555 -12.1529
   -12.0570 -12.0408  -7.9391  -7.5791  -6.1926  -6.1347  -6.1162  -6.0904
    -6.0238  -5.8776  -5.8573  -5.8406  -5.7126  -5.5354  -5.5122  -5.4911
    -5.4554  -5.4478  -5.4385  -5.3901  -5.3807  -5.3183  -5.3109  -5.0834
    -5.0591  -5.0248  -5.0066  -4.8059  -4.6106  -4.5581  -4.4833  -4.4433
    -4.4150  -4.3746  -4.3535  -4.3125  -4.2477  -4.2238  -4.1968  -4.1629
    -4.1234  -4.1152  -4.1029  -4.0761  -4.0699  -4.0552  -4.0440  -3.6950
    -3.5738  -3.5263  -3.4802  -3.4609  -3.4274  -3.4004  -3.3601  -3.3203
    -3.3046  -3.2823  -3.2618  -3.2436  -3.2166  -3.2009  -3.1522  -3.1174
    -3.0747  -3.0500  -3.0161  -2.9746  -2.9402  -2.9083  -2.8427  -2.7832
    -2.7463  -2.7168  -2.6692  -2.6359  -2.6175  -2.5898  -2.5602  -2.5013
    -2.4348  -2.4285  -2.4023  -2.3390  -2.2874  -2.2562  -2.2470  -2.1792
    -2.1299  -2.1204  -2.0620  -2.0337  -2.0200  -1.9963  -1.9666  -1.9385
    -1.9198  -1.9028  -1.8922  -1.8718  -1.8668  -1.8539  -1.8406  -1.8260
    -1.7926  -1.7635  -1.7204  -1.7004  -1.6963  -1.6744  -1.6549  -1.6166
    -1.5945  -1.5657  -1.5075  -1.4801  -1.4541  -1.3617  -1.3351  -1.3039
    -1.2679  -1.2237  -1.1755  -1.1308  -1.1241  -1.1059  -1.0799  -0.9930
    -0.9744  -0.8813  -0.7375  -0.7220  -0.6429  -0.6257  -0.5130  -0.4577
    -0.4519  -0.4266  -0.4057  -0.3790  -0.3063  -0.1031  -0.0009   0.0294
     0.1206   1.3279   1.5530

     occupation numbers 
     1.0000   1.0000   1.0000   1.0000   1.0000   1.0000   1.0000   1.0000
     1.0000   1.0000   1.0000   1.0000   1.0000   1.0000   1.0000   1.0000
     1.0000   1.0000   1.0000   1.0000   1.0000   1.0000   1.0000   1.0000
     1.0000   1.0000   1.0000   1.0000   1.0000   1.0000   1.0000   1.0000
     1.0000   1.0000   1.0000   1.0000   1.0000   1.0000   1.0000   1.0000
     1.0000   1.0000   1.0000   1.0000   1.0000   1.0000   1.0000   1.0000
     1.0000   1.0000   1.0000   1.0000   1.0000   1.0000   1.0000   1.0000
     1.0000   1.0000   1.0000   1.0000   1.0000   1.0000   1.0000   1.0000
     1.0000   1.0000   1.0000   1.0000   1.0000   1.0000   1.0000   1.0000
     1.0000   1.0000   1.0000   1.0000   1.0000   1.0000   1.0000   1.0000
     1.0000   1.0000   1.0000   1.0000   1.0000   1.0000   1.0000   1.0000
     1.0000   1.0000   1.0000   1.0000   1.0000   1.0000   1.0000   1.0000
     1.0000   1.0000   1.0000   1.0000   1.0000   1.0000   1.0000   1.0000
     1.0000   1.0000   1.0000   1.0000   1.0000   1.0000   1.0000   1.0000
     1.0000   1.0000   1.0000   1.0000   1.0000   1.0000   1.0000   1.0000
     1.0000   1.0000   1.0000   1.0000   1.0000   1.0000   1.0000   1.0000
     1.0000   1.0000   1.0000   1.0000   1.0000   1.0000   1.0000   1.0000
     1.0000   1.0000   1.0000   1.0000   1.0000   1.0000   1.0000   1.0000
     1.0000   1.0000   1.0000   1.0000   1.0000   1.0000   1.0000   1.0000
     1.0000   1.0000   1.0000   1.0000   1.0000   1.0000   1.0000   1.0000
     1.0000   1.0000   1.0000   1.0000   1.0000   1.0000   1.0000   1.0000
     1.0000   1.0000   1.0000   1.0000   1.0000   1.0000   1.0000   1.0000
     1.0000   1.0000   1.0000   1.0000   1.0000   1.0000   1.0000   1.0000
     1.0000   1.0000   1.0000   1.0000   1.0000   1.0000   1.0000   1.0000
     1.0000   1.0000   1.0000   1.0000   1.0000   1.0000   1.0000   1.0000
     1.0000   1.0000   1.0000   1.0000   1.0000   1.0000   1.0000   1.0000
     1.0000   1.0000   1.0000   1.0000   1.0000   1.0000   1.0000   1.0000
     1.0000   1.0000   1.0000   1.0000   1.0000   1.0000   1.0000   1.0000
     1.0000   1.0000   1.0000   1.0000   1.0000   1.0000   1.0000   1.0000
     1.0000   1.0000   1.0000   1.0000   1.0000   1.0000   1.0000   1.0000
     1.0000   1.0000   1.0000

          k = 0.4000 0.2309 0.0000 (112236 PWs)   bands (ev):

   -73.8168 -73.8149 -73.8110 -73.8087 -73.8063 -73.8050 -73.8034 -73.8011
   -73.7960 -73.7947 -73.7912 -73.7897 -73.7876 -73.7549 -73.7501 -73.7406
   -38.2065 -38.2045 -38.1906 -38.1873 -38.1809 -38.1637 -38.1621 -38.1475
   -38.1304 -38.1250 -38.1070 -38.1019 -38.0631 -38.0595 -38.0474 -38.0406
   -38.0289 -38.0253 -38.0142 -38.0119 -38.0112 -38.0100 -38.0048 -38.0005
   -37.9983 -37.9970 -37.9953 -37.9920 -37.9900 -37.9865 -37.9825 -37.9798
   -37.9771 -37.9698 -37.9672 -37.9647 -37.9533 -37.9509 -37.9504 -37.9471
   -37.9452 -37.9379 -37.9304 -37.9184 -37.9100 -37.8946 -37.8921 -37.8743
   -21.5210 -15.4856 -14.4365 -14.2338 -13.8698 -13.8592 -13.2503 -13.2458
   -13.0225 -12.9985 -12.9780 -12.9109 -12.8342 -12.7317 -12.7065 -12.6867
   -12.5442 -12.5029 -12.4668 -12.4514 -12.4303 -12.4242 -12.3876 -12.3628
   -12.3513 -12.2828 -12.2297 -12.1989 -12.1786 -12.1612 -12.1560 -12.1504
   -12.0540 -12.0434  -7.9391  -7.5791  -6.1925  -6.1268  -6.1163  -6.0903
    -6.0377  -5.8703  -5.8570  -5.8373  -5.7176  -5.5365  -5.5107  -5.4940
    -5.4500  -5.4493  -5.4411  -5.3895  -5.3840  -5.3162  -5.3100  -5.0747
    -5.0708  -5.0231  -5.0114  -4.7780  -4.6240  -4.5622  -4.4918  -4.4536
    -4.4212  -4.3736  -4.3516  -4.3065  -4.2420  -4.2281  -4.1926  -4.1604
    -4.1269  -4.1167  -4.1041  -4.0779  -4.0648  -4.0528  -4.0445  -3.6825
    -3.5661  -3.5275  -3.4707  -3.4533  -3.4332  -3.4042  -3.3628  -3.3299
    -3.2934  -3.2871  -3.2569  -3.2422  -3.2212  -3.2070  -3.1415  -3.1204
    -3.0928  -3.0588  -3.0226  -2.9729  -2.9423  -2.9078  -2.8543  -2.7838
    -2.7494  -2.6937  -2.6594  -2.6363  -2.6227  -2.6078  -2.5245  -2.5084
    -2.4643  -2.4338  -2.3786  -2.3372  -2.2797  -2.2617  -2.2478  -2.1631
    -2.1291  -2.1211  -2.0471  -2.0183  -2.0126  -1.9888  -1.9821  -1.9665
    -1.9425  -1.9073  -1.8967  -1.8711  -1.8589  -1.8495  -1.8407  -1.8254
    -1.8092  -1.7511  -1.7342  -1.7133  -1.6993  -1.6517  -1.6379  -1.6296
    -1.6010  -1.5589  -1.5150  -1.5019  -1.4278  -1.3655  -1.3164  -1.2969
    -1.2637  -1.2402  -1.1948  -1.1368  -1.1208  -1.0671  -1.0609  -1.0080
    -0.9796  -0.8928  -0.7327  -0.7283  -0.6415  -0.6321  -0.5228  -0.4613
    -0.4506  -0.4248  -0.4067  -0.3692  -0.3001  -0.1048   0.0004   0.0254
     0.1238   1.3110   1.5737

     occupation numbers 
     1.0000   1.0000   1.0000   1.0000   1.0000   1.0000   1.0000   1.0000
     1.0000   1.0000   1.0000   1.0000   1.0000   1.0000   1.0000   1.0000
     1.0000   1.0000   1.0000   1.0000   1.0000   1.0000   1.0000   1.0000
     1.0000   1.0000   1.0000   1.0000   1.0000   1.0000   1.0000   1.0000
     1.0000   1.0000   1.0000   1.0000   1.0000   1.0000   1.0000   1.0000
     1.0000   1.0000   1.0000   1.0000   1.0000   1.0000   1.0000   1.0000
     1.0000   1.0000   1.0000   1.0000   1.0000   1.0000   1.0000   1.0000
     1.0000   1.0000   1.0000   1.0000   1.0000   1.0000   1.0000   1.0000
     1.0000   1.0000   1.0000   1.0000   1.0000   1.0000   1.0000   1.0000
     1.0000   1.0000   1.0000   1.0000   1.0000   1.0000   1.0000   1.0000
     1.0000   1.0000   1.0000   1.0000   1.0000   1.0000   1.0000   1.0000
     1.0000   1.0000   1.0000   1.0000   1.0000   1.0000   1.0000   1.0000
     1.0000   1.0000   1.0000   1.0000   1.0000   1.0000   1.0000   1.0000
     1.0000   1.0000   1.0000   1.0000   1.0000   1.0000   1.0000   1.0000
     1.0000   1.0000   1.0000   1.0000   1.0000   1.0000   1.0000   1.0000
     1.0000   1.0000   1.0000   1.0000   1.0000   1.0000   1.0000   1.0000
     1.0000   1.0000   1.0000   1.0000   1.0000   1.0000   1.0000   1.0000
     1.0000   1.0000   1.0000   1.0000   1.0000   1.0000   1.0000   1.0000
     1.0000   1.0000   1.0000   1.0000   1.0000   1.0000   1.0000   1.0000
     1.0000   1.0000   1.0000   1.0000   1.0000   1.0000   1.0000   1.0000
     1.0000   1.0000   1.0000   1.0000   1.0000   1.0000   1.0000   1.0000
     1.0000   1.0000   1.0000   1.0000   1.0000   1.0000   1.0000   1.0000
     1.0000   1.0000   1.0000   1.0000   1.0000   1.0000   1.0000   1.0000
     1.0000   1.0000   1.0000   1.0000   1.0000   1.0000   1.0000   1.0000
     1.0000   1.0000   1.0000   1.0000   1.0000   1.0000   1.0000   1.0000
     1.0000   1.0000   1.0000   1.0000   1.0000   1.0000   1.0000   1.0000
     1.0000   1.0000   1.0000   1.0000   1.0000   1.0000   1.0000   1.0000
     1.0000   1.0000   1.0000   1.0000   1.0000   1.0000   1.0000   1.0000
     1.0000   1.0000   1.0000   1.0000   1.0000   1.0000   1.0000   1.0000
     1.0000   1.0000   1.0000   1.0000   1.0000   1.0000   1.0000   1.0000
     1.0000   1.0000   1.0000

          k =-0.2000 0.3464 0.0000 (112231 PWs)   bands (ev):

   -73.8171 -73.8144 -73.8111 -73.8091 -73.8061 -73.8052 -73.8031 -73.8009
   -73.7964 -73.7944 -73.7914 -73.7895 -73.7876 -73.7549 -73.7501 -73.7406
   -38.2127 -38.2026 -38.2012 -38.1797 -38.1761 -38.1648 -38.1560 -38.1498
   -38.1333 -38.1260 -38.1135 -38.0775 -38.0614 -38.0560 -38.0484 -38.0376
   -38.0327 -38.0290 -38.0256 -38.0208 -38.0166 -38.0087 -38.0040 -38.0002
   -37.9967 -37.9937 -37.9918 -37.9889 -37.9869 -37.9844 -37.9827 -37.9815
   -37.9771 -37.9740 -37.9700 -37.9656 -37.9588 -37.9558 -37.9523 -37.9476
   -37.9420 -37.9329 -37.9271 -37.9220 -37.9039 -37.8991 -37.8871 -37.8737
   -21.5210 -15.4856 -14.4761 -14.1036 -14.0605 -13.5747 -13.5578 -13.1764
   -13.1199 -13.0103 -12.9361 -12.8092 -12.7922 -12.7072 -12.6734 -12.6207
   -12.5860 -12.5776 -12.5696 -12.4558 -12.4269 -12.3945 -12.3802 -12.3111
   -12.2926 -12.2748 -12.2522 -12.2274 -12.2236 -12.1574 -12.1506 -12.1091
   -12.0962 -12.0362  -7.9391  -7.5791  -6.2000  -6.1853  -6.1481  -6.1230
    -6.1042  -5.7700  -5.7390  -5.7179  -5.7006  -5.6274  -5.6034  -5.5650
    -5.5088  -5.4771  -5.3574  -5.3322  -5.3012  -5.2665  -5.2431  -5.2223
    -5.0988  -4.9151  -4.8958  -4.7979  -4.7570  -4.6102  -4.5187  -4.4492
    -4.3968  -4.3458  -4.3365  -4.3106  -4.2817  -4.2620  -4.2469  -4.2288
    -4.1654  -4.1313  -4.1124  -4.0943  -4.0552  -3.7765  -3.7414  -3.7301
    -3.7101  -3.6934  -3.6187  -3.5095  -3.4249  -3.3844  -3.3757  -3.3109
    -3.2967  -3.2446  -3.2347  -3.2054  -3.1682  -3.1487  -3.1289  -3.0853
    -3.0648  -3.0141  -2.9760  -2.9472  -2.9353  -2.9284  -2.9251  -2.9032
    -2.7998  -2.7471  -2.7243  -2.6792  -2.6325  -2.5674  -2.5339  -2.4796
    -2.4655  -2.4118  -2.3919  -2.3677  -2.3245  -2.2234  -2.1996  -2.1598
    -2.1395  -2.1251  -2.1100  -2.0857  -2.0395  -1.9921  -1.9851  -1.9456
    -1.9221  -1.9032  -1.8710  -1.8572  -1.8278  -1.8195  -1.7991  -1.7773
    -1.7493  -1.7122  -1.7066  -1.6825  -1.6572  -1.6404  -1.5910  -1.5851
    -1.5629  -1.5503  -1.5327  -1.5129  -1.4449  -1.3989  -1.3869  -1.3482
    -1.2918  -1.2503  -1.1989  -1.1750  -1.1601  -1.1246  -1.0492  -1.0092
    -0.8781  -0.8392  -0.6892  -0.6727  -0.6395  -0.6296  -0.6118  -0.5446
    -0.5377  -0.4310  -0.3871  -0.2592  -0.2079  -0.2005  -0.1629   0.0712
     0.1373   1.2906   1.5796

     occupation numbers 
     1.0000   1.0000   1.0000   1.0000   1.0000   1.0000   1.0000   1.0000
     1.0000   1.0000   1.0000   1.0000   1.0000   1.0000   1.0000   1.0000
     1.0000   1.0000   1.0000   1.0000   1.0000   1.0000   1.0000   1.0000
     1.0000   1.0000   1.0000   1.0000   1.0000   1.0000   1.0000   1.0000
     1.0000   1.0000   1.0000   1.0000   1.0000   1.0000   1.0000   1.0000
     1.0000   1.0000   1.0000   1.0000   1.0000   1.0000   1.0000   1.0000
     1.0000   1.0000   1.0000   1.0000   1.0000   1.0000   1.0000   1.0000
     1.0000   1.0000   1.0000   1.0000   1.0000   1.0000   1.0000   1.0000
     1.0000   1.0000   1.0000   1.0000   1.0000   1.0000   1.0000   1.0000
     1.0000   1.0000   1.0000   1.0000   1.0000   1.0000   1.0000   1.0000
     1.0000   1.0000   1.0000   1.0000   1.0000   1.0000   1.0000   1.0000
     1.0000   1.0000   1.0000   1.0000   1.0000   1.0000   1.0000   1.0000
     1.0000   1.0000   1.0000   1.0000   1.0000   1.0000   1.0000   1.0000
     1.0000   1.0000   1.0000   1.0000   1.0000   1.0000   1.0000   1.0000
     1.0000   1.0000   1.0000   1.0000   1.0000   1.0000   1.0000   1.0000
     1.0000   1.0000   1.0000   1.0000   1.0000   1.0000   1.0000   1.0000
     1.0000   1.0000   1.0000   1.0000   1.0000   1.0000   1.0000   1.0000
     1.0000   1.0000   1.0000   1.0000   1.0000   1.0000   1.0000   1.0000
     1.0000   1.0000   1.0000   1.0000   1.0000   1.0000   1.0000   1.0000
     1.0000   1.0000   1.0000   1.0000   1.0000   1.0000   1.0000   1.0000
     1.0000   1.0000   1.0000   1.0000   1.0000   1.0000   1.0000   1.0000
     1.0000   1.0000   1.0000   1.0000   1.0000   1.0000   1.0000   1.0000
     1.0000   1.0000   1.0000   1.0000   1.0000   1.0000   1.0000   1.0000
     1.0000   1.0000   1.0000   1.0000   1.0000   1.0000   1.0000   1.0000
     1.0000   1.0000   1.0000   1.0000   1.0000   1.0000   1.0000   1.0000
     1.0000   1.0000   1.0000   1.0000   1.0000   1.0000   1.0000   1.0000
     1.0000   1.0000   1.0000   1.0000   1.0000   1.0000   1.0000   1.0000
     1.0000   1.0000   1.0000   1.0000   1.0000   1.0000   1.0000   1.0000
     1.0000   1.0000   1.0000   1.0000   1.0000   1.0000   1.0000   1.0000
     1.0000   1.0000   1.0000   1.0000   1.0000   1.0000   1.0000   1.0000
     1.0000   1.0000   1.0000

          k = 0.4000-0.0000 0.0000 (112231 PWs)   bands (ev):

   -73.8170 -73.8145 -73.8111 -73.8090 -73.8063 -73.8049 -73.8034 -73.8011
   -73.7960 -73.7946 -73.7914 -73.7895 -73.7876 -73.7549 -73.7501 -73.7406
   -38.2127 -38.2033 -38.2001 -38.1795 -38.1763 -38.1661 -38.1565 -38.1499
   -38.1325 -38.1245 -38.1130 -38.0773 -38.0622 -38.0566 -38.0482 -38.0383
   -38.0312 -38.0292 -38.0257 -38.0223 -38.0145 -38.0097 -38.0044 -37.9990
   -37.9966 -37.9939 -37.9917 -37.9894 -37.9882 -37.9856 -37.9825 -37.9805
   -37.9756 -37.9751 -37.9698 -37.9659 -37.9588 -37.9553 -37.9520 -37.9473
   -37.9426 -37.9322 -37.9283 -37.9226 -37.9021 -37.8987 -37.8860 -37.8756
   -21.5210 -15.4856 -14.4762 -14.1001 -14.0641 -13.5692 -13.5640 -13.1714
   -13.1232 -13.0143 -12.9299 -12.8052 -12.7963 -12.7119 -12.6825 -12.6030
   -12.6001 -12.5746 -12.5616 -12.4575 -12.4241 -12.4134 -12.3654 -12.3082
   -12.2937 -12.2717 -12.2549 -12.2353 -12.2207 -12.1582 -12.1481 -12.1070
   -12.0976 -12.0366  -7.9391  -7.5791  -6.1972  -6.1823  -6.1535  -6.1202
    -6.1095  -5.7596  -5.7439  -5.7219  -5.6889  -5.6378  -5.6098  -5.5625
    -5.5067  -5.4743  -5.3529  -5.3361  -5.2938  -5.2728  -5.2456  -5.2305
    -5.0984  -4.9030  -4.8877  -4.8113  -4.7572  -4.5734  -4.5402  -4.4671
    -4.4110  -4.3479  -4.3391  -4.3144  -4.2767  -4.2655  -4.2447  -4.2119
    -4.1763  -4.1187  -4.1113  -4.0910  -4.0553  -3.7655  -3.7361  -3.7288
    -3.7093  -3.7000  -3.6302  -3.4879  -3.4323  -3.4042  -3.3738  -3.3283
    -3.2900  -3.2479  -3.2379  -3.2041  -3.1787  -3.1463  -3.1286  -3.0839
    -3.0449  -3.0074  -2.9708  -2.9535  -2.9425  -2.9253  -2.9094  -2.9015
    -2.7912  -2.7608  -2.7244  -2.6638  -2.6349  -2.5868  -2.5507  -2.4734
    -2.4694  -2.4225  -2.3897  -2.3484  -2.3227  -2.2286  -2.1823  -2.1642
    -2.1338  -2.1259  -2.1098  -2.1031  -2.0148  -1.9963  -1.9781  -1.9525
    -1.9286  -1.9024  -1.8845  -1.8666  -1.8544  -1.8232  -1.7941  -1.7714
    -1.7353  -1.7160  -1.6958  -1.6764  -1.6627  -1.6310  -1.5969  -1.5742
    -1.5585  -1.5488  -1.5344  -1.5080  -1.4515  -1.4145  -1.3715  -1.3419
    -1.2895  -1.2690  -1.2035  -1.1807  -1.1537  -1.1126  -1.0524  -1.0073
    -0.8692  -0.8512  -0.6836  -0.6761  -0.6406  -0.6244  -0.6162  -0.5429
    -0.5369  -0.4454  -0.3846  -0.2539  -0.2087  -0.1954  -0.1645   0.0685
     0.1373   1.3203   1.5486

     occupation numbers 
     1.0000   1.0000   1.0000   1.0000   1.0000   1.0000   1.0000   1.0000
     1.0000   1.0000   1.0000   1.0000   1.0000   1.0000   1.0000   1.0000
     1.0000   1.0000   1.0000   1.0000   1.0000   1.0000   1.0000   1.0000
     1.0000   1.0000   1.0000   1.0000   1.0000   1.0000   1.0000   1.0000
     1.0000   1.0000   1.0000   1.0000   1.0000   1.0000   1.0000   1.0000
     1.0000   1.0000   1.0000   1.0000   1.0000   1.0000   1.0000   1.0000
     1.0000   1.0000   1.0000   1.0000   1.0000   1.0000   1.0000   1.0000
     1.0000   1.0000   1.0000   1.0000   1.0000   1.0000   1.0000   1.0000
     1.0000   1.0000   1.0000   1.0000   1.0000   1.0000   1.0000   1.0000
     1.0000   1.0000   1.0000   1.0000   1.0000   1.0000   1.0000   1.0000
     1.0000   1.0000   1.0000   1.0000   1.0000   1.0000   1.0000   1.0000
     1.0000   1.0000   1.0000   1.0000   1.0000   1.0000   1.0000   1.0000
     1.0000   1.0000   1.0000   1.0000   1.0000   1.0000   1.0000   1.0000
     1.0000   1.0000   1.0000   1.0000   1.0000   1.0000   1.0000   1.0000
     1.0000   1.0000   1.0000   1.0000   1.0000   1.0000   1.0000   1.0000
     1.0000   1.0000   1.0000   1.0000   1.0000   1.0000   1.0000   1.0000
     1.0000   1.0000   1.0000   1.0000   1.0000   1.0000   1.0000   1.0000
     1.0000   1.0000   1.0000   1.0000   1.0000   1.0000   1.0000   1.0000
     1.0000   1.0000   1.0000   1.0000   1.0000   1.0000   1.0000   1.0000
     1.0000   1.0000   1.0000   1.0000   1.0000   1.0000   1.0000   1.0000
     1.0000   1.0000   1.0000   1.0000   1.0000   1.0000   1.0000   1.0000
     1.0000   1.0000   1.0000   1.0000   1.0000   1.0000   1.0000   1.0000
     1.0000   1.0000   1.0000   1.0000   1.0000   1.0000   1.0000   1.0000
     1.0000   1.0000   1.0000   1.0000   1.0000   1.0000   1.0000   1.0000
     1.0000   1.0000   1.0000   1.0000   1.0000   1.0000   1.0000   1.0000
     1.0000   1.0000   1.0000   1.0000   1.0000   1.0000   1.0000   1.0000
     1.0000   1.0000   1.0000   1.0000   1.0000   1.0000   1.0000   1.0000
     1.0000   1.0000   1.0000   1.0000   1.0000   1.0000   1.0000   1.0000
     1.0000   1.0000   1.0000   1.0000   1.0000   1.0000   1.0000   1.0000
     1.0000   1.0000   1.0000   1.0000   1.0000   1.0000   1.0000   1.0000
     1.0000   1.0000   1.0000

          k =-0.4000 0.4619 0.0000 (112237 PWs)   bands (ev):

   -73.8169 -73.8146 -73.8111 -73.8092 -73.8061 -73.8048 -73.8034 -73.8010
   -73.7962 -73.7945 -73.7914 -73.7896 -73.7876 -73.7549 -73.7501 -73.7406
   -38.2023 -38.1955 -38.1861 -38.1827 -38.1801 -38.1738 -38.1664 -38.1495
   -38.1467 -38.1332 -38.0948 -38.0906 -38.0854 -38.0525 -38.0452 -38.0416
   -38.0335 -38.0317 -38.0215 -38.0133 -38.0086 -38.0057 -38.0040 -38.0006
   -37.9995 -37.9968 -37.9940 -37.9885 -37.9864 -37.9826 -37.9752 -37.9721
   -37.9700 -37.9684 -37.9616 -37.9582 -37.9551 -37.9534 -37.9503 -37.9482
   -37.9460 -37.9386 -37.9343 -37.9274 -37.9153 -37.8965 -37.8858 -37.8800
   -21.5210 -15.4856 -14.3398 -14.2899 -14.1164 -13.5972 -13.2991 -13.2954
   -12.9623 -12.9502 -12.8873 -12.8573 -12.8283 -12.8017 -12.7969 -12.6663
   -12.6349 -12.5967 -12.4947 -12.4842 -12.3886 -12.3761 -12.3487 -12.3266
   -12.3100 -12.2978 -12.2617 -12.2354 -12.2300 -12.1345 -12.1205 -12.1155
   -12.0805 -12.0170  -7.9391  -7.5791  -6.1900  -6.0610  -6.0258  -5.9702
    -5.9159  -5.8912  -5.8782  -5.8603  -5.8088  -5.7454  -5.6900  -5.6266
    -5.6111  -5.5420  -5.3586  -5.2874  -5.2484  -5.2175  -5.2025  -5.1694
    -5.1584  -4.8553  -4.8336  -4.7468  -4.6211  -4.5910  -4.5454  -4.5260
    -4.4923  -4.4276  -4.3853  -4.3267  -4.3092  -4.2429  -4.2279  -4.2099
    -4.1944  -4.1647  -4.1210  -4.0952  -3.9579  -3.9479  -3.7937  -3.6728
    -3.6300  -3.5907  -3.4353  -3.3988  -3.3645  -3.3270  -3.3098  -3.2824
    -3.2796  -3.2682  -3.2430  -3.2327  -3.2209  -3.2148  -3.1505  -3.1220
    -3.0980  -3.0862  -3.0599  -3.0477  -2.9984  -2.9541  -2.8520  -2.8169
    -2.7457  -2.7317  -2.7137  -2.6833  -2.6325  -2.6003  -2.5124  -2.4214
    -2.4015  -2.3318  -2.3239  -2.3189  -2.2689  -2.1999  -2.1756  -2.1619
    -2.1475  -2.0910  -2.0809  -2.0529  -2.0295  -1.9800  -1.9697  -1.9496
    -1.9333  -1.9192  -1.8956  -1.8846  -1.8695  -1.8560  -1.8457  -1.8429
    -1.8195  -1.7963  -1.7602  -1.7285  -1.7061  -1.6956  -1.6741  -1.6549
    -1.6275  -1.5863  -1.5372  -1.5065  -1.4853  -1.4625  -1.4219  -1.3187
    -1.2857  -1.2375  -1.1716  -1.1174  -1.0951  -1.0790  -1.0460  -0.9763
    -0.8151  -0.7890  -0.7034  -0.6926  -0.6589  -0.6474  -0.6009  -0.5849
    -0.5683  -0.4163  -0.2818  -0.2755  -0.1802  -0.1202  -0.0783   0.0891
     0.1862   1.3287   1.5658

     occupation numbers 
     1.0000   1.0000   1.0000   1.0000   1.0000   1.0000   1.0000   1.0000
     1.0000   1.0000   1.0000   1.0000   1.0000   1.0000   1.0000   1.0000
     1.0000   1.0000   1.0000   1.0000   1.0000   1.0000   1.0000   1.0000
     1.0000   1.0000   1.0000   1.0000   1.0000   1.0000   1.0000   1.0000
     1.0000   1.0000   1.0000   1.0000   1.0000   1.0000   1.0000   1.0000
     1.0000   1.0000   1.0000   1.0000   1.0000   1.0000   1.0000   1.0000
     1.0000   1.0000   1.0000   1.0000   1.0000   1.0000   1.0000   1.0000
     1.0000   1.0000   1.0000   1.0000   1.0000   1.0000   1.0000   1.0000
     1.0000   1.0000   1.0000   1.0000   1.0000   1.0000   1.0000   1.0000
     1.0000   1.0000   1.0000   1.0000   1.0000   1.0000   1.0000   1.0000
     1.0000   1.0000   1.0000   1.0000   1.0000   1.0000   1.0000   1.0000
     1.0000   1.0000   1.0000   1.0000   1.0000   1.0000   1.0000   1.0000
     1.0000   1.0000   1.0000   1.0000   1.0000   1.0000   1.0000   1.0000
     1.0000   1.0000   1.0000   1.0000   1.0000   1.0000   1.0000   1.0000
     1.0000   1.0000   1.0000   1.0000   1.0000   1.0000   1.0000   1.0000
     1.0000   1.0000   1.0000   1.0000   1.0000   1.0000   1.0000   1.0000
     1.0000   1.0000   1.0000   1.0000   1.0000   1.0000   1.0000   1.0000
     1.0000   1.0000   1.0000   1.0000   1.0000   1.0000   1.0000   1.0000
     1.0000   1.0000   1.0000   1.0000   1.0000   1.0000   1.0000   1.0000
     1.0000   1.0000   1.0000   1.0000   1.0000   1.0000   1.0000   1.0000
     1.0000   1.0000   1.0000   1.0000   1.0000   1.0000   1.0000   1.0000
     1.0000   1.0000   1.0000   1.0000   1.0000   1.0000   1.0000   1.0000
     1.0000   1.0000   1.0000   1.0000   1.0000   1.0000   1.0000   1.0000
     1.0000   1.0000   1.0000   1.0000   1.0000   1.0000   1.0000   1.0000
     1.0000   1.0000   1.0000   1.0000   1.0000   1.0000   1.0000   1.0000
     1.0000   1.0000   1.0000   1.0000   1.0000   1.0000   1.0000   1.0000
     1.0000   1.0000   1.0000   1.0000   1.0000   1.0000   1.0000   1.0000
     1.0000   1.0000   1.0000   1.0000   1.0000   1.0000   1.0000   1.0000
     1.0000   1.0000   1.0000   1.0000   1.0000   1.0000   1.0000   1.0000
     1.0000   1.0000   1.0000   1.0000   1.0000   1.0000   1.0000   1.0000
     1.0000   1.0000   1.0000

          k = 0.6000 0.1155 0.0000 (112237 PWs)   bands (ev):

   -73.8168 -73.8149 -73.8111 -73.8088 -73.8062 -73.8049 -73.8034 -73.8010
   -73.7961 -73.7947 -73.7912 -73.7897 -73.7876 -73.7549 -73.7501 -73.7406
   -38.2010 -38.1971 -38.1869 -38.1842 -38.1773 -38.1738 -38.1659 -38.1493
   -38.1475 -38.1329 -38.0942 -38.0926 -38.0850 -38.0521 -38.0453 -38.0414
   -38.0336 -38.0319 -38.0211 -38.0125 -38.0094 -38.0064 -38.0034 -38.0010
   -38.0000 -37.9954 -37.9937 -37.9894 -37.9865 -37.9825 -37.9751 -37.9723
   -37.9699 -37.9692 -37.9614 -37.9581 -37.9556 -37.9536 -37.9507 -37.9480
   -37.9421 -37.9393 -37.9325 -37.9298 -37.9164 -37.8973 -37.8873 -37.8777
   -21.5210 -15.4856 -14.3392 -14.2907 -14.1162 -13.5971 -13.3063 -13.2881
   -12.9682 -12.9441 -12.8823 -12.8609 -12.8286 -12.8021 -12.7975 -12.6688
   -12.6338 -12.5949 -12.5046 -12.4741 -12.3953 -12.3728 -12.3449 -12.3220
   -12.3109 -12.3000 -12.2649 -12.2358 -12.2309 -12.1324 -12.1214 -12.1159
   -12.0798 -12.0173  -7.9391  -7.5791  -6.1900  -6.0579  -6.0207  -5.9693
    -5.9294  -5.9074  -5.8776  -5.8359  -5.8080  -5.7505  -5.6920  -5.6244
    -5.6133  -5.5385  -5.3575  -5.2837  -5.2570  -5.2263  -5.1978  -5.1733
    -5.1492  -4.8573  -4.8403  -4.6967  -4.6481  -4.6107  -4.5525  -4.5153
    -4.4953  -4.4365  -4.3858  -4.3223  -4.3031  -4.2429  -4.2323  -4.2005
    -4.1927  -4.1685  -4.1207  -4.0968  -3.9587  -3.9482  -3.7901  -3.6703
    -3.6315  -3.5815  -3.4371  -3.3772  -3.3684  -3.3359  -3.3041  -3.2881
    -3.2854  -3.2625  -3.2465  -3.2355  -3.2218  -3.2040  -3.1811  -3.1444
    -3.0883  -3.0799  -3.0542  -3.0225  -3.0078  -2.9668  -2.8501  -2.8146
    -2.7538  -2.7333  -2.7269  -2.6591  -2.6420  -2.5628  -2.5220  -2.4691
    -2.3963  -2.3369  -2.3169  -2.2981  -2.2479  -2.2158  -2.1753  -2.1520
    -2.1309  -2.1060  -2.0781  -2.0493  -2.0207  -1.9854  -1.9695  -1.9603
    -1.9391  -1.9139  -1.9040  -1.8830  -1.8736  -1.8632  -1.8544  -1.8455
    -1.8124  -1.7998  -1.7505  -1.7353  -1.7087  -1.6943  -1.6671  -1.6451
    -1.6279  -1.6065  -1.5399  -1.5223  -1.4775  -1.4354  -1.4075  -1.3307
    -1.2946  -1.2316  -1.1616  -1.1405  -1.0972  -1.0595  -1.0250  -0.9953
    -0.8115  -0.7955  -0.6989  -0.6971  -0.6599  -0.6534  -0.6016  -0.5964
    -0.5539  -0.4178  -0.2838  -0.2686  -0.1777  -0.1252  -0.0776   0.0899
     0.1865   1.3185   1.5782

     occupation numbers 
     1.0000   1.0000   1.0000   1.0000   1.0000   1.0000   1.0000   1.0000
     1.0000   1.0000   1.0000   1.0000   1.0000   1.0000   1.0000   1.0000
     1.0000   1.0000   1.0000   1.0000   1.0000   1.0000   1.0000   1.0000
     1.0000   1.0000   1.0000   1.0000   1.0000   1.0000   1.0000   1.0000
     1.0000   1.0000   1.0000   1.0000   1.0000   1.0000   1.0000   1.0000
     1.0000   1.0000   1.0000   1.0000   1.0000   1.0000   1.0000   1.0000
     1.0000   1.0000   1.0000   1.0000   1.0000   1.0000   1.0000   1.0000
     1.0000   1.0000   1.0000   1.0000   1.0000   1.0000   1.0000   1.0000
     1.0000   1.0000   1.0000   1.0000   1.0000   1.0000   1.0000   1.0000
     1.0000   1.0000   1.0000   1.0000   1.0000   1.0000   1.0000   1.0000
     1.0000   1.0000   1.0000   1.0000   1.0000   1.0000   1.0000   1.0000
     1.0000   1.0000   1.0000   1.0000   1.0000   1.0000   1.0000   1.0000
     1.0000   1.0000   1.0000   1.0000   1.0000   1.0000   1.0000   1.0000
     1.0000   1.0000   1.0000   1.0000   1.0000   1.0000   1.0000   1.0000
     1.0000   1.0000   1.0000   1.0000   1.0000   1.0000   1.0000   1.0000
     1.0000   1.0000   1.0000   1.0000   1.0000   1.0000   1.0000   1.0000
     1.0000   1.0000   1.0000   1.0000   1.0000   1.0000   1.0000   1.0000
     1.0000   1.0000   1.0000   1.0000   1.0000   1.0000   1.0000   1.0000
     1.0000   1.0000   1.0000   1.0000   1.0000   1.0000   1.0000   1.0000
     1.0000   1.0000   1.0000   1.0000   1.0000   1.0000   1.0000   1.0000
     1.0000   1.0000   1.0000   1.0000   1.0000   1.0000   1.0000   1.0000
     1.0000   1.0000   1.0000   1.0000   1.0000   1.0000   1.0000   1.0000
     1.0000   1.0000   1.0000   1.0000   1.0000   1.0000   1.0000   1.0000
     1.0000   1.0000   1.0000   1.0000   1.0000   1.0000   1.0000   1.0000
     1.0000   1.0000   1.0000   1.0000   1.0000   1.0000   1.0000   1.0000
     1.0000   1.0000   1.0000   1.0000   1.0000   1.0000   1.0000   1.0000
     1.0000   1.0000   1.0000   1.0000   1.0000   1.0000   1.0000   1.0000
     1.0000   1.0000   1.0000   1.0000   1.0000   1.0000   1.0000   1.0000
     1.0000   1.0000   1.0000   1.0000   1.0000   1.0000   1.0000   1.0000
     1.0000   1.0000   1.0000   1.0000   1.0000   1.0000   1.0000   1.0000
     1.0000   1.0000   1.0000

 ------ SPIN DOWN ----------


          k = 0.0000 0.0000 0.0000 (112117 PWs)   bands (ev):

   -73.8141 -73.8096 -73.8066 -73.8048 -73.8026 -73.8019 -73.7986 -73.7963
   -73.7940 -73.7890 -73.7881 -73.7865 -73.7824 -73.7415 -73.7318 -73.7289
   -38.2163 -38.2150 -38.2130 -38.1570 -38.1563 -38.1522 -38.1476 -38.1464
   -38.1351 -38.0560 -38.0509 -38.0483 -38.0477 -38.0417 -38.0387 -38.0374
   -38.0246 -38.0227 -38.0209 -38.0196 -38.0170 -38.0167 -38.0153 -38.0124
   -38.0092 -38.0059 -38.0045 -37.9996 -37.9927 -37.9892 -37.9867 -37.9852
   -37.9837 -37.9766 -37.9525 -37.9516 -37.9487 -37.9450 -37.9357 -37.9251
   -37.9191 -37.9082 -37.9059 -37.9044 -37.9020 -37.8912 -37.8587 -37.8567
   -21.5196 -15.4844 -14.5949 -13.7061 -13.6915 -13.6715 -13.6428 -13.6288
   -13.6196 -12.9795 -12.7053 -12.6748 -12.6506 -12.6361 -12.6010 -12.5802
   -12.5328 -12.5040 -12.4681 -12.4553 -12.4436 -12.4419 -12.4208 -12.4193
   -12.4155 -12.2206 -12.1984 -12.1886 -12.1719 -12.1563 -12.1524 -12.1481
   -12.1461 -12.1437  -7.9372  -7.5773  -6.3361  -6.3230  -6.3054  -6.2760
    -6.1807  -5.6003  -5.5687  -5.5447  -5.5289  -5.5248  -5.4922  -5.4381
    -5.4052  -5.3865  -5.3112  -5.2800  -5.2600  -5.0992  -5.0902  -5.0621
    -5.0574  -5.0534  -5.0527  -4.9967  -4.9960  -4.9876  -4.5117  -4.4324
    -4.3926  -4.3433  -4.2896  -4.2805  -4.2646  -4.2433  -4.2300  -4.1763
    -4.0773  -4.0066  -3.9755  -3.9604  -3.9341  -3.7885  -3.7559  -3.7521
    -3.6982  -3.6762  -3.6732  -3.6004  -3.5079  -3.4685  -3.4031  -3.3993
    -3.3718  -3.3650  -3.2751  -3.2193  -3.1931  -3.1794  -3.1576  -3.1399
    -3.1268  -3.1220  -3.1078  -3.1053  -3.0395  -2.9246  -2.7920  -2.7484
    -2.6873  -2.6661  -2.6203  -2.5858  -2.5728  -2.5027  -2.4914  -2.4629
    -2.4579  -2.4307  -2.4279  -2.4229  -2.3903  -2.3295  -2.2726  -2.1861
    -2.1162  -2.0538  -1.9643  -1.9594  -1.9300  -1.9165  -1.8653  -1.8231
    -1.7989  -1.7748  -1.7638  -1.7619  -1.7497  -1.7472  -1.7412  -1.7378
    -1.7322  -1.6994  -1.6911  -1.6560  -1.6464  -1.6343  -1.6316  -1.5985
    -1.5726  -1.5259  -1.5158  -1.4887  -1.4480  -1.4089  -1.3695  -1.3520
    -1.2898  -1.2618  -1.1825  -1.0874  -1.0357  -1.0264  -1.0096  -0.9903
    -0.7225  -0.6872  -0.6831  -0.6828  -0.6698  -0.6650  -0.6429  -0.6365
    -0.6201  -0.3927  -0.3814  -0.3714  -0.3562  -0.3394  -0.3300  -0.2950
     0.2181   1.3015   1.6761

     occupation numbers 
     1.0000   1.0000   1.0000   1.0000   1.0000   1.0000   1.0000   1.0000
     1.0000   1.0000   1.0000   1.0000   1.0000   1.0000   1.0000   1.0000
     1.0000   1.0000   1.0000   1.0000   1.0000   1.0000   1.0000   1.0000
     1.0000   1.0000   1.0000   1.0000   1.0000   1.0000   1.0000   1.0000
     1.0000   1.0000   1.0000   1.0000   1.0000   1.0000   1.0000   1.0000
     1.0000   1.0000   1.0000   1.0000   1.0000   1.0000   1.0000   1.0000
     1.0000   1.0000   1.0000   1.0000   1.0000   1.0000   1.0000   1.0000
     1.0000   1.0000   1.0000   1.0000   1.0000   1.0000   1.0000   1.0000
     1.0000   1.0000   1.0000   1.0000   1.0000   1.0000   1.0000   1.0000
     1.0000   1.0000   1.0000   1.0000   1.0000   1.0000   1.0000   1.0000
     1.0000   1.0000   1.0000   1.0000   1.0000   1.0000   1.0000   1.0000
     1.0000   1.0000   1.0000   1.0000   1.0000   1.0000   1.0000   1.0000
     1.0000   1.0000   1.0000   1.0000   1.0000   1.0000   1.0000   1.0000
     1.0000   1.0000   1.0000   1.0000   1.0000   1.0000   1.0000   1.0000
     1.0000   1.0000   1.0000   1.0000   1.0000   1.0000   1.0000   1.0000
     1.0000   1.0000   1.0000   1.0000   1.0000   1.0000   1.0000   1.0000
     1.0000   1.0000   1.0000   1.0000   1.0000   1.0000   1.0000   1.0000
     1.0000   1.0000   1.0000   1.0000   1.0000   1.0000   1.0000   1.0000
     1.0000   1.0000   1.0000   1.0000   1.0000   1.0000   1.0000   1.0000
     1.0000   1.0000   1.0000   1.0000   1.0000   1.0000   1.0000   1.0000
     1.0000   1.0000   1.0000   1.0000   1.0000   1.0000   1.0000   1.0000
     1.0000   1.0000   1.0000   1.0000   1.0000   1.0000   1.0000   1.0000
     1.0000   1.0000   1.0000   1.0000   1.0000   1.0000   1.0000   1.0000
     1.0000   1.0000   1.0000   1.0000   1.0000   1.0000   1.0000   1.0000
     1.0000   1.0000   1.0000   1.0000   1.0000   1.0000   1.0000   1.0000
     1.0000   1.0000   1.0000   1.0000   1.0000   1.0000   1.0000   1.0000
     1.0000   1.0000   1.0000   1.0000   1.0000   1.0000   1.0000   1.0000
     1.0000   1.0000   1.0000   1.0000   1.0000   1.0000   1.0000   1.0000
     1.0000   1.0000   1.0000   1.0000   1.0000   1.0000   1.0000   1.0000
     1.0000   1.0000   1.0000   1.0000   1.0000   1.0000   1.0000   1.0000
     1.0000   1.0000   0.0000

          k = 0.0000 0.2309 0.0000 (112171 PWs)   bands (ev):

   -73.8140 -73.8097 -73.8068 -73.8047 -73.8028 -73.8016 -73.7985 -73.7962
   -73.7941 -73.7890 -73.7881 -73.7865 -73.7824 -73.7415 -73.7318 -73.7289
   -38.2115 -38.2096 -38.2066 -38.1606 -38.1591 -38.1577 -38.1505 -38.1399
   -38.1319 -38.0966 -38.0713 -38.0699 -38.0465 -38.0426 -38.0379 -38.0270
   -38.0256 -38.0204 -38.0175 -38.0162 -38.0134 -38.0105 -38.0089 -38.0055
   -37.9995 -37.9947 -37.9943 -37.9908 -37.9882 -37.9869 -37.9841 -37.9833
   -37.9795 -37.9765 -37.9557 -37.9532 -37.9492 -37.9458 -37.9358 -37.9261
   -37.9255 -37.9147 -37.9108 -37.9029 -37.8990 -37.8897 -37.8644 -37.8594
   -21.5196 -15.4844 -14.5533 -13.9731 -13.7989 -13.7829 -13.4889 -13.4589
   -13.3221 -12.9635 -12.8002 -12.7323 -12.6931 -12.6848 -12.6529 -12.5832
   -12.5522 -12.5392 -12.4919 -12.4752 -12.4540 -12.4332 -12.4221 -12.3139
   -12.2828 -12.2605 -12.2420 -12.2127 -12.1832 -12.1727 -12.1658 -12.1510
   -12.0940 -12.0783  -7.9372  -7.5773  -6.2750  -6.2645  -6.2333  -6.2304
    -6.1774  -5.6593  -5.6397  -5.6232  -5.5531  -5.5145  -5.4860  -5.4671
    -5.4229  -5.4126  -5.3902  -5.3176  -5.3134  -5.2828  -5.2660  -5.0688
    -5.0640  -5.0131  -4.9993  -4.9512  -4.7359  -4.7313  -4.5803  -4.4733
    -4.4447  -4.3808  -4.3181  -4.2808  -4.2030  -4.1573  -4.1423  -4.1162
    -4.0961  -4.0579  -4.0398  -3.9978  -3.9816  -3.9074  -3.9050  -3.8974
    -3.6562  -3.5664  -3.5354  -3.5017  -3.4625  -3.4381  -3.4336  -3.3800
    -3.3608  -3.3096  -3.2887  -3.2750  -3.2615  -3.2030  -3.1890  -3.1461
    -3.0730  -2.9808  -2.9372  -2.9214  -2.8426  -2.7754  -2.7558  -2.7414
    -2.7155  -2.7078  -2.6923  -2.6685  -2.6423  -2.6250  -2.5826  -2.5381
    -2.4998  -2.4951  -2.4636  -2.4290  -2.3475  -2.3015  -2.1853  -2.1568
    -2.1043  -2.0609  -2.0086  -1.9930  -1.9678  -1.9486  -1.9224  -1.9004
    -1.8811  -1.8519  -1.8400  -1.8106  -1.7773  -1.7522  -1.7366  -1.7267
    -1.7158  -1.6935  -1.6775  -1.6516  -1.6361  -1.5997  -1.5785  -1.5382
    -1.5229  -1.4882  -1.4764  -1.4479  -1.4285  -1.3642  -1.3316  -1.3187
    -1.2934  -1.2721  -1.2323  -1.2142  -1.1481  -1.0617  -1.0384  -1.0065
    -0.8875  -0.7736  -0.7553  -0.7388  -0.5633  -0.5591  -0.5421  -0.5281
    -0.5150  -0.5022  -0.4027  -0.3719  -0.3561  -0.2428  -0.1654  -0.1350
     0.2001   1.3073   1.7072

     occupation numbers 
     1.0000   1.0000   1.0000   1.0000   1.0000   1.0000   1.0000   1.0000
     1.0000   1.0000   1.0000   1.0000   1.0000   1.0000   1.0000   1.0000
     1.0000   1.0000   1.0000   1.0000   1.0000   1.0000   1.0000   1.0000
     1.0000   1.0000   1.0000   1.0000   1.0000   1.0000   1.0000   1.0000
     1.0000   1.0000   1.0000   1.0000   1.0000   1.0000   1.0000   1.0000
     1.0000   1.0000   1.0000   1.0000   1.0000   1.0000   1.0000   1.0000
     1.0000   1.0000   1.0000   1.0000   1.0000   1.0000   1.0000   1.0000
     1.0000   1.0000   1.0000   1.0000   1.0000   1.0000   1.0000   1.0000
     1.0000   1.0000   1.0000   1.0000   1.0000   1.0000   1.0000   1.0000
     1.0000   1.0000   1.0000   1.0000   1.0000   1.0000   1.0000   1.0000
     1.0000   1.0000   1.0000   1.0000   1.0000   1.0000   1.0000   1.0000
     1.0000   1.0000   1.0000   1.0000   1.0000   1.0000   1.0000   1.0000
     1.0000   1.0000   1.0000   1.0000   1.0000   1.0000   1.0000   1.0000
     1.0000   1.0000   1.0000   1.0000   1.0000   1.0000   1.0000   1.0000
     1.0000   1.0000   1.0000   1.0000   1.0000   1.0000   1.0000   1.0000
     1.0000   1.0000   1.0000   1.0000   1.0000   1.0000   1.0000   1.0000
     1.0000   1.0000   1.0000   1.0000   1.0000   1.0000   1.0000   1.0000
     1.0000   1.0000   1.0000   1.0000   1.0000   1.0000   1.0000   1.0000
     1.0000   1.0000   1.0000   1.0000   1.0000   1.0000   1.0000   1.0000
     1.0000   1.0000   1.0000   1.0000   1.0000   1.0000   1.0000   1.0000
     1.0000   1.0000   1.0000   1.0000   1.0000   1.0000   1.0000   1.0000
     1.0000   1.0000   1.0000   1.0000   1.0000   1.0000   1.0000   1.0000
     1.0000   1.0000   1.0000   1.0000   1.0000   1.0000   1.0000   1.0000
     1.0000   1.0000   1.0000   1.0000   1.0000   1.0000   1.0000   1.0000
     1.0000   1.0000   1.0000   1.0000   1.0000   1.0000   1.0000   1.0000
     1.0000   1.0000   1.0000   1.0000   1.0000   1.0000   1.0000   1.0000
     1.0000   1.0000   1.0000   1.0000   1.0000   1.0000   1.0000   1.0000
     1.0000   1.0000   1.0000   1.0000   1.0000   1.0000   1.0000   1.0000
     1.0000   1.0000   1.0000   1.0000   1.0000   1.0000   1.0000   1.0000
     1.0000   1.0000   1.0000   1.0000   1.0000   1.0000   1.0000   1.0000
     1.0000   1.0000   0.0000

          k = 0.0000 0.4619 0.0000 (112236 PWs)   bands (ev):

   -73.8139 -73.8098 -73.8072 -73.8046 -73.8029 -73.8013 -73.7984 -73.7961
   -73.7943 -73.7890 -73.7881 -73.7866 -73.7824 -73.7415 -73.7318 -73.7289
   -38.2009 -38.1966 -38.1850 -38.1779 -38.1729 -38.1584 -38.1548 -38.1388
   -38.1243 -38.1171 -38.0962 -38.0935 -38.0566 -38.0503 -38.0429 -38.0333
   -38.0272 -38.0159 -38.0103 -38.0074 -38.0031 -38.0019 -37.9987 -37.9976
   -37.9949 -37.9917 -37.9914 -37.9878 -37.9841 -37.9825 -37.9765 -37.9734
   -37.9671 -37.9607 -37.9588 -37.9507 -37.9452 -37.9414 -37.9390 -37.9338
   -37.9324 -37.9224 -37.9178 -37.9094 -37.8992 -37.8843 -37.8784 -37.8628
   -21.5196 -15.4844 -14.4315 -14.2302 -13.8684 -13.8509 -13.2595 -13.2277
   -13.0150 -12.9963 -12.9675 -12.9136 -12.8303 -12.7266 -12.7022 -12.6865
   -12.5175 -12.5100 -12.4583 -12.4475 -12.4340 -12.4232 -12.3802 -12.3665
   -12.3482 -12.2822 -12.2131 -12.1995 -12.1751 -12.1569 -12.1552 -12.1508
   -12.0548 -12.0375  -7.9372  -7.5773  -6.1898  -6.1196  -6.1054  -6.0865
    -6.0210  -5.8678  -5.8557  -5.8307  -5.7082  -5.5281  -5.4954  -5.4825
    -5.4553  -5.4426  -5.4335  -5.3876  -5.3702  -5.3208  -5.2974  -5.0639
    -5.0586  -5.0258  -5.0064  -4.8029  -4.6215  -4.5167  -4.4791  -4.4351
    -4.3906  -4.3708  -4.3448  -4.3070  -4.2405  -4.2258  -4.1879  -4.1563
    -4.1255  -4.1144  -4.0998  -4.0734  -4.0633  -4.0484  -4.0383  -3.6801
    -3.5654  -3.5035  -3.4720  -3.4373  -3.4127  -3.3832  -3.3630  -3.3065
    -3.2850  -3.2760  -3.2574  -3.2329  -3.2152  -3.1825  -3.1530  -3.1029
    -3.0585  -3.0455  -3.0017  -2.9501  -2.9320  -2.9049  -2.8421  -2.7588
    -2.7225  -2.6929  -2.6430  -2.6277  -2.5926  -2.5529  -2.5251  -2.4780
    -2.4392  -2.4251  -2.3888  -2.3107  -2.2730  -2.2466  -2.2375  -2.1692
    -2.1028  -2.0817  -2.0335  -2.0086  -2.0018  -1.9902  -1.9699  -1.9346
    -1.9179  -1.8968  -1.8742  -1.8639  -1.8491  -1.8370  -1.8275  -1.8215
    -1.7631  -1.7568  -1.7117  -1.7029  -1.6799  -1.6522  -1.6225  -1.6089
    -1.5809  -1.5471  -1.5159  -1.4860  -1.4183  -1.3806  -1.2965  -1.2786
    -1.2228  -1.1954  -1.1852  -1.1380  -1.1116  -1.0911  -1.0386  -0.9923
    -0.9661  -0.8841  -0.7276  -0.7126  -0.6351  -0.6151  -0.4786  -0.4501
    -0.4383  -0.4268  -0.3931  -0.3697  -0.2989  -0.0820   0.0067   0.0363
     0.1536   1.3160   1.7582

     occupation numbers 
     1.0000   1.0000   1.0000   1.0000   1.0000   1.0000   1.0000   1.0000
     1.0000   1.0000   1.0000   1.0000   1.0000   1.0000   1.0000   1.0000
     1.0000   1.0000   1.0000   1.0000   1.0000   1.0000   1.0000   1.0000
     1.0000   1.0000   1.0000   1.0000   1.0000   1.0000   1.0000   1.0000
     1.0000   1.0000   1.0000   1.0000   1.0000   1.0000   1.0000   1.0000
     1.0000   1.0000   1.0000   1.0000   1.0000   1.0000   1.0000   1.0000
     1.0000   1.0000   1.0000   1.0000   1.0000   1.0000   1.0000   1.0000
     1.0000   1.0000   1.0000   1.0000   1.0000   1.0000   1.0000   1.0000
     1.0000   1.0000   1.0000   1.0000   1.0000   1.0000   1.0000   1.0000
     1.0000   1.0000   1.0000   1.0000   1.0000   1.0000   1.0000   1.0000
     1.0000   1.0000   1.0000   1.0000   1.0000   1.0000   1.0000   1.0000
     1.0000   1.0000   1.0000   1.0000   1.0000   1.0000   1.0000   1.0000
     1.0000   1.0000   1.0000   1.0000   1.0000   1.0000   1.0000   1.0000
     1.0000   1.0000   1.0000   1.0000   1.0000   1.0000   1.0000   1.0000
     1.0000   1.0000   1.0000   1.0000   1.0000   1.0000   1.0000   1.0000
     1.0000   1.0000   1.0000   1.0000   1.0000   1.0000   1.0000   1.0000
     1.0000   1.0000   1.0000   1.0000   1.0000   1.0000   1.0000   1.0000
     1.0000   1.0000   1.0000   1.0000   1.0000   1.0000   1.0000   1.0000
     1.0000   1.0000   1.0000   1.0000   1.0000   1.0000   1.0000   1.0000
     1.0000   1.0000   1.0000   1.0000   1.0000   1.0000   1.0000   1.0000
     1.0000   1.0000   1.0000   1.0000   1.0000   1.0000   1.0000   1.0000
     1.0000   1.0000   1.0000   1.0000   1.0000   1.0000   1.0000   1.0000
     1.0000   1.0000   1.0000   1.0000   1.0000   1.0000   1.0000   1.0000
     1.0000   1.0000   1.0000   1.0000   1.0000   1.0000   1.0000   1.0000
     1.0000   1.0000   1.0000   1.0000   1.0000   1.0000   1.0000   1.0000
     1.0000   1.0000   1.0000   1.0000   1.0000   1.0000   1.0000   1.0000
     1.0000   1.0000   1.0000   1.0000   1.0000   1.0000   1.0000   1.0000
     1.0000   1.0000   1.0000   1.0000   1.0000   1.0000   1.0000   1.0000
     1.0000   1.0000   1.0000   1.0000   1.0000   1.0000   1.0000   1.0000
     1.0000   1.0000   1.0000   1.0000   1.0000   1.0000   1.0000   1.0000
     1.0000   1.0000   0.0000

          k = 0.2000 0.3464 0.0000 (112231 PWs)   bands (ev):

   -73.8139 -73.8099 -73.8070 -73.8047 -73.8027 -73.8013 -73.7987 -73.7962
   -73.7940 -73.7891 -73.7880 -73.7866 -73.7824 -73.7415 -73.7318 -73.7289
   -38.2052 -38.1961 -38.1953 -38.1726 -38.1674 -38.1584 -38.1485 -38.1414
   -38.1266 -38.1161 -38.1053 -38.0703 -38.0533 -38.0478 -38.0435 -38.0320
   -38.0272 -38.0225 -38.0172 -38.0145 -38.0110 -38.0055 -37.9988 -37.9972
   -37.9917 -37.9885 -37.9869 -37.9847 -37.9825 -37.9799 -37.9766 -37.9754
   -37.9699 -37.9659 -37.9575 -37.9521 -37.9494 -37.9466 -37.9378 -37.9334
   -37.9268 -37.9205 -37.9175 -37.9092 -37.8960 -37.8892 -37.8741 -37.8615
   -21.5196 -15.4844 -14.4714 -14.0984 -14.0571 -13.5630 -13.5611 -13.1690
   -13.1167 -13.0054 -12.9315 -12.8052 -12.7863 -12.7065 -12.6699 -12.6008
   -12.5914 -12.5741 -12.5691 -12.4539 -12.4223 -12.3879 -12.3738 -12.3100
   -12.2882 -12.2698 -12.2503 -12.2299 -12.2191 -12.1525 -12.1479 -12.1053
   -12.0941 -12.0339  -7.9372  -7.5773  -6.1930  -6.1712  -6.1430  -6.1198
    -6.1012  -5.7540  -5.7309  -5.7160  -5.6755  -5.6403  -5.5982  -5.5598
    -5.5011  -5.4694  -5.3507  -5.3282  -5.2803  -5.2709  -5.2388  -5.2220
    -5.0916  -4.8996  -4.8852  -4.8100  -4.7488  -4.5929  -4.4834  -4.4578
    -4.3909  -4.3614  -4.3337  -4.2982  -4.2727  -4.2594  -4.2293  -4.2214
    -4.1682  -4.1182  -4.1033  -4.0881  -4.0528  -3.7564  -3.7300  -3.7208
    -3.7132  -3.6879  -3.5987  -3.4900  -3.4220  -3.3903  -3.3450  -3.3145
    -3.2804  -3.2400  -3.2173  -3.1988  -3.1623  -3.1461  -3.0941  -3.0875
    -3.0329  -3.0006  -2.9651  -2.9438  -2.9357  -2.9181  -2.9033  -2.8907
    -2.7933  -2.7183  -2.6892  -2.6406  -2.6042  -2.5373  -2.5034  -2.4707
    -2.4541  -2.4252  -2.3804  -2.3541  -2.3045  -2.2090  -2.1713  -2.1535
    -2.1207  -2.1193  -2.0818  -2.0715  -1.9963  -1.9817  -1.9657  -1.9381
    -1.9166  -1.8928  -1.8690  -1.8448  -1.8294  -1.8153  -1.7872  -1.7432
    -1.7229  -1.7079  -1.6992  -1.6634  -1.6570  -1.6098  -1.5821  -1.5687
    -1.5602  -1.5338  -1.5217  -1.4945  -1.4144  -1.3825  -1.3686  -1.3558
    -1.2794  -1.2160  -1.1995  -1.1755  -1.1483  -1.1034  -1.0220  -0.9940
    -0.8682  -0.8366  -0.6747  -0.6649  -0.6307  -0.6214  -0.6081  -0.5332
    -0.5244  -0.4194  -0.3682  -0.2495  -0.2005  -0.1912  -0.1432   0.0802
     0.1653   1.3298   1.7284

     occupation numbers 
     1.0000   1.0000   1.0000   1.0000   1.0000   1.0000   1.0000   1.0000
     1.0000   1.0000   1.0000   1.0000   1.0000   1.0000   1.0000   1.0000
     1.0000   1.0000   1.0000   1.0000   1.0000   1.0000   1.0000   1.0000
     1.0000   1.0000   1.0000   1.0000   1.0000   1.0000   1.0000   1.0000
     1.0000   1.0000   1.0000   1.0000   1.0000   1.0000   1.0000   1.0000
     1.0000   1.0000   1.0000   1.0000   1.0000   1.0000   1.0000   1.0000
     1.0000   1.0000   1.0000   1.0000   1.0000   1.0000   1.0000   1.0000
     1.0000   1.0000   1.0000   1.0000   1.0000   1.0000   1.0000   1.0000
     1.0000   1.0000   1.0000   1.0000   1.0000   1.0000   1.0000   1.0000
     1.0000   1.0000   1.0000   1.0000   1.0000   1.0000   1.0000   1.0000
     1.0000   1.0000   1.0000   1.0000   1.0000   1.0000   1.0000   1.0000
     1.0000   1.0000   1.0000   1.0000   1.0000   1.0000   1.0000   1.0000
     1.0000   1.0000   1.0000   1.0000   1.0000   1.0000   1.0000   1.0000
     1.0000   1.0000   1.0000   1.0000   1.0000   1.0000   1.0000   1.0000
     1.0000   1.0000   1.0000   1.0000   1.0000   1.0000   1.0000   1.0000
     1.0000   1.0000   1.0000   1.0000   1.0000   1.0000   1.0000   1.0000
     1.0000   1.0000   1.0000   1.0000   1.0000   1.0000   1.0000   1.0000
     1.0000   1.0000   1.0000   1.0000   1.0000   1.0000   1.0000   1.0000
     1.0000   1.0000   1.0000   1.0000   1.0000   1.0000   1.0000   1.0000
     1.0000   1.0000   1.0000   1.0000   1.0000   1.0000   1.0000   1.0000
     1.0000   1.0000   1.0000   1.0000   1.0000   1.0000   1.0000   1.0000
     1.0000   1.0000   1.0000   1.0000   1.0000   1.0000   1.0000   1.0000
     1.0000   1.0000   1.0000   1.0000   1.0000   1.0000   1.0000   1.0000
     1.0000   1.0000   1.0000   1.0000   1.0000   1.0000   1.0000   1.0000
     1.0000   1.0000   1.0000   1.0000   1.0000   1.0000   1.0000   1.0000
     1.0000   1.0000   1.0000   1.0000   1.0000   1.0000   1.0000   1.0000
     1.0000   1.0000   1.0000   1.0000   1.0000   1.0000   1.0000   1.0000
     1.0000   1.0000   1.0000   1.0000   1.0000   1.0000   1.0000   1.0000
     1.0000   1.0000   1.0000   1.0000   1.0000   1.0000   1.0000   1.0000
     1.0000   1.0000   1.0000   1.0000   1.0000   1.0000   1.0000   1.0000
     1.0000   1.0000   0.0000

          k = 0.2000 0.5774 0.0000 (112237 PWs)   bands (ev):

   -73.8138 -73.8099 -73.8072 -73.8047 -73.8027 -73.8013 -73.7985 -73.7962
   -73.7942 -73.7891 -73.7880 -73.7866 -73.7824 -73.7415 -73.7318 -73.7289
   -38.1959 -38.1890 -38.1803 -38.1761 -38.1704 -38.1666 -38.1585 -38.1431
   -38.1391 -38.1230 -38.0858 -38.0844 -38.0765 -38.0451 -38.0412 -38.0347
   -38.0293 -38.0229 -38.0136 -38.0099 -38.0039 -38.0001 -37.9982 -37.9963
   -37.9952 -37.9933 -37.9886 -37.9845 -37.9820 -37.9764 -37.9692 -37.9652
   -37.9601 -37.9558 -37.9535 -37.9507 -37.9495 -37.9419 -37.9382 -37.9347
   -37.9315 -37.9245 -37.9204 -37.9163 -37.9045 -37.8869 -37.8746 -37.8662
   -21.5196 -15.4844 -14.3316 -14.2896 -14.1116 -13.5920 -13.2959 -13.2911
   -12.9477 -12.9444 -12.8854 -12.8500 -12.8377 -12.7998 -12.7903 -12.6551
   -12.6277 -12.5999 -12.4882 -12.4817 -12.3800 -12.3685 -12.3550 -12.3215
   -12.3070 -12.2952 -12.2558 -12.2313 -12.2302 -12.1282 -12.1182 -12.1158
   -12.0770 -12.0144  -7.9372  -7.5773  -6.1877  -6.0447  -5.9982  -5.9816
    -5.9149  -5.8899  -5.8706  -5.8439  -5.8052  -5.7399  -5.6816  -5.6183
    -5.6097  -5.5370  -5.3581  -5.2604  -5.2503  -5.2134  -5.1982  -5.1662
    -5.1500  -4.8508  -4.8270  -4.7436  -4.6270  -4.5710  -4.5413  -4.5142
    -4.4685  -4.4115  -4.3919  -4.3118  -4.3056  -4.2354  -4.2282  -4.2080
    -4.1819  -4.1610  -4.1187  -4.0923  -3.9492  -3.9457  -3.7844  -3.6566
    -3.6351  -3.5602  -3.4270  -3.3832  -3.3502  -3.3177  -3.2979  -3.2794
    -3.2647  -3.2554  -3.2374  -3.2278  -3.2104  -3.1949  -3.1355  -3.1164
    -3.0921  -3.0741  -3.0563  -3.0241  -2.9920  -2.9220  -2.8678  -2.8119
    -2.7293  -2.6984  -2.6788  -2.6559  -2.5995  -2.5412  -2.4933  -2.4416
    -2.3847  -2.3269  -2.3145  -2.3003  -2.2450  -2.1896  -2.1671  -2.1243
    -2.1081  -2.0932  -2.0684  -2.0467  -2.0064  -1.9730  -1.9538  -1.9429
    -1.9247  -1.9051  -1.8856  -1.8692  -1.8608  -1.8482  -1.8377  -1.8281
    -1.8108  -1.7714  -1.7556  -1.7269  -1.6955  -1.6727  -1.6582  -1.6358
    -1.6022  -1.5607  -1.5432  -1.4905  -1.4723  -1.4577  -1.3918  -1.3205
    -1.2660  -1.1850  -1.1520  -1.1338  -1.0868  -1.0728  -0.9985  -0.9762
    -0.8066  -0.7915  -0.6953  -0.6829  -0.6500  -0.6357  -0.5856  -0.5747
    -0.5566  -0.3927  -0.2716  -0.2624  -0.1802  -0.1171  -0.0566   0.1207
     0.1969   1.3379   1.7415

     occupation numbers 
     1.0000   1.0000   1.0000   1.0000   1.0000   1.0000   1.0000   1.0000
     1.0000   1.0000   1.0000   1.0000   1.0000   1.0000   1.0000   1.0000
     1.0000   1.0000   1.0000   1.0000   1.0000   1.0000   1.0000   1.0000
     1.0000   1.0000   1.0000   1.0000   1.0000   1.0000   1.0000   1.0000
     1.0000   1.0000   1.0000   1.0000   1.0000   1.0000   1.0000   1.0000
     1.0000   1.0000   1.0000   1.0000   1.0000   1.0000   1.0000   1.0000
     1.0000   1.0000   1.0000   1.0000   1.0000   1.0000   1.0000   1.0000
     1.0000   1.0000   1.0000   1.0000   1.0000   1.0000   1.0000   1.0000
     1.0000   1.0000   1.0000   1.0000   1.0000   1.0000   1.0000   1.0000
     1.0000   1.0000   1.0000   1.0000   1.0000   1.0000   1.0000   1.0000
     1.0000   1.0000   1.0000   1.0000   1.0000   1.0000   1.0000   1.0000
     1.0000   1.0000   1.0000   1.0000   1.0000   1.0000   1.0000   1.0000
     1.0000   1.0000   1.0000   1.0000   1.0000   1.0000   1.0000   1.0000
     1.0000   1.0000   1.0000   1.0000   1.0000   1.0000   1.0000   1.0000
     1.0000   1.0000   1.0000   1.0000   1.0000   1.0000   1.0000   1.0000
     1.0000   1.0000   1.0000   1.0000   1.0000   1.0000   1.0000   1.0000
     1.0000   1.0000   1.0000   1.0000   1.0000   1.0000   1.0000   1.0000
     1.0000   1.0000   1.0000   1.0000   1.0000   1.0000   1.0000   1.0000
     1.0000   1.0000   1.0000   1.0000   1.0000   1.0000   1.0000   1.0000
     1.0000   1.0000   1.0000   1.0000   1.0000   1.0000   1.0000   1.0000
     1.0000   1.0000   1.0000   1.0000   1.0000   1.0000   1.0000   1.0000
     1.0000   1.0000   1.0000   1.0000   1.0000   1.0000   1.0000   1.0000
     1.0000   1.0000   1.0000   1.0000   1.0000   1.0000   1.0000   1.0000
     1.0000   1.0000   1.0000   1.0000   1.0000   1.0000   1.0000   1.0000
     1.0000   1.0000   1.0000   1.0000   1.0000   1.0000   1.0000   1.0000
     1.0000   1.0000   1.0000   1.0000   1.0000   1.0000   1.0000   1.0000
     1.0000   1.0000   1.0000   1.0000   1.0000   1.0000   1.0000   1.0000
     1.0000   1.0000   1.0000   1.0000   1.0000   1.0000   1.0000   1.0000
     1.0000   1.0000   1.0000   1.0000   1.0000   1.0000   1.0000   1.0000
     1.0000   1.0000   1.0000   1.0000   1.0000   1.0000   1.0000   1.0000
     1.0000   1.0000   0.0000

          k =-0.2000 0.1155 0.0000 (112171 PWs)   bands (ev):

   -73.8140 -73.8097 -73.8067 -73.8049 -73.8025 -73.8018 -73.7986 -73.7962
   -73.7940 -73.7891 -73.7881 -73.7865 -73.7824 -73.7415 -73.7318 -73.7289
   -38.2110 -38.2107 -38.2060 -38.1622 -38.1589 -38.1563 -38.1507 -38.1392
   -38.1321 -38.0960 -38.0721 -38.0699 -38.0466 -38.0429 -38.0377 -38.0285
   -38.0225 -38.0207 -38.0197 -38.0183 -38.0117 -38.0100 -38.0087 -38.0053
   -37.9995 -37.9945 -37.9929 -37.9916 -37.9884 -37.9870 -37.9848 -37.9829
   -37.9794 -37.9765 -37.9556 -37.9525 -37.9499 -37.9458 -37.9358 -37.9279
   -37.9240 -37.9141 -37.9100 -37.9036 -37.8995 -37.8895 -37.8639 -37.8599
   -21.5196 -15.4844 -14.5533 -13.9723 -13.7980 -13.7856 -13.4756 -13.4710
   -13.3223 -12.9639 -12.7875 -12.7531 -12.6888 -12.6790 -12.6551 -12.5839
   -12.5617 -12.5183 -12.4939 -12.4763 -12.4658 -12.4305 -12.4212 -12.3047
   -12.2921 -12.2594 -12.2423 -12.2108 -12.1846 -12.1731 -12.1662 -12.1497
   -12.0933 -12.0791  -7.9372  -7.5773  -6.2789  -6.2586  -6.2387  -6.2268
    -6.1774  -5.6682  -5.6321  -5.6194  -5.5439  -5.5259  -5.4855  -5.4657
    -5.4327  -5.4139  -5.3801  -5.3242  -5.3083  -5.2781  -5.2728  -5.0760
    -5.0594  -5.0116  -4.9972  -4.9478  -4.7361  -4.7326  -4.5628  -4.5039
    -4.4398  -4.3667  -4.3353  -4.2731  -4.2012  -4.1574  -4.1425  -4.1192
    -4.0959  -4.0610  -4.0368  -3.9926  -3.9800  -3.9114  -3.9012  -3.8926
    -3.6510  -3.5812  -3.5290  -3.4963  -3.4711  -3.4552  -3.4405  -3.3705
    -3.3619  -3.3081  -3.2909  -3.2737  -3.2535  -3.2009  -3.1895  -3.1491
    -3.0740  -2.9680  -2.9447  -2.9117  -2.8137  -2.7890  -2.7642  -2.7386
    -2.7157  -2.7030  -2.6903  -2.6810  -2.6625  -2.6345  -2.5806  -2.5383
    -2.4940  -2.4768  -2.4611  -2.4271  -2.3545  -2.3008  -2.1780  -2.1650
    -2.1135  -2.0654  -2.0129  -1.9914  -1.9640  -1.9536  -1.9230  -1.8989
    -1.8736  -1.8541  -1.8305  -1.8103  -1.7912  -1.7624  -1.7349  -1.7201
    -1.7029  -1.6915  -1.6732  -1.6532  -1.6433  -1.5984  -1.5648  -1.5433
    -1.5140  -1.4947  -1.4882  -1.4307  -1.4223  -1.3579  -1.3428  -1.3221
    -1.3051  -1.2715  -1.2436  -1.2135  -1.1456  -1.0713  -1.0355  -0.9936
    -0.8934  -0.7688  -0.7508  -0.7307  -0.5780  -0.5623  -0.5418  -0.5268
    -0.5103  -0.5015  -0.4053  -0.3751  -0.3504  -0.2418  -0.1648  -0.1371
     0.1987   1.3296   1.6817

     occupation numbers 
     1.0000   1.0000   1.0000   1.0000   1.0000   1.0000   1.0000   1.0000
     1.0000   1.0000   1.0000   1.0000   1.0000   1.0000   1.0000   1.0000
     1.0000   1.0000   1.0000   1.0000   1.0000   1.0000   1.0000   1.0000
     1.0000   1.0000   1.0000   1.0000   1.0000   1.0000   1.0000   1.0000
     1.0000   1.0000   1.0000   1.0000   1.0000   1.0000   1.0000   1.0000
     1.0000   1.0000   1.0000   1.0000   1.0000   1.0000   1.0000   1.0000
     1.0000   1.0000   1.0000   1.0000   1.0000   1.0000   1.0000   1.0000
     1.0000   1.0000   1.0000   1.0000   1.0000   1.0000   1.0000   1.0000
     1.0000   1.0000   1.0000   1.0000   1.0000   1.0000   1.0000   1.0000
     1.0000   1.0000   1.0000   1.0000   1.0000   1.0000   1.0000   1.0000
     1.0000   1.0000   1.0000   1.0000   1.0000   1.0000   1.0000   1.0000
     1.0000   1.0000   1.0000   1.0000   1.0000   1.0000   1.0000   1.0000
     1.0000   1.0000   1.0000   1.0000   1.0000   1.0000   1.0000   1.0000
     1.0000   1.0000   1.0000   1.0000   1.0000   1.0000   1.0000   1.0000
     1.0000   1.0000   1.0000   1.0000   1.0000   1.0000   1.0000   1.0000
     1.0000   1.0000   1.0000   1.0000   1.0000   1.0000   1.0000   1.0000
     1.0000   1.0000   1.0000   1.0000   1.0000   1.0000   1.0000   1.0000
     1.0000   1.0000   1.0000   1.0000   1.0000   1.0000   1.0000   1.0000
     1.0000   1.0000   1.0000   1.0000   1.0000   1.0000   1.0000   1.0000
     1.0000   1.0000   1.0000   1.0000   1.0000   1.0000   1.0000   1.0000
     1.0000   1.0000   1.0000   1.0000   1.0000   1.0000   1.0000   1.0000
     1.0000   1.0000   1.0000   1.0000   1.0000   1.0000   1.0000   1.0000
     1.0000   1.0000   1.0000   1.0000   1.0000   1.0000   1.0000   1.0000
     1.0000   1.0000   1.0000   1.0000   1.0000   1.0000   1.0000   1.0000
     1.0000   1.0000   1.0000   1.0000   1.0000   1.0000   1.0000   1.0000
     1.0000   1.0000   1.0000   1.0000   1.0000   1.0000   1.0000   1.0000
     1.0000   1.0000   1.0000   1.0000   1.0000   1.0000   1.0000   1.0000
     1.0000   1.0000   1.0000   1.0000   1.0000   1.0000   1.0000   1.0000
     1.0000   1.0000   1.0000   1.0000   1.0000   1.0000   1.0000   1.0000
     1.0000   1.0000   1.0000   1.0000   1.0000   1.0000   1.0000   1.0000
     1.0000   1.0000   0.0000

          k = 0.2000 0.1155 0.0000 (112171 PWs)   bands (ev):

   -73.8140 -73.8098 -73.8067 -73.8049 -73.8025 -73.8017 -73.7987 -73.7963
   -73.7939 -73.7891 -73.7880 -73.7865 -73.7824 -73.7415 -73.7318 -73.7289
   -38.2117 -38.2095 -38.2066 -38.1635 -38.1584 -38.1555 -38.1500 -38.1393
   -38.1327 -38.0962 -38.0723 -38.0697 -38.0467 -38.0417 -38.0391 -38.0284
   -38.0230 -38.0207 -38.0190 -38.0174 -38.0127 -38.0098 -38.0079 -38.0054
   -37.9998 -37.9945 -37.9935 -37.9901 -37.9881 -37.9872 -37.9860 -37.9828
   -37.9795 -37.9764 -37.9546 -37.9537 -37.9500 -37.9455 -37.9358 -37.9280
   -37.9237 -37.9137 -37.9106 -37.9036 -37.8994 -37.8899 -37.8657 -37.8581
   -21.5196 -15.4844 -14.5533 -13.9724 -13.7974 -13.7861 -13.4745 -13.4728
   -13.3216 -12.9639 -12.7873 -12.7525 -12.6882 -12.6807 -12.6554 -12.5837
   -12.5628 -12.5170 -12.4916 -12.4782 -12.4657 -12.4325 -12.4203 -12.3003
   -12.2919 -12.2622 -12.2453 -12.2064 -12.1902 -12.1708 -12.1686 -12.1468
   -12.0906 -12.0816  -7.9372  -7.5773  -6.2730  -6.2612  -6.2416  -6.2278
    -6.1774  -5.6610  -5.6376  -5.6161  -5.5438  -5.5311  -5.4845  -5.4673
    -5.4372  -5.4189  -5.3670  -5.3236  -5.3111  -5.2785  -5.2714  -5.0733
    -5.0664  -5.0100  -5.0004  -4.9419  -4.7374  -4.7328  -4.5565  -4.5040
    -4.4346  -4.3875  -4.3347  -4.2676  -4.2001  -4.1582  -4.1447  -4.1196
    -4.0954  -4.0519  -4.0364  -3.9993  -3.9790  -3.9087  -3.9050  -3.8949
    -3.6434  -3.5620  -3.5442  -3.5021  -3.4623  -3.4527  -3.4356  -3.3775
    -3.3678  -3.3047  -3.2952  -3.2780  -3.2449  -3.2071  -3.1924  -3.1430
    -3.0824  -2.9815  -2.9347  -2.9004  -2.8108  -2.7904  -2.7694  -2.7403
    -2.7269  -2.7037  -2.6923  -2.6815  -2.6484  -2.6219  -2.5736  -2.5419
    -2.5185  -2.4825  -2.4650  -2.4143  -2.3511  -2.2937  -2.1888  -2.1631
    -2.1076  -2.0661  -2.0107  -1.9830  -1.9584  -1.9462  -1.9147  -1.9007
    -1.8931  -1.8667  -1.8285  -1.8111  -1.7959  -1.7657  -1.7364  -1.7290
    -1.7019  -1.6837  -1.6705  -1.6467  -1.6280  -1.6094  -1.5837  -1.5311
    -1.5253  -1.4965  -1.4479  -1.4379  -1.4184  -1.3932  -1.3452  -1.3054
    -1.3010  -1.2900  -1.2389  -1.1973  -1.1518  -1.0519  -1.0367  -1.0096
    -0.8908  -0.7590  -0.7495  -0.7450  -0.5888  -0.5534  -0.5414  -0.5263
    -0.5131  -0.5056  -0.4012  -0.3765  -0.3454  -0.2427  -0.1609  -0.1408
     0.1994   1.3244   1.6883

     occupation numbers 
     1.0000   1.0000   1.0000   1.0000   1.0000   1.0000   1.0000   1.0000
     1.0000   1.0000   1.0000   1.0000   1.0000   1.0000   1.0000   1.0000
     1.0000   1.0000   1.0000   1.0000   1.0000   1.0000   1.0000   1.0000
     1.0000   1.0000   1.0000   1.0000   1.0000   1.0000   1.0000   1.0000
     1.0000   1.0000   1.0000   1.0000   1.0000   1.0000   1.0000   1.0000
     1.0000   1.0000   1.0000   1.0000   1.0000   1.0000   1.0000   1.0000
     1.0000   1.0000   1.0000   1.0000   1.0000   1.0000   1.0000   1.0000
     1.0000   1.0000   1.0000   1.0000   1.0000   1.0000   1.0000   1.0000
     1.0000   1.0000   1.0000   1.0000   1.0000   1.0000   1.0000   1.0000
     1.0000   1.0000   1.0000   1.0000   1.0000   1.0000   1.0000   1.0000
     1.0000   1.0000   1.0000   1.0000   1.0000   1.0000   1.0000   1.0000
     1.0000   1.0000   1.0000   1.0000   1.0000   1.0000   1.0000   1.0000
     1.0000   1.0000   1.0000   1.0000   1.0000   1.0000   1.0000   1.0000
     1.0000   1.0000   1.0000   1.0000   1.0000   1.0000   1.0000   1.0000
     1.0000   1.0000   1.0000   1.0000   1.0000   1.0000   1.0000   1.0000
     1.0000   1.0000   1.0000   1.0000   1.0000   1.0000   1.0000   1.0000
     1.0000   1.0000   1.0000   1.0000   1.0000   1.0000   1.0000   1.0000
     1.0000   1.0000   1.0000   1.0000   1.0000   1.0000   1.0000   1.0000
     1.0000   1.0000   1.0000   1.0000   1.0000   1.0000   1.0000   1.0000
     1.0000   1.0000   1.0000   1.0000   1.0000   1.0000   1.0000   1.0000
     1.0000   1.0000   1.0000   1.0000   1.0000   1.0000   1.0000   1.0000
     1.0000   1.0000   1.0000   1.0000   1.0000   1.0000   1.0000   1.0000
     1.0000   1.0000   1.0000   1.0000   1.0000   1.0000   1.0000   1.0000
     1.0000   1.0000   1.0000   1.0000   1.0000   1.0000   1.0000   1.0000
     1.0000   1.0000   1.0000   1.0000   1.0000   1.0000   1.0000   1.0000
     1.0000   1.0000   1.0000   1.0000   1.0000   1.0000   1.0000   1.0000
     1.0000   1.0000   1.0000   1.0000   1.0000   1.0000   1.0000   1.0000
     1.0000   1.0000   1.0000   1.0000   1.0000   1.0000   1.0000   1.0000
     1.0000   1.0000   1.0000   1.0000   1.0000   1.0000   1.0000   1.0000
     1.0000   1.0000   1.0000   1.0000   1.0000   1.0000   1.0000   1.0000
     1.0000   1.0000   0.0000

          k =-0.4000 0.2309 0.0000 (112236 PWs)   bands (ev):

   -73.8138 -73.8100 -73.8069 -73.8049 -73.8022 -73.8019 -73.7985 -73.7962
   -73.7940 -73.7892 -73.7880 -73.7865 -73.7824 -73.7415 -73.7318 -73.7289
   -38.2004 -38.1978 -38.1844 -38.1792 -38.1725 -38.1569 -38.1548 -38.1387
   -38.1232 -38.1172 -38.0975 -38.0936 -38.0569 -38.0507 -38.0428 -38.0343
   -38.0240 -38.0200 -38.0074 -38.0070 -38.0052 -38.0033 -37.9993 -37.9963
   -37.9939 -37.9912 -37.9903 -37.9886 -37.9851 -37.9816 -37.9764 -37.9742
   -37.9674 -37.9601 -37.9574 -37.9513 -37.9449 -37.9421 -37.9396 -37.9363
   -37.9287 -37.9230 -37.9171 -37.9092 -37.8999 -37.8851 -37.8775 -37.8632
   -21.5196 -15.4844 -14.4318 -14.2295 -13.8653 -13.8551 -13.2454 -13.2401
   -13.0198 -12.9936 -12.9719 -12.9077 -12.8300 -12.7288 -12.7010 -12.6827
   -12.5303 -12.5042 -12.4583 -12.4502 -12.4281 -12.4227 -12.3838 -12.3609
   -12.3503 -12.2802 -12.2188 -12.1969 -12.1741 -12.1591 -12.1531 -12.1502
   -12.0544 -12.0383  -7.9372  -7.5773  -6.1895  -6.1252  -6.1033  -6.0847
    -6.0181  -5.8711  -5.8520  -5.8327  -5.7066  -5.5252  -5.5063  -5.4808
    -5.4498  -5.4421  -5.4342  -5.3853  -5.3760  -5.3130  -5.3054  -5.0755
    -5.0535  -5.0201  -5.0033  -4.7981  -4.5994  -4.5446  -4.4720  -4.4361
    -4.4084  -4.3683  -4.3484  -4.3046  -4.2408  -4.2174  -4.1920  -4.1568
    -4.1184  -4.1098  -4.0978  -4.0719  -4.0648  -4.0486  -4.0377  -3.6736
    -3.5631  -3.5153  -3.4693  -3.4504  -3.4203  -3.3907  -3.3523  -3.3132
    -3.2847  -3.2753  -3.2555  -3.2381  -3.2099  -3.1919  -3.1414  -3.1119
    -3.0629  -3.0324  -3.0061  -2.9450  -2.9260  -2.8942  -2.8198  -2.7596
    -2.7152  -2.6965  -2.6462  -2.6230  -2.5891  -2.5743  -2.5456  -2.4761
    -2.4237  -2.4179  -2.3882  -2.3261  -2.2746  -2.2469  -2.2385  -2.1610
    -2.1151  -2.0931  -2.0478  -2.0250  -2.0057  -1.9869  -1.9506  -1.9166
    -1.9031  -1.8901  -1.8799  -1.8620  -1.8535  -1.8455  -1.8342  -1.8156
    -1.7767  -1.7474  -1.7069  -1.6838  -1.6806  -1.6551  -1.6407  -1.6067
    -1.5803  -1.5482  -1.4920  -1.4628  -1.4416  -1.3478  -1.3196  -1.2902
    -1.2585  -1.2069  -1.1683  -1.1226  -1.1122  -1.0933  -1.0667  -0.9805
    -0.9550  -0.8695  -0.7278  -0.7116  -0.6336  -0.6164  -0.4969  -0.4482
    -0.4408  -0.4188  -0.3981  -0.3678  -0.2861  -0.0919   0.0077   0.0389
     0.1490   1.3760   1.6892

     occupation numbers 
     1.0000   1.0000   1.0000   1.0000   1.0000   1.0000   1.0000   1.0000
     1.0000   1.0000   1.0000   1.0000   1.0000   1.0000   1.0000   1.0000
     1.0000   1.0000   1.0000   1.0000   1.0000   1.0000   1.0000   1.0000
     1.0000   1.0000   1.0000   1.0000   1.0000   1.0000   1.0000   1.0000
     1.0000   1.0000   1.0000   1.0000   1.0000   1.0000   1.0000   1.0000
     1.0000   1.0000   1.0000   1.0000   1.0000   1.0000   1.0000   1.0000
     1.0000   1.0000   1.0000   1.0000   1.0000   1.0000   1.0000   1.0000
     1.0000   1.0000   1.0000   1.0000   1.0000   1.0000   1.0000   1.0000
     1.0000   1.0000   1.0000   1.0000   1.0000   1.0000   1.0000   1.0000
     1.0000   1.0000   1.0000   1.0000   1.0000   1.0000   1.0000   1.0000
     1.0000   1.0000   1.0000   1.0000   1.0000   1.0000   1.0000   1.0000
     1.0000   1.0000   1.0000   1.0000   1.0000   1.0000   1.0000   1.0000
     1.0000   1.0000   1.0000   1.0000   1.0000   1.0000   1.0000   1.0000
     1.0000   1.0000   1.0000   1.0000   1.0000   1.0000   1.0000   1.0000
     1.0000   1.0000   1.0000   1.0000   1.0000   1.0000   1.0000   1.0000
     1.0000   1.0000   1.0000   1.0000   1.0000   1.0000   1.0000   1.0000
     1.0000   1.0000   1.0000   1.0000   1.0000   1.0000   1.0000   1.0000
     1.0000   1.0000   1.0000   1.0000   1.0000   1.0000   1.0000   1.0000
     1.0000   1.0000   1.0000   1.0000   1.0000   1.0000   1.0000   1.0000
     1.0000   1.0000   1.0000   1.0000   1.0000   1.0000   1.0000   1.0000
     1.0000   1.0000   1.0000   1.0000   1.0000   1.0000   1.0000   1.0000
     1.0000   1.0000   1.0000   1.0000   1.0000   1.0000   1.0000   1.0000
     1.0000   1.0000   1.0000   1.0000   1.0000   1.0000   1.0000   1.0000
     1.0000   1.0000   1.0000   1.0000   1.0000   1.0000   1.0000   1.0000
     1.0000   1.0000   1.0000   1.0000   1.0000   1.0000   1.0000   1.0000
     1.0000   1.0000   1.0000   1.0000   1.0000   1.0000   1.0000   1.0000
     1.0000   1.0000   1.0000   1.0000   1.0000   1.0000   1.0000   1.0000
     1.0000   1.0000   1.0000   1.0000   1.0000   1.0000   1.0000   1.0000
     1.0000   1.0000   1.0000   1.0000   1.0000   1.0000   1.0000   1.0000
     1.0000   1.0000   1.0000   1.0000   1.0000   1.0000   1.0000   1.0000
     1.0000   1.0000   0.0000

          k = 0.4000 0.2309 0.0000 (112236 PWs)   bands (ev):

   -73.8138 -73.8101 -73.8068 -73.8049 -73.8023 -73.8014 -73.7989 -73.7963
   -73.7938 -73.7892 -73.7880 -73.7866 -73.7824 -73.7415 -73.7318 -73.7289
   -38.1991 -38.1987 -38.1849 -38.1806 -38.1709 -38.1562 -38.1551 -38.1394
   -38.1226 -38.1170 -38.0985 -38.0939 -38.0554 -38.0520 -38.0427 -38.0345
   -38.0245 -38.0184 -38.0078 -38.0069 -38.0058 -38.0035 -37.9995 -37.9969
   -37.9921 -37.9917 -37.9899 -37.9876 -37.9862 -37.9818 -37.9765 -37.9739
   -37.9690 -37.9595 -37.9576 -37.9508 -37.9438 -37.9422 -37.9399 -37.9353
   -37.9276 -37.9239 -37.9179 -37.9102 -37.8979 -37.8860 -37.8809 -37.8606
   -21.5196 -15.4844 -14.4317 -14.2296 -13.8648 -13.8556 -13.2450 -13.2414
   -13.0167 -12.9933 -12.9740 -12.9070 -12.8307 -12.7265 -12.7029 -12.6835
   -12.5379 -12.4964 -12.4625 -12.4476 -12.4271 -12.4226 -12.3844 -12.3595
   -12.3480 -12.2801 -12.2259 -12.1949 -12.1759 -12.1581 -12.1533 -12.1476
   -12.0515 -12.0408  -7.9372  -7.5773  -6.1894  -6.1158  -6.1069  -6.0833
    -6.0308  -5.8638  -5.8520  -5.8295  -5.7112  -5.5269  -5.5054  -5.4836
    -5.4451  -5.4439  -5.4359  -5.3850  -5.3778  -5.3105  -5.3041  -5.0683
    -5.0648  -5.0185  -5.0076  -4.7711  -4.6087  -4.5533  -4.4784  -4.4462
    -4.4145  -4.3675  -4.3446  -4.3009  -4.2351  -4.2218  -4.1877  -4.1540
    -4.1218  -4.1121  -4.0988  -4.0733  -4.0602  -4.0463  -4.0390  -3.6607
    -3.5571  -3.5162  -3.4582  -3.4445  -3.4242  -3.3946  -3.3545  -3.3214
    -3.2869  -3.2715  -3.2496  -3.2321  -3.2147  -3.1991  -3.1310  -3.1127
    -3.0718  -3.0525  -3.0127  -2.9458  -2.9240  -2.8984  -2.8283  -2.7604
    -2.7124  -2.6790  -2.6347  -2.6128  -2.6088  -2.5931  -2.5036  -2.4876
    -2.4492  -2.4248  -2.3665  -2.3258  -2.2689  -2.2533  -2.2381  -2.1415
    -2.1118  -2.0992  -2.0329  -2.0051  -1.9963  -1.9777  -1.9681  -1.9523
    -1.9258  -1.8952  -1.8809  -1.8602  -1.8473  -1.8418  -1.8334  -1.8110
    -1.7942  -1.7396  -1.7159  -1.6954  -1.6844  -1.6333  -1.6211  -1.6146
    -1.5912  -1.5443  -1.5015  -1.4888  -1.4070  -1.3555  -1.3028  -1.2839
    -1.2465  -1.2277  -1.1858  -1.1303  -1.1135  -1.0548  -1.0423  -0.9908
    -0.9665  -0.8775  -0.7240  -0.7180  -0.6330  -0.6226  -0.5047  -0.4518
    -0.4429  -0.4162  -0.4005  -0.3564  -0.2806  -0.0927   0.0097   0.0351
     0.1515   1.3599   1.7096

     occupation numbers 
     1.0000   1.0000   1.0000   1.0000   1.0000   1.0000   1.0000   1.0000
     1.0000   1.0000   1.0000   1.0000   1.0000   1.0000   1.0000   1.0000
     1.0000   1.0000   1.0000   1.0000   1.0000   1.0000   1.0000   1.0000
     1.0000   1.0000   1.0000   1.0000   1.0000   1.0000   1.0000   1.0000
     1.0000   1.0000   1.0000   1.0000   1.0000   1.0000   1.0000   1.0000
     1.0000   1.0000   1.0000   1.0000   1.0000   1.0000   1.0000   1.0000
     1.0000   1.0000   1.0000   1.0000   1.0000   1.0000   1.0000   1.0000
     1.0000   1.0000   1.0000   1.0000   1.0000   1.0000   1.0000   1.0000
     1.0000   1.0000   1.0000   1.0000   1.0000   1.0000   1.0000   1.0000
     1.0000   1.0000   1.0000   1.0000   1.0000   1.0000   1.0000   1.0000
     1.0000   1.0000   1.0000   1.0000   1.0000   1.0000   1.0000   1.0000
     1.0000   1.0000   1.0000   1.0000   1.0000   1.0000   1.0000   1.0000
     1.0000   1.0000   1.0000   1.0000   1.0000   1.0000   1.0000   1.0000
     1.0000   1.0000   1.0000   1.0000   1.0000   1.0000   1.0000   1.0000
     1.0000   1.0000   1.0000   1.0000   1.0000   1.0000   1.0000   1.0000
     1.0000   1.0000   1.0000   1.0000   1.0000   1.0000   1.0000   1.0000
     1.0000   1.0000   1.0000   1.0000   1.0000   1.0000   1.0000   1.0000
     1.0000   1.0000   1.0000   1.0000   1.0000   1.0000   1.0000   1.0000
     1.0000   1.0000   1.0000   1.0000   1.0000   1.0000   1.0000   1.0000
     1.0000   1.0000   1.0000   1.0000   1.0000   1.0000   1.0000   1.0000
     1.0000   1.0000   1.0000   1.0000   1.0000   1.0000   1.0000   1.0000
     1.0000   1.0000   1.0000   1.0000   1.0000   1.0000   1.0000   1.0000
     1.0000   1.0000   1.0000   1.0000   1.0000   1.0000   1.0000   1.0000
     1.0000   1.0000   1.0000   1.0000   1.0000   1.0000   1.0000   1.0000
     1.0000   1.0000   1.0000   1.0000   1.0000   1.0000   1.0000   1.0000
     1.0000   1.0000   1.0000   1.0000   1.0000   1.0000   1.0000   1.0000
     1.0000   1.0000   1.0000   1.0000   1.0000   1.0000   1.0000   1.0000
     1.0000   1.0000   1.0000   1.0000   1.0000   1.0000   1.0000   1.0000
     1.0000   1.0000   1.0000   1.0000   1.0000   1.0000   1.0000   1.0000
     1.0000   1.0000   1.0000   1.0000   1.0000   1.0000   1.0000   1.0000
     1.0000   1.0000   0.0000

          k =-0.2000 0.3464 0.0000 (112231 PWs)   bands (ev):

   -73.8139 -73.8098 -73.8070 -73.8048 -73.8026 -73.8015 -73.7984 -73.7961
   -73.7942 -73.7891 -73.7881 -73.7865 -73.7824 -73.7415 -73.7318 -73.7289
   -38.2054 -38.1969 -38.1943 -38.1723 -38.1671 -38.1590 -38.1486 -38.1419
   -38.1261 -38.1180 -38.1025 -38.0697 -38.0546 -38.0482 -38.0437 -38.0316
   -38.0274 -38.0222 -38.0169 -38.0157 -38.0107 -38.0046 -37.9989 -37.9965
   -37.9932 -37.9887 -37.9869 -37.9844 -37.9828 -37.9785 -37.9765 -37.9754
   -37.9694 -37.9675 -37.9574 -37.9520 -37.9491 -37.9468 -37.9374 -37.9341
   -37.9268 -37.9202 -37.9171 -37.9115 -37.8946 -37.8882 -37.8726 -37.8634
   -21.5196 -15.4844 -14.4715 -14.0979 -14.0577 -13.5702 -13.5534 -13.1699
   -13.1170 -13.0054 -12.9314 -12.8042 -12.7874 -12.7022 -12.6706 -12.6153
   -12.5815 -12.5744 -12.5663 -12.4515 -12.4235 -12.3901 -12.3764 -12.3073
   -12.2896 -12.2711 -12.2488 -12.2246 -12.2212 -12.1542 -12.1475 -12.1061
   -12.0941 -12.0336  -7.9372  -7.5773  -6.1944  -6.1792  -6.1367  -6.1175
    -6.0983  -5.7576  -5.7302  -5.7125  -5.6938  -5.6229  -5.5985  -5.5569
    -5.5032  -5.4723  -5.3515  -5.3257  -5.2952  -5.2617  -5.2373  -5.2151
    -5.0935  -4.9086  -4.8897  -4.7911  -4.7533  -4.5976  -4.5043  -4.4384
    -4.3906  -4.3398  -4.3299  -4.3042  -4.2774  -4.2556  -4.2404  -4.2216
    -4.1598  -4.1254  -4.1070  -4.0901  -4.0508  -3.7651  -3.7342  -3.7232
    -3.7038  -3.6863  -3.5997  -3.4995  -3.4141  -3.3758  -3.3647  -3.3004
    -3.2799  -3.2364  -3.2232  -3.1972  -3.1594  -3.1436  -3.1108  -3.0789
    -3.0523  -3.0013  -2.9559  -2.9383  -2.9234  -2.9187  -2.9081  -2.8941
    -2.7751  -2.7181  -2.6863  -2.6648  -2.5972  -2.5442  -2.5123  -2.4676
    -2.4518  -2.3999  -2.3798  -2.3561  -2.3123  -2.2074  -2.1897  -2.1457
    -2.1238  -2.1165  -2.0981  -2.0664  -2.0221  -1.9770  -1.9648  -1.9280
    -1.9022  -1.8898  -1.8585  -1.8423  -1.8160  -1.8093  -1.7865  -1.7653
    -1.7331  -1.7028  -1.6879  -1.6672  -1.6407  -1.6244  -1.5790  -1.5767
    -1.5545  -1.5432  -1.5182  -1.4929  -1.4255  -1.3886  -1.3776  -1.3378
    -1.2742  -1.2382  -1.1875  -1.1677  -1.1500  -1.1071  -1.0367  -0.9807
    -0.8708  -0.8268  -0.6817  -0.6648  -0.6285  -0.6184  -0.6030  -0.5335
    -0.5293  -0.4091  -0.3779  -0.2517  -0.1988  -0.1902  -0.1449   0.0808
     0.1638   1.3376   1.7182

     occupation numbers 
     1.0000   1.0000   1.0000   1.0000   1.0000   1.0000   1.0000   1.0000
     1.0000   1.0000   1.0000   1.0000   1.0000   1.0000   1.0000   1.0000
     1.0000   1.0000   1.0000   1.0000   1.0000   1.0000   1.0000   1.0000
     1.0000   1.0000   1.0000   1.0000   1.0000   1.0000   1.0000   1.0000
     1.0000   1.0000   1.0000   1.0000   1.0000   1.0000   1.0000   1.0000
     1.0000   1.0000   1.0000   1.0000   1.0000   1.0000   1.0000   1.0000
     1.0000   1.0000   1.0000   1.0000   1.0000   1.0000   1.0000   1.0000
     1.0000   1.0000   1.0000   1.0000   1.0000   1.0000   1.0000   1.0000
     1.0000   1.0000   1.0000   1.0000   1.0000   1.0000   1.0000   1.0000
     1.0000   1.0000   1.0000   1.0000   1.0000   1.0000   1.0000   1.0000
     1.0000   1.0000   1.0000   1.0000   1.0000   1.0000   1.0000   1.0000
     1.0000   1.0000   1.0000   1.0000   1.0000   1.0000   1.0000   1.0000
     1.0000   1.0000   1.0000   1.0000   1.0000   1.0000   1.0000   1.0000
     1.0000   1.0000   1.0000   1.0000   1.0000   1.0000   1.0000   1.0000
     1.0000   1.0000   1.0000   1.0000   1.0000   1.0000   1.0000   1.0000
     1.0000   1.0000   1.0000   1.0000   1.0000   1.0000   1.0000   1.0000
     1.0000   1.0000   1.0000   1.0000   1.0000   1.0000   1.0000   1.0000
     1.0000   1.0000   1.0000   1.0000   1.0000   1.0000   1.0000   1.0000
     1.0000   1.0000   1.0000   1.0000   1.0000   1.0000   1.0000   1.0000
     1.0000   1.0000   1.0000   1.0000   1.0000   1.0000   1.0000   1.0000
     1.0000   1.0000   1.0000   1.0000   1.0000   1.0000   1.0000   1.0000
     1.0000   1.0000   1.0000   1.0000   1.0000   1.0000   1.0000   1.0000
     1.0000   1.0000   1.0000   1.0000   1.0000   1.0000   1.0000   1.0000
     1.0000   1.0000   1.0000   1.0000   1.0000   1.0000   1.0000   1.0000
     1.0000   1.0000   1.0000   1.0000   1.0000   1.0000   1.0000   1.0000
     1.0000   1.0000   1.0000   1.0000   1.0000   1.0000   1.0000   1.0000
     1.0000   1.0000   1.0000   1.0000   1.0000   1.0000   1.0000   1.0000
     1.0000   1.0000   1.0000   1.0000   1.0000   1.0000   1.0000   1.0000
     1.0000   1.0000   1.0000   1.0000   1.0000   1.0000   1.0000   1.0000
     1.0000   1.0000   1.0000   1.0000   1.0000   1.0000   1.0000   1.0000
     1.0000   1.0000   0.0000

          k = 0.4000-0.0000 0.0000 (112231 PWs)   bands (ev):

   -73.8138 -73.8100 -73.8068 -73.8049 -73.8022 -73.8017 -73.7987 -73.7963
   -73.7939 -73.7892 -73.7880 -73.7865 -73.7824 -73.7415 -73.7318 -73.7289
   -38.2055 -38.1965 -38.1947 -38.1720 -38.1682 -38.1588 -38.1484 -38.1410
   -38.1248 -38.1165 -38.1059 -38.0707 -38.0535 -38.0479 -38.0435 -38.0326
   -38.0260 -38.0228 -38.0178 -38.0157 -38.0106 -38.0056 -37.9992 -37.9949
   -37.9926 -37.9891 -37.9866 -37.9851 -37.9822 -37.9796 -37.9764 -37.9756
   -37.9689 -37.9658 -37.9580 -37.9525 -37.9500 -37.9459 -37.9373 -37.9355
   -37.9250 -37.9202 -37.9171 -37.9100 -37.8960 -37.8896 -37.8736 -37.8618
   -21.5196 -15.4844 -14.4715 -14.0956 -14.0599 -13.5637 -13.5606 -13.1660
   -13.1192 -13.0092 -12.9258 -12.8014 -12.7903 -12.7064 -12.6782 -12.5998
   -12.5959 -12.5718 -12.5573 -12.4538 -12.4199 -12.4086 -12.3618 -12.3055
   -12.2900 -12.2680 -12.2510 -12.2332 -12.2183 -12.1550 -12.1448 -12.1046
   -12.0950 -12.0341  -7.9372  -7.5773  -6.1926  -6.1743  -6.1434  -6.1129
    -6.1046  -5.7502  -5.7353  -5.7166  -5.6814  -5.6302  -5.6040  -5.5556
    -5.5010  -5.4696  -5.3478  -5.3310  -5.2863  -5.2677  -5.2395  -5.2241
    -5.0928  -4.8960  -4.8830  -4.8047  -4.7526  -4.5609  -4.5281  -4.4533
    -4.4031  -4.3418  -4.3339  -4.3072  -4.2722  -4.2603  -4.2380  -4.2050
    -4.1711  -4.1140  -4.1058  -4.0864  -4.0503  -3.7554  -3.7288  -3.7222
    -3.7022  -3.6929  -3.6102  -3.4788  -3.4233  -3.3915  -3.3651  -3.3111
    -3.2764  -3.2398  -3.2273  -3.1969  -3.1689  -3.1387  -3.1186  -3.0751
    -3.0321  -2.9852  -2.9621  -2.9435  -2.9350  -2.9122  -2.8972  -2.8884
    -2.7627  -2.7340  -2.6886  -2.6386  -2.6098  -2.5652  -2.5260  -2.4614
    -2.4552  -2.4097  -2.3788  -2.3350  -2.3115  -2.2141  -2.1736  -2.1453
    -2.1217  -2.1172  -2.0963  -2.0834  -1.9945  -1.9776  -1.9642  -1.9314
    -1.9159  -1.8904  -1.8679  -1.8546  -1.8378  -1.8129  -1.7769  -1.7554
    -1.7278  -1.7011  -1.6811  -1.6649  -1.6440  -1.6170  -1.5864  -1.5667
    -1.5475  -1.5383  -1.5186  -1.4911  -1.4401  -1.4024  -1.3579  -1.3296
    -1.2768  -1.2523  -1.1931  -1.1711  -1.1446  -1.0963  -1.0378  -0.9798
    -0.8604  -0.8410  -0.6761  -0.6672  -0.6286  -0.6149  -0.6069  -0.5329
    -0.5282  -0.4273  -0.3713  -0.2444  -0.1996  -0.1855  -0.1479   0.0783
     0.1634   1.3679   1.6855

     occupation numbers 
     1.0000   1.0000   1.0000   1.0000   1.0000   1.0000   1.0000   1.0000
     1.0000   1.0000   1.0000   1.0000   1.0000   1.0000   1.0000   1.0000
     1.0000   1.0000   1.0000   1.0000   1.0000   1.0000   1.0000   1.0000
     1.0000   1.0000   1.0000   1.0000   1.0000   1.0000   1.0000   1.0000
     1.0000   1.0000   1.0000   1.0000   1.0000   1.0000   1.0000   1.0000
     1.0000   1.0000   1.0000   1.0000   1.0000   1.0000   1.0000   1.0000
     1.0000   1.0000   1.0000   1.0000   1.0000   1.0000   1.0000   1.0000
     1.0000   1.0000   1.0000   1.0000   1.0000   1.0000   1.0000   1.0000
     1.0000   1.0000   1.0000   1.0000   1.0000   1.0000   1.0000   1.0000
     1.0000   1.0000   1.0000   1.0000   1.0000   1.0000   1.0000   1.0000
     1.0000   1.0000   1.0000   1.0000   1.0000   1.0000   1.0000   1.0000
     1.0000   1.0000   1.0000   1.0000   1.0000   1.0000   1.0000   1.0000
     1.0000   1.0000   1.0000   1.0000   1.0000   1.0000   1.0000   1.0000
     1.0000   1.0000   1.0000   1.0000   1.0000   1.0000   1.0000   1.0000
     1.0000   1.0000   1.0000   1.0000   1.0000   1.0000   1.0000   1.0000
     1.0000   1.0000   1.0000   1.0000   1.0000   1.0000   1.0000   1.0000
     1.0000   1.0000   1.0000   1.0000   1.0000   1.0000   1.0000   1.0000
     1.0000   1.0000   1.0000   1.0000   1.0000   1.0000   1.0000   1.0000
     1.0000   1.0000   1.0000   1.0000   1.0000   1.0000   1.0000   1.0000
     1.0000   1.0000   1.0000   1.0000   1.0000   1.0000   1.0000   1.0000
     1.0000   1.0000   1.0000   1.0000   1.0000   1.0000   1.0000   1.0000
     1.0000   1.0000   1.0000   1.0000   1.0000   1.0000   1.0000   1.0000
     1.0000   1.0000   1.0000   1.0000   1.0000   1.0000   1.0000   1.0000
     1.0000   1.0000   1.0000   1.0000   1.0000   1.0000   1.0000   1.0000
     1.0000   1.0000   1.0000   1.0000   1.0000   1.0000   1.0000   1.0000
     1.0000   1.0000   1.0000   1.0000   1.0000   1.0000   1.0000   1.0000
     1.0000   1.0000   1.0000   1.0000   1.0000   1.0000   1.0000   1.0000
     1.0000   1.0000   1.0000   1.0000   1.0000   1.0000   1.0000   1.0000
     1.0000   1.0000   1.0000   1.0000   1.0000   1.0000   1.0000   1.0000
     1.0000   1.0000   1.0000   1.0000   1.0000   1.0000   1.0000   1.0000
     1.0000   1.0000   0.0000

          k =-0.4000 0.4619 0.0000 (112237 PWs)   bands (ev):

   -73.8138 -73.8100 -73.8070 -73.8049 -73.8023 -73.8016 -73.7985 -73.7962
   -73.7940 -73.7892 -73.7880 -73.7865 -73.7824 -73.7415 -73.7318 -73.7289
   -38.1958 -38.1898 -38.1800 -38.1774 -38.1697 -38.1659 -38.1579 -38.1429
   -38.1391 -38.1230 -38.0866 -38.0834 -38.0775 -38.0445 -38.0410 -38.0354
   -38.0281 -38.0244 -38.0157 -38.0075 -38.0049 -38.0001 -37.9981 -37.9959
   -37.9940 -37.9929 -37.9895 -37.9850 -37.9817 -37.9764 -37.9691 -37.9658
   -37.9602 -37.9555 -37.9526 -37.9510 -37.9494 -37.9426 -37.9380 -37.9363
   -37.9305 -37.9239 -37.9195 -37.9161 -37.9054 -37.8870 -37.8743 -37.8665
   -21.5196 -15.4844 -14.3334 -14.2872 -14.1122 -13.5927 -13.2940 -13.2911
   -12.9552 -12.9448 -12.8823 -12.8537 -12.8244 -12.7989 -12.7936 -12.6607
   -12.6316 -12.5931 -12.4904 -12.4807 -12.3841 -12.3717 -12.3440 -12.3226
   -12.3078 -12.2959 -12.2580 -12.2325 -12.2274 -12.1310 -12.1181 -12.1124
   -12.0779 -12.0146  -7.9372  -7.5773  -6.1876  -6.0456  -6.0118  -5.9651
    -5.9098  -5.8858  -5.8725  -5.8540  -5.8050  -5.7406  -5.6816  -5.6208
    -5.6054  -5.5375  -5.3537  -5.2781  -5.2425  -5.2120  -5.1963  -5.1639
    -5.1526  -4.8483  -4.8277  -4.7373  -4.6159  -4.5801  -4.5383  -4.5174
    -4.4844  -4.4190  -4.3772  -4.3192  -4.3020  -4.2376  -4.2228  -4.2032
    -4.1886  -4.1590  -4.1172  -4.0905  -3.9514  -3.9435  -3.7843  -3.6617
    -3.6111  -3.5828  -3.4216  -3.3856  -3.3500  -3.3173  -3.2982  -3.2743
    -3.2693  -3.2608  -3.2371  -3.2256  -3.2154  -3.2073  -3.1396  -3.1159
    -3.0903  -3.0736  -3.0535  -3.0350  -2.9807  -2.9182  -2.8368  -2.7966
    -2.7293  -2.7018  -2.6848  -2.6610  -2.6050  -2.5796  -2.4845  -2.4044
    -2.3885  -2.3197  -2.3155  -2.3092  -2.2586  -2.1797  -2.1653  -2.1492
    -2.1279  -2.0828  -2.0682  -2.0393  -2.0171  -1.9638  -1.9504  -1.9344
    -1.9217  -1.9082  -1.8847  -1.8707  -1.8574  -1.8466  -1.8395  -1.8322
    -1.8053  -1.7823  -1.7482  -1.7174  -1.6913  -1.6781  -1.6546  -1.6384
    -1.6123  -1.5710  -1.5185  -1.4936  -1.4736  -1.4517  -1.4020  -1.3005
    -1.2658  -1.2256  -1.1581  -1.1087  -1.0861  -1.0662  -1.0330  -0.9523
    -0.8082  -0.7802  -0.6942  -0.6834  -0.6496  -0.6366  -0.5934  -0.5741
    -0.5574  -0.3928  -0.2716  -0.2668  -0.1685  -0.1123  -0.0696   0.1214
     0.1953   1.3757   1.6999

     occupation numbers 
     1.0000   1.0000   1.0000   1.0000   1.0000   1.0000   1.0000   1.0000
     1.0000   1.0000   1.0000   1.0000   1.0000   1.0000   1.0000   1.0000
     1.0000   1.0000   1.0000   1.0000   1.0000   1.0000   1.0000   1.0000
     1.0000   1.0000   1.0000   1.0000   1.0000   1.0000   1.0000   1.0000
     1.0000   1.0000   1.0000   1.0000   1.0000   1.0000   1.0000   1.0000
     1.0000   1.0000   1.0000   1.0000   1.0000   1.0000   1.0000   1.0000
     1.0000   1.0000   1.0000   1.0000   1.0000   1.0000   1.0000   1.0000
     1.0000   1.0000   1.0000   1.0000   1.0000   1.0000   1.0000   1.0000
     1.0000   1.0000   1.0000   1.0000   1.0000   1.0000   1.0000   1.0000
     1.0000   1.0000   1.0000   1.0000   1.0000   1.0000   1.0000   1.0000
     1.0000   1.0000   1.0000   1.0000   1.0000   1.0000   1.0000   1.0000
     1.0000   1.0000   1.0000   1.0000   1.0000   1.0000   1.0000   1.0000
     1.0000   1.0000   1.0000   1.0000   1.0000   1.0000   1.0000   1.0000
     1.0000   1.0000   1.0000   1.0000   1.0000   1.0000   1.0000   1.0000
     1.0000   1.0000   1.0000   1.0000   1.0000   1.0000   1.0000   1.0000
     1.0000   1.0000   1.0000   1.0000   1.0000   1.0000   1.0000   1.0000
     1.0000   1.0000   1.0000   1.0000   1.0000   1.0000   1.0000   1.0000
     1.0000   1.0000   1.0000   1.0000   1.0000   1.0000   1.0000   1.0000
     1.0000   1.0000   1.0000   1.0000   1.0000   1.0000   1.0000   1.0000
     1.0000   1.0000   1.0000   1.0000   1.0000   1.0000   1.0000   1.0000
     1.0000   1.0000   1.0000   1.0000   1.0000   1.0000   1.0000   1.0000
     1.0000   1.0000   1.0000   1.0000   1.0000   1.0000   1.0000   1.0000
     1.0000   1.0000   1.0000   1.0000   1.0000   1.0000   1.0000   1.0000
     1.0000   1.0000   1.0000   1.0000   1.0000   1.0000   1.0000   1.0000
     1.0000   1.0000   1.0000   1.0000   1.0000   1.0000   1.0000   1.0000
     1.0000   1.0000   1.0000   1.0000   1.0000   1.0000   1.0000   1.0000
     1.0000   1.0000   1.0000   1.0000   1.0000   1.0000   1.0000   1.0000
     1.0000   1.0000   1.0000   1.0000   1.0000   1.0000   1.0000   1.0000
     1.0000   1.0000   1.0000   1.0000   1.0000   1.0000   1.0000   1.0000
     1.0000   1.0000   1.0000   1.0000   1.0000   1.0000   1.0000   1.0000
     1.0000   1.0000   0.0000

          k = 0.6000 0.1155 0.0000 (112237 PWs)   bands (ev):

   -73.8137 -73.8101 -73.8070 -73.8049 -73.8024 -73.8014 -73.7988 -73.7963
   -73.7939 -73.7892 -73.7880 -73.7866 -73.7824 -73.7415 -73.7318 -73.7289
   -38.1949 -38.1906 -38.1807 -38.1775 -38.1692 -38.1654 -38.1576 -38.1429
   -38.1396 -38.1226 -38.0866 -38.0839 -38.0781 -38.0432 -38.0411 -38.0356
   -38.0280 -38.0248 -38.0147 -38.0080 -38.0055 -37.9998 -37.9984 -37.9966
   -37.9941 -37.9916 -37.9894 -37.9854 -37.9817 -37.9764 -37.9692 -37.9652
   -37.9615 -37.9552 -37.9525 -37.9512 -37.9487 -37.9432 -37.9377 -37.9350
   -37.9295 -37.9243 -37.9194 -37.9175 -37.9050 -37.8879 -37.8766 -37.8641
   -21.5196 -15.4844 -14.3329 -14.2878 -14.1121 -13.5926 -13.3014 -13.2836
   -12.9617 -12.9380 -12.8774 -12.8575 -12.8246 -12.7990 -12.7944 -12.6637
   -12.6302 -12.5913 -12.5005 -12.4702 -12.3909 -12.3679 -12.3403 -12.3188
   -12.3081 -12.2979 -12.2614 -12.2329 -12.2282 -12.1289 -12.1187 -12.1127
   -12.0773 -12.0149  -7.9372  -7.5773  -6.1876  -6.0422  -6.0084  -5.9631
    -5.9204  -5.9025  -5.8733  -5.8310  -5.8038  -5.7456  -5.6838  -5.6185
    -5.6077  -5.5338  -5.3520  -5.2752  -5.2510  -5.2192  -5.1931  -5.1669
    -5.1438  -4.8506  -4.8343  -4.6872  -4.6402  -4.6022  -4.5450  -4.5085
    -4.4848  -4.4293  -4.3769  -4.3165  -4.2945  -4.2378  -4.2281  -4.1945
    -4.1857  -4.1631  -4.1166  -4.0924  -3.9532  -3.9426  -3.7811  -3.6595
    -3.6130  -3.5743  -3.4227  -3.3630  -3.3536  -3.3254  -3.2908  -3.2814
    -3.2783  -3.2543  -3.2390  -3.2279  -3.2159  -3.1958  -3.1702  -3.1356
    -3.0814  -3.0724  -3.0495  -3.0138  -2.9845  -2.9296  -2.8333  -2.7959
    -2.7345  -2.7124  -2.6904  -2.6351  -2.6169  -2.5431  -2.4953  -2.4500
    -2.3840  -2.3262  -2.3107  -2.2886  -2.2394  -2.1912  -2.1674  -2.1356
    -2.1127  -2.0931  -2.0705  -2.0303  -2.0057  -1.9730  -1.9576  -1.9449
    -1.9255  -1.8959  -1.8915  -1.8743  -1.8638  -1.8550  -1.8475  -1.8320
    -1.7986  -1.7856  -1.7410  -1.7216  -1.6899  -1.6795  -1.6486  -1.6290
    -1.6116  -1.5917  -1.5233  -1.5100  -1.4650  -1.4246  -1.3879  -1.3123
    -1.2743  -1.2179  -1.1513  -1.1305  -1.0906  -1.0454  -1.0100  -0.9717
    -0.8048  -0.7843  -0.6907  -0.6883  -0.6501  -0.6442  -0.5927  -0.5864
    -0.5433  -0.3942  -0.2742  -0.2604  -0.1661  -0.1156  -0.0689   0.1219
     0.1958   1.3661   1.7117

     occupation numbers 
     1.0000   1.0000   1.0000   1.0000   1.0000   1.0000   1.0000   1.0000
     1.0000   1.0000   1.0000   1.0000   1.0000   1.0000   1.0000   1.0000
     1.0000   1.0000   1.0000   1.0000   1.0000   1.0000   1.0000   1.0000
     1.0000   1.0000   1.0000   1.0000   1.0000   1.0000   1.0000   1.0000
     1.0000   1.0000   1.0000   1.0000   1.0000   1.0000   1.0000   1.0000
     1.0000   1.0000   1.0000   1.0000   1.0000   1.0000   1.0000   1.0000
     1.0000   1.0000   1.0000   1.0000   1.0000   1.0000   1.0000   1.0000
     1.0000   1.0000   1.0000   1.0000   1.0000   1.0000   1.0000   1.0000
     1.0000   1.0000   1.0000   1.0000   1.0000   1.0000   1.0000   1.0000
     1.0000   1.0000   1.0000   1.0000   1.0000   1.0000   1.0000   1.0000
     1.0000   1.0000   1.0000   1.0000   1.0000   1.0000   1.0000   1.0000
     1.0000   1.0000   1.0000   1.0000   1.0000   1.0000   1.0000   1.0000
     1.0000   1.0000   1.0000   1.0000   1.0000   1.0000   1.0000   1.0000
     1.0000   1.0000   1.0000   1.0000   1.0000   1.0000   1.0000   1.0000
     1.0000   1.0000   1.0000   1.0000   1.0000   1.0000   1.0000   1.0000
     1.0000   1.0000   1.0000   1.0000   1.0000   1.0000   1.0000   1.0000
     1.0000   1.0000   1.0000   1.0000   1.0000   1.0000   1.0000   1.0000
     1.0000   1.0000   1.0000   1.0000   1.0000   1.0000   1.0000   1.0000
     1.0000   1.0000   1.0000   1.0000   1.0000   1.0000   1.0000   1.0000
     1.0000   1.0000   1.0000   1.0000   1.0000   1.0000   1.0000   1.0000
     1.0000   1.0000   1.0000   1.0000   1.0000   1.0000   1.0000   1.0000
     1.0000   1.0000   1.0000   1.0000   1.0000   1.0000   1.0000   1.0000
     1.0000   1.0000   1.0000   1.0000   1.0000   1.0000   1.0000   1.0000
     1.0000   1.0000   1.0000   1.0000   1.0000   1.0000   1.0000   1.0000
     1.0000   1.0000   1.0000   1.0000   1.0000   1.0000   1.0000   1.0000
     1.0000   1.0000   1.0000   1.0000   1.0000   1.0000   1.0000   1.0000
     1.0000   1.0000   1.0000   1.0000   1.0000   1.0000   1.0000   1.0000
     1.0000   1.0000   1.0000   1.0000   1.0000   1.0000   1.0000   1.0000
     1.0000   1.0000   1.0000   1.0000   1.0000   1.0000   1.0000   1.0000
     1.0000   1.0000   1.0000   1.0000   1.0000   1.0000   1.0000   1.0000
     1.0000   1.0000   0.0000

     highest occupied, lowest unoccupied level (ev):     1.6175    1.6761

!    total energy              =  -16138.55519528 Ry
     total all-electron energy =   -595550.628401 Ry
     estimated scf accuracy    <          8.3E-11 Ry

     The total energy is the sum of the following terms:
     one-electron contribution =  -18312.02842167 Ry
     hartree contribution      =    9259.79423781 Ry
     xc contribution           =    -931.74701772 Ry
     ewald contribution        =    6415.41590576 Ry
     DFT-D3 Dispersion         =      -0.65558254 Ry
     one-center paw contrib.   =  -12569.33431690 Ry
      -> PAW hartree energy AE =      92.00282346 Ry
      -> PAW hartree energy PS =     -91.51076948 Ry
      -> PAW xc energy AE      =    -644.66491345 Ry
      -> PAW xc energy PS      =      38.62151419 Ry
      -> total E_H with PAW    =    9260.28629179 Ry
      -> total E_XC with PAW   =   -1537.79041698 Ry

     total magnetization       =     1.00 Bohr mag/cell
     absolute magnetization    =     1.12 Bohr mag/cell

     convergence has been achieved in  40 iterations

     negative rho (up, down):  4.797E-03 5.165E-03

     Forces acting on atoms (cartesian axes, Ry/au):

     atom    1 type  2   force =    -0.00000313   -0.00008219   -0.00014843
     atom    2 type  2   force =    -0.00018971    0.00001632    0.00012968
     atom    3 type  2   force =    -0.00025818   -0.00016177   -0.00000474
     atom    4 type  2   force =     0.00028119    0.00027816    0.00004671
     atom    5 type  2   force =    -0.00001278   -0.00023127    0.00000402
     atom    6 type  2   force =    -0.00001700    0.00006086   -0.00000679
     atom    7 type  2   force =     0.00006087   -0.00002498    0.00008360
     atom    8 type  2   force =     0.00013596    0.00007960    0.00006898
     atom    9 type  2   force =    -0.00021200   -0.00007662    0.00005704
     atom   10 type  2   force =     0.00008881    0.00010070    0.00008342
     atom   11 type  2   force =    -0.00005420    0.00020663   -0.00000129
     atom   12 type  2   force =    -0.00000773    0.00007032   -0.00013799
     atom   13 type  2   force =    -0.00013541    0.00015524    0.00007997
     atom   14 type  2   force =     0.00011523    0.00001073   -0.00000149
     atom   15 type  2   force =    -0.00000243   -0.00016334   -0.00007278
     atom   16 type  2   force =    -0.00023990   -0.00015994   -0.00004339
     atom   17 type  1   force =    -0.00008895    0.00017408   -0.00002266
     atom   18 type  1   force =    -0.00005777   -0.00018558   -0.00006594
     atom   19 type  1   force =    -0.00010853    0.00010854   -0.00003152
     atom   20 type  1   force =     0.00012472   -0.00002029   -0.00006672
     atom   21 type  1   force =    -0.00008651    0.00000711    0.00005271
     atom   22 type  1   force =    -0.00003033   -0.00000074   -0.00034287
     atom   23 type  1   force =    -0.00006325    0.00002239    0.00003196
     atom   24 type  1   force =     0.00012346    0.00000220    0.00001688
     atom   25 type  1   force =    -0.00002003   -0.00003882    0.00001804
     atom   26 type  1   force =     0.00005097   -0.00007730   -0.00008400
     atom   27 type  1   force =     0.00009610    0.00007429   -0.00002988
     atom   28 type  1   force =    -0.00027761    0.00002939   -0.00036310
     atom   29 type  1   force =    -0.00002079   -0.00012611   -0.00012678
     atom   30 type  1   force =    -0.00007568   -0.00000674    0.00008184
     atom   31 type  1   force =    -0.00021008   -0.00006577   -0.00003945
     atom   32 type  1   force =     0.00025210    0.00007937   -0.00016983
     atom   33 type  1   force =     0.00002540    0.00005120   -0.00015607
     atom   34 type  1   force =     0.00001078    0.00006415    0.00004364
     atom   35 type  1   force =     0.00002281   -0.00000030   -0.00003498
     atom   36 type  1   force =    -0.00003653   -0.00004446    0.00004709
     atom   37 type  1   force =    -0.00011267    0.00001636   -0.00012248
     atom   38 type  1   force =     0.00008970   -0.00016103    0.00001153
     atom   39 type  1   force =     0.00014678    0.00003256    0.00003064
     atom   40 type  1   force =     0.00011137   -0.00003051    0.00007121
     atom   41 type  1   force =    -0.00011727    0.00005088    0.00006691
     atom   42 type  1   force =     0.00004442    0.00005696    0.00000283
     atom   43 type  1   force =    -0.00025086    0.00000828    0.00014902
     atom   44 type  1   force =    -0.00007665    0.00009814   -0.00036856
     atom   45 type  1   force =    -0.00009851   -0.00004361    0.00005364
     atom   46 type  1   force =     0.00000896    0.00003937   -0.00015304
     atom   47 type  1   force =    -0.00004636   -0.00017297   -0.00015897
     atom   48 type  1   force =    -0.00002873    0.00004808    0.00015245
     atom   49 type  3   force =     0.00097073   -0.00001787   -0.00031842
     atom   50 type  3   force =    -0.00033453   -0.00077268    0.00058630
     atom   51 type  3   force =    -0.00036380   -0.00010040   -0.00013806
     atom   52 type  3   force =     0.00045416    0.00033664    0.00052226
     atom   53 type  3   force =    -0.00020176    0.00047021    0.00029526
     atom   54 type  4   force =    -0.00017082   -0.01797611   -0.01265374
     atom   55 type  5   force =    -0.00004431    0.00057727   -0.00025108
     atom   56 type  6   force =     0.00077805    0.01947834    0.01444951
     atom   57 type  6   force =     0.00021273    0.00001520    0.00052174
     atom   58 type  6   force =    -0.00015050   -0.00207816   -0.00164385
     The non-local contrib.  to forces
     atom    1 type  2   force =    -0.00047460    0.00023692   -0.00009515
     atom    2 type  2   force =     0.00035626   -0.00015267   -0.00019666
     atom    3 type  2   force =    -0.00390400   -0.00385877    0.00603621
     atom    4 type  2   force =    -0.00236913   -0.00004648    0.00309387
     atom    5 type  2   force =    -0.00055082    0.00926390    0.00835760
     atom    6 type  2   force =     0.00405461   -0.00045113    0.01270101
     atom    7 type  2   force =     0.00359863   -0.00282047    0.00571182
     atom    8 type  2   force =     0.00047977    0.00022475    0.00051609
     atom    9 type  2   force =     0.00018534    0.00103489    0.00331685
     atom   10 type  2   force =    -0.00362725    0.00165874    0.01381457
     atom   11 type  2   force =    -0.00040085   -0.00030631    0.01550610
     atom   12 type  2   force =     0.00589245   -0.00340569    0.00757068
     atom   13 type  2   force =    -0.00013389    0.00028809   -0.00031796
     atom   14 type  2   force =     0.00074647    0.00161917    0.00307754
     atom   15 type  2   force =    -0.00071702   -0.00209726    0.00704188
     atom   16 type  2   force =    -0.00286045   -0.00023493    0.00573537
     atom   17 type  1   force =     0.00084102    0.00126798   -0.27571434
     atom   18 type  1   force =     0.00429101    0.00240466   -0.27657707
     atom   19 type  1   force =     0.00094944    0.00009433   -0.27534413
     atom   20 type  1   force =    -0.00088195   -0.00064046   -0.27641319
     atom   21 type  1   force =    -0.00026970    0.00141413   -0.27545655
     atom   22 type  1   force =     0.01182960    0.02356422   -0.15678757
     atom   23 type  1   force =    -0.00169268   -0.00216024   -0.18678027
     atom   24 type  1   force =     0.00274079   -0.00128608   -0.27539911
     atom   25 type  1   force =     0.00010750   -0.00086416   -0.27675029
     atom   26 type  1   force =     0.00287644    0.00951551   -0.25647638
     atom   27 type  1   force =     0.01819414    0.00621945   -0.22552999
     atom   28 type  1   force =     0.01936457   -0.01743239   -0.19305929
     atom   29 type  1   force =     0.00088857   -0.00184342   -0.27491643
     atom   30 type  1   force =    -0.00195914    0.00125248   -0.27604398
     atom   31 type  1   force =    -0.02393006   -0.01161804   -0.21281219
     atom   32 type  1   force =    -0.00974553   -0.00786557   -0.24421385
     atom   33 type  1   force =    -0.00022882    0.00030979    0.27622717
     atom   34 type  1   force =     0.00171832    0.00243390    0.27673163
     atom   35 type  1   force =     0.00154137   -0.00049403    0.27628037
     atom   36 type  1   force =    -0.00083303   -0.00082619    0.27581365
     atom   37 type  1   force =     0.00033205    0.00197025    0.27561714
     atom   38 type  1   force =     0.00295653    0.00258464    0.27716119
     atom   39 type  1   force =     0.00248509    0.00067053    0.27702897
     atom   40 type  1   force =     0.00205375   -0.00164254    0.27530506
     atom   41 type  1   force =     0.00021999    0.00048345    0.27665133
     atom   42 type  1   force =    -0.00264107    0.00246850    0.27559966
     atom   43 type  1   force =    -0.00192448   -0.00055497    0.27975038
     atom   44 type  1   force =     0.00088850   -0.00429771    0.27701454
     atom   45 type  1   force =    -0.00063601   -0.00172472    0.27610225
     atom   46 type  1   force =    -0.00124751   -0.00047809    0.27627965
     atom   47 type  1   force =    -0.00342049   -0.00008995    0.27526430
     atom   48 type  1   force =    -0.00234788   -0.00163751    0.27540685
     atom   49 type  3   force =    -0.18433736    0.03159206   -0.06016765
     atom   50 type  3   force =    -0.00816857   -0.13032167   -0.07510945
     atom   51 type  3   force =     0.19386451   -0.01619174   -0.09597128
     atom   52 type  3   force =     0.02015845    0.14044198   -0.09317556
     atom   53 type  3   force =     0.02025305    0.02809790    0.14881441
     atom   54 type  4   force =    -0.86625253   -0.28849099    0.93080883
     atom   55 type  5   force =     1.88488225    0.54196642   -1.51035530
     atom   56 type  6   force =    -0.00726623   -0.07437597   -0.06941380
     atom   57 type  6   force =     0.01170379   -0.01483404    0.09895613
     atom   58 type  6   force =    -0.02967222    0.08329094   -0.04104247
     The ionic contribution  to forces
     atom    1 type  2   force =    -0.93935008   -0.19566718   -8.51224925
     atom    2 type  2   force =    -0.97111608   -1.15701949   -8.88002610
     atom    3 type  2   force =     1.92224747    0.65023985   -9.43974118
     atom    4 type  2   force =     1.76653211    1.72473394   -9.24155202
     atom    5 type  2   force =    -0.76028104   -3.39397747  -10.32554241
     atom    6 type  2   force =    -3.93393559   -3.11181259  -14.38143505
     atom    7 type  2   force =    -3.78910441    1.11546206  -12.06309092
     atom    8 type  2   force =    -0.45956202    0.22257980   -8.34409662
     atom    9 type  2   force =     1.12835720   -2.55054869  -10.29920219
     atom   10 type  2   force =     1.18897330   -3.57199111  -19.43171138
     atom   11 type  2   force =    -2.00132826    2.17456897  -20.50211751
     atom   12 type  2   force =    -1.90157012    2.98569207  -10.56659146
     atom   13 type  2   force =     0.52975620    0.57638996   -8.41982472
     atom   14 type  2   force =     3.83228172   -2.05745126  -11.86153462
     atom   15 type  2   force =     3.84716388    1.90221221  -17.31826696
     atom   16 type  2   force =     0.57164474    4.70760523  -12.98734234
     atom   17 type  1   force =    -0.14017579   -0.66152192   32.26071652
     atom   18 type  1   force =    -2.24125802   -1.69655297   31.29317863
     atom   19 type  1   force =    -1.12783848    0.05273572   31.69851415
     atom   20 type  1   force =     1.01150964    0.86395874   32.41887455
     atom   21 type  1   force =     0.17396002   -1.94601267   32.03451753
     atom   22 type  1   force =    -2.23776840   -5.30487956   25.62152191
     atom   23 type  1   force =    -4.76116154    0.06304862   24.69065769
     atom   24 type  1   force =    -2.11317783    1.73121282   31.40508281
     atom   25 type  1   force =    -0.02599226    0.43233560   32.25588425
     atom   26 type  1   force =     2.91766289   -4.06824546   28.41118633
     atom   27 type  1   force =     1.27434618   -0.00840719   20.49372675
     atom   28 type  1   force =    -2.26276443    5.24405865   26.48535804
     atom   29 type  1   force =     0.01959972    1.75649108   32.08047974
     atom   30 type  1   force =     1.12870903   -0.96858747   32.14835633
     atom   31 type  1   force =     4.85882174    0.33662160   28.22795596
     atom   32 type  1   force =     3.17846778    3.98396676   28.83928873
     atom   33 type  1   force =    -0.05128689   -0.12672267  -39.08006869
     atom   34 type  1   force =    -0.56949613   -0.42788346  -39.19373727
     atom   35 type  1   force =    -0.28919240   -0.04255081  -39.24754190
     atom   36 type  1   force =     0.27300734    0.22244053  -39.08995847
     atom   37 type  1   force =    -0.01842486   -0.48728224  -39.20273139
     atom   38 type  1   force =    -0.41731485   -0.93188582  -40.31571042
     atom   39 type  1   force =    -0.90998508   -0.05704715  -40.68653978
     atom   40 type  1   force =    -0.52223930    0.40401030  -39.34399861
     atom   41 type  1   force =     0.05824812    0.12833048  -39.16754501
     atom   42 type  1   force =     0.64043413   -0.72204010  -40.20942857
     atom   43 type  1   force =     0.29417987    0.05135795  -41.17797835
     atom   44 type  1   force =    -0.25864467    0.97341450  -40.32985388
     atom   45 type  1   force =     0.01553122    0.50322303  -39.10191891
     atom   46 type  1   force =     0.32788709   -0.23272190  -39.01141277
     atom   47 type  1   force =     0.87995973   -0.02483183  -39.93817970
     atom   48 type  1   force =     0.55132876    0.76662785  -40.07739228
     atom   49 type  3   force =   -21.27000381    3.68419342   58.89238022
     atom   50 type  3   force =    -1.57963524  -20.68448828   58.08349149
     atom   51 type  3   force =    21.71783016   -2.58687672   61.19728621
     atom   52 type  3   force =     2.76311720   20.98099932   58.84412436
     atom   53 type  3   force =     7.92193412    2.07375052   63.36919813
     atom   54 type  4   force =     4.41148486   -0.00973230   20.50068034
     atom   55 type  5   force =   -13.34537300   -2.91093966   24.84988659
     atom   56 type  6   force =     0.55722988    2.67889121    5.47643304
     atom   57 type  6   force =    -2.24610278    0.17442422    1.35173583
     atom   58 type  6   force =     1.38187726   -3.22789904    4.81780458
     The local contribution  to forces
     atom    1 type  2   force =     0.93942388    0.19580327    8.51217284
     atom    2 type  2   force =     0.97061502    1.15665621    8.88010116
     atom    3 type  2   force =    -1.91894661   -0.64718220    9.43446243
     atom    4 type  2   force =    -1.76428578   -1.72428252    9.23881744
     atom    5 type  2   force =     0.76041988    3.38454115   10.31681205
     atom    6 type  2   force =     3.92913466    3.11084422   14.36633607
     atom    7 type  2   force =     3.78422685   -1.11234123   12.05575454
     atom    8 type  2   force =     0.45916423   -0.22281316    8.34404236
     atom    9 type  2   force =    -1.12850564    2.54894867   10.29543207
     atom   10 type  2   force =    -1.18513258    3.57085381   19.41498572
     atom   11 type  2   force =     2.00242276   -2.17386892   20.48171399
     atom   12 type  2   force =     1.89588868   -2.98206943   10.55862707
     atom   13 type  2   force =    -0.52953190   -0.57623778    8.41995320
     atom   14 type  2   force =    -3.83139475    2.05559856   11.85633554
     atom   15 type  2   force =    -3.84588624   -1.90006739   17.30660441
     atom   16 type  2   force =    -0.56912896   -4.70590123   12.97927529
     atom   17 type  1   force =     0.13921494    0.66019033  -31.98641325
     atom   18 type  1   force =     2.23626885    1.69346208  -31.01850463
     atom   19 type  1   force =     1.12648849   -0.05265965  -31.42482865
     atom   20 type  1   force =    -1.01014346   -0.86303073  -32.14393024
     atom   21 type  1   force =    -0.17367321    1.94399589  -31.76047515
     atom   22 type  1   force =     2.22583185    5.28057768  -25.46458378
     atom   23 type  1   force =     4.76140252   -0.06092435  -24.50353100
     atom   24 type  1   force =     2.10986382   -1.72936288  -31.13145750
     atom   25 type  1   force =     0.02575718   -0.43136858  -31.98050776
     atom   26 type  1   force =    -2.92065820    4.05913591  -28.15474129
     atom   27 type  1   force =    -1.29108057    0.00189709  -20.26659890
     atom   28 type  1   force =     2.24364675   -5.22597477  -26.29252794
     atom   29 type  1   force =    -0.02043756   -1.75426179  -31.80712473
     atom   30 type  1   force =    -1.12647135    0.96703972  -31.87369442
     atom   31 type  1   force =    -4.83516546   -0.32550262  -28.01469521
     atom   32 type  1   force =    -3.16923651   -3.97564231  -28.59543967
     atom   33 type  1   force =     0.05150834    0.12645317   38.80466357
     atom   34 type  1   force =     0.56779412    0.42556339   38.91805241
     atom   35 type  1   force =     0.28768140    0.04300657   38.97219025
     atom   36 type  1   force =    -0.27224371   -0.22169044   38.81516992
     atom   37 type  1   force =     0.01799168    0.48541161   38.92795445
     atom   38 type  1   force =     0.41443200    0.92911670   40.03933675
     atom   39 type  1   force =     0.90759807    0.05639678   40.41031440
     atom   40 type  1   force =     0.52039189   -0.40242018   39.06970906
     atom   41 type  1   force =    -0.05854575   -0.12873108   38.89195154
     atom   42 type  1   force =    -0.63771441    0.71963399   39.93464201
     atom   43 type  1   force =    -0.29251944   -0.05078860   40.89915294
     atom   44 type  1   force =     0.25769109   -0.96901323   40.05327213
     atom   45 type  1   force =    -0.01501113   -0.50155216   38.82686158
     atom   46 type  1   force =    -0.32667123    0.23321393   38.73598606
     atom   47 type  1   force =    -0.87662457    0.02471394   39.66355045
     atom   48 type  1   force =    -0.54900558   -0.76492212   39.80291783
     atom   49 type  3   force =    21.45192284   -3.71458769  -58.82157234
     atom   50 type  3   force =     1.59132820   20.81373913  -57.99860290
     atom   51 type  3   force =   -21.90881202    2.60153239  -61.09434473
     atom   52 type  3   force =    -2.78009329  -21.11893621  -58.74207266
     atom   53 type  3   force =    -7.94089543   -2.10041660  -63.51209268
     atom   54 type  4   force =    -3.56340699    0.27518763  -21.43143477
     atom   55 type  5   force =    11.47925427    2.37431054  -23.35067445
     atom   56 type  6   force =    -0.54923668   -2.58515549   -5.39277832
     atom   57 type  6   force =     2.23482437   -0.15943421   -1.45025082
     atom   58 type  6   force =    -1.35246985    3.14274892   -4.77854452
     The core correction contribution to forces
     atom    1 type  2   force =     0.00025943   -0.00048980   -0.00037525
     atom    2 type  2   force =    -0.00015590    0.00035591   -0.00024304
     atom    3 type  2   force =     0.00079692    0.00078233   -0.00149980
     atom    4 type  2   force =     0.00075015    0.00026058   -0.00095118
     atom    5 type  2   force =     0.00021020   -0.00077903   -0.00060699
     atom    6 type  2   force =    -0.00028711    0.00076947   -0.00009506
     atom    7 type  2   force =     0.00050989   -0.00013700    0.00031889
     atom    8 type  2   force =    -0.00002372    0.00012220   -0.00061772
     atom    9 type  2   force =     0.00000884   -0.00005570   -0.00027220
     atom   10 type  2   force =    -0.00007198   -0.00142566    0.00039476
     atom   11 type  2   force =    -0.00121321    0.00051069    0.00110304
     atom   12 type  2   force =    -0.00068045    0.00050197   -0.00079355
     atom   13 type  2   force =    -0.00018220   -0.00017945   -0.00006081
     atom   14 type  2   force =    -0.00063551   -0.00026352    0.00047238
     atom   15 type  2   force =     0.00047398    0.00032353    0.00113493
     atom   16 type  2   force =     0.00025945   -0.00056070    0.00045787
     atom   17 type  1   force =    -0.00005245   -0.00000714    0.00196470
     atom   18 type  1   force =    -0.00015897   -0.00008386    0.00203950
     atom   19 type  1   force =    -0.00004832   -0.00005479    0.00197250
     atom   20 type  1   force =    -0.00000400    0.00000148    0.00199033
     atom   21 type  1   force =    -0.00003854   -0.00003560    0.00197245
     atom   22 type  1   force =    -0.00009319   -0.00041905   -0.00040065
     atom   23 type  1   force =     0.00004754    0.00006979   -0.00003993
     atom   24 type  1   force =    -0.00006723    0.00004266    0.00198184
     atom   25 type  1   force =     0.00005176    0.00002258    0.00198628
     atom   26 type  1   force =    -0.00002180   -0.00024182    0.00142910
     atom   27 type  1   force =    -0.00046057   -0.00005983    0.00111666
     atom   28 type  1   force =    -0.00030253    0.00037783    0.00019958
     atom   29 type  1   force =    -0.00002113    0.00009991    0.00197930
     atom   30 type  1   force =     0.00007970   -0.00003683    0.00200943
     atom   31 type  1   force =     0.00052044    0.00026219    0.00063812
     atom   32 type  1   force =     0.00016339    0.00019614    0.00123026
     atom   33 type  1   force =     0.00001673   -0.00000372   -0.00193204
     atom   34 type  1   force =    -0.00003149   -0.00005386   -0.00198904
     atom   35 type  1   force =     0.00000257    0.00003605   -0.00193385
     atom   36 type  1   force =     0.00001929    0.00002514   -0.00191728
     atom   37 type  1   force =     0.00000513   -0.00004333   -0.00192640
     atom   38 type  1   force =     0.00001029    0.00001098   -0.00197468
     atom   39 type  1   force =     0.00002952    0.00002694   -0.00198052
     atom   40 type  1   force =    -0.00005815    0.00000901   -0.00192226
     atom   41 type  1   force =    -0.00003620   -0.00001290   -0.00194787
     atom   42 type  1   force =    -0.00002446   -0.00003871   -0.00193343
     atom   43 type  1   force =     0.00000265   -0.00001130   -0.00220892
     atom   44 type  1   force =    -0.00002583    0.00001942   -0.00198800
     atom   45 type  1   force =     0.00001194    0.00001600   -0.00195963
     atom   46 type  1   force =     0.00003335    0.00000919   -0.00196696
     atom   47 type  1   force =     0.00004965    0.00003146   -0.00190575
     atom   48 type  1   force =     0.00002352    0.00000563   -0.00189409
     atom   49 type  3   force =     0.00424987   -0.00133371   -0.00310390
     atom   50 type  3   force =    -0.00144872    0.00370005   -0.00371299
     atom   51 type  3   force =    -0.00463851    0.00092625   -0.00153752
     atom   52 type  3   force =    -0.00175271   -0.00488874   -0.00188501
     atom   53 type  3   force =    -0.00267525   -0.00114696   -0.00366056
     atom   54 type  4   force =     0.01789933    0.00497913   -0.01196561
     atom   55 type  5   force =    -0.01850825   -0.00482167    0.01187433
     atom   56 type  6   force =     0.00000000    0.00000000    0.00000000
     atom   57 type  6   force =     0.00000000    0.00000000    0.00000000
     atom   58 type  6   force =     0.00000000    0.00000000    0.00000000
     The Hubbard contrib.    to forces
     atom    1 type  2   force =     0.00000000    0.00000000    0.00000000
     atom    2 type  2   force =     0.00000000    0.00000000    0.00000000
     atom    3 type  2   force =     0.00000000    0.00000000    0.00000000
     atom    4 type  2   force =     0.00000000    0.00000000    0.00000000
     atom    5 type  2   force =     0.00000000    0.00000000    0.00000000
     atom    6 type  2   force =     0.00000000    0.00000000    0.00000000
     atom    7 type  2   force =     0.00000000    0.00000000    0.00000000
     atom    8 type  2   force =     0.00000000    0.00000000    0.00000000
     atom    9 type  2   force =     0.00000000    0.00000000    0.00000000
     atom   10 type  2   force =     0.00000000    0.00000000    0.00000000
     atom   11 type  2   force =     0.00000000    0.00000000    0.00000000
     atom   12 type  2   force =     0.00000000    0.00000000    0.00000000
     atom   13 type  2   force =     0.00000000    0.00000000    0.00000000
     atom   14 type  2   force =     0.00000000    0.00000000    0.00000000
     atom   15 type  2   force =     0.00000000    0.00000000    0.00000000
     atom   16 type  2   force =     0.00000000    0.00000000    0.00000000
     atom   17 type  1   force =     0.00000000    0.00000000    0.00000000
     atom   18 type  1   force =     0.00000000    0.00000000    0.00000000
     atom   19 type  1   force =     0.00000000    0.00000000    0.00000000
     atom   20 type  1   force =     0.00000000    0.00000000    0.00000000
     atom   21 type  1   force =     0.00000000    0.00000000    0.00000000
     atom   22 type  1   force =     0.00000000    0.00000000    0.00000000
     atom   23 type  1   force =     0.00000000    0.00000000    0.00000000
     atom   24 type  1   force =     0.00000000    0.00000000    0.00000000
     atom   25 type  1   force =     0.00000000    0.00000000    0.00000000
     atom   26 type  1   force =     0.00000000    0.00000000    0.00000000
     atom   27 type  1   force =     0.00000000    0.00000000    0.00000000
     atom   28 type  1   force =     0.00000000    0.00000000    0.00000000
     atom   29 type  1   force =     0.00000000    0.00000000    0.00000000
     atom   30 type  1   force =     0.00000000    0.00000000    0.00000000
     atom   31 type  1   force =     0.00000000    0.00000000    0.00000000
     atom   32 type  1   force =     0.00000000    0.00000000    0.00000000
     atom   33 type  1   force =     0.00000000    0.00000000    0.00000000
     atom   34 type  1   force =     0.00000000    0.00000000    0.00000000
     atom   35 type  1   force =     0.00000000    0.00000000    0.00000000
     atom   36 type  1   force =     0.00000000    0.00000000    0.00000000
     atom   37 type  1   force =     0.00000000    0.00000000    0.00000000
     atom   38 type  1   force =     0.00000000    0.00000000    0.00000000
     atom   39 type  1   force =     0.00000000    0.00000000    0.00000000
     atom   40 type  1   force =     0.00000000    0.00000000    0.00000000
     atom   41 type  1   force =     0.00000000    0.00000000    0.00000000
     atom   42 type  1   force =     0.00000000    0.00000000    0.00000000
     atom   43 type  1   force =     0.00000000    0.00000000    0.00000000
     atom   44 type  1   force =     0.00000000    0.00000000    0.00000000
     atom   45 type  1   force =     0.00000000    0.00000000    0.00000000
     atom   46 type  1   force =     0.00000000    0.00000000    0.00000000
     atom   47 type  1   force =     0.00000000    0.00000000    0.00000000
     atom   48 type  1   force =     0.00000000    0.00000000    0.00000000
     atom   49 type  3   force =     0.00000000    0.00000000    0.00000000
     atom   50 type  3   force =     0.00000000    0.00000000    0.00000000
     atom   51 type  3   force =     0.00000000    0.00000000    0.00000000
     atom   52 type  3   force =     0.00000000    0.00000000    0.00000000
     atom   53 type  3   force =     0.00000000    0.00000000    0.00000000
     atom   54 type  4   force =     0.00000000    0.00000000    0.00000000
     atom   55 type  5   force =     0.00000000    0.00000000    0.00000000
     atom   56 type  6   force =     0.00000000    0.00000000    0.00000000
     atom   57 type  6   force =     0.00000000    0.00000000    0.00000000
     atom   58 type  6   force =     0.00000000    0.00000000    0.00000000
     The SCF correction term to forces
     atom    1 type  2   force =    -0.00000223    0.00000407    0.00000112
     atom    2 type  2   force =    -0.00000177    0.00000776    0.00000118
     atom    3 type  2   force =     0.00000562   -0.00000168    0.00000093
     atom    4 type  2   force =     0.00000665   -0.00000538    0.00000122
     atom    5 type  2   force =     0.00000429    0.00000191    0.00000093
     atom    6 type  2   force =    -0.00000009    0.00000371    0.00000125
     atom    7 type  2   force =    -0.00000729    0.00000247    0.00000111
     atom    8 type  2   force =     0.00000301   -0.00000836    0.00000074
     atom    9 type  2   force =    -0.00000137    0.00000086    0.00000084
     atom   10 type  2   force =     0.00000231    0.00000211    0.00000135
     atom   11 type  2   force =    -0.00000167   -0.00000419    0.00000164
     atom   12 type  2   force =    -0.00000742   -0.00000325    0.00000120
     atom   13 type  2   force =    -0.00000040    0.00000260    0.00000096
     atom   14 type  2   force =    -0.00000049    0.00000539    0.00000124
     atom   15 type  2   force =     0.00000307   -0.00000815    0.00000168
     atom   16 type  2   force =    -0.00000223   -0.00000023    0.00000170
     atom   17 type  1   force =     0.00000038   -0.00000016    0.00000414
     atom   18 type  1   force =    -0.00000152    0.00000212    0.00000224
     atom   19 type  1   force =    -0.00000055    0.00000129   -0.00000068
     atom   20 type  1   force =     0.00000291   -0.00000260    0.00000091
     atom   21 type  1   force =     0.00000068   -0.00000227    0.00000291
     atom   22 type  1   force =     0.00000304    0.00000279    0.00000146
     atom   23 type  1   force =    -0.00000236    0.00000061    0.00000253
     atom   24 type  1   force =    -0.00000154   -0.00000117   -0.00000029
     atom   25 type  1   force =    -0.00000047   -0.00000153    0.00000291
     atom   26 type  1   force =    -0.00000201    0.00000325    0.00000110
     atom   27 type  1   force =     0.00000138   -0.00000391    0.00000152
     atom   28 type  1   force =    -0.00000235    0.00000004    0.00000376
     atom   29 type  1   force =    -0.00000057    0.00000104    0.00000368
     atom   30 type  1   force =     0.00000053    0.00000254    0.00000192
     atom   31 type  1   force =     0.00000145   -0.00000011    0.00000129
     atom   32 type  1   force =     0.00000097   -0.00000215    0.00000413
     atom   33 type  1   force =     0.00000045   -0.00000014   -0.00000355
     atom   34 type  1   force =    -0.00000163    0.00000210   -0.00000164
     atom   35 type  1   force =    -0.00000048    0.00000137    0.00000128
     atom   36 type  1   force =     0.00000310   -0.00000252   -0.00000027
     atom   37 type  1   force =     0.00000068   -0.00000237   -0.00000233
     atom   38 type  1   force =     0.00000305    0.00000257   -0.00000080
     atom   39 type  1   force =    -0.00000259    0.00000055   -0.00000179
     atom   40 type  1   force =    -0.00000168   -0.00000110    0.00000082
     atom   41 type  1   force =    -0.00000052   -0.00000155   -0.00000236
     atom   42 type  1   force =    -0.00000203    0.00000302   -0.00000032
     atom   43 type  1   force =     0.00000138   -0.00000402   -0.00000034
     atom   44 type  1   force =    -0.00000258    0.00000037   -0.00000296
     atom   45 type  1   force =    -0.00000059    0.00000126   -0.00000308
     atom   46 type  1   force =     0.00000061    0.00000249   -0.00000126
     atom   47 type  1   force =     0.00000167   -0.00000012   -0.00000031
     atom   48 type  1   force =     0.00000117   -0.00000190   -0.00000331
     atom   49 type  3   force =     0.00000027   -0.00000012    0.00000090
     atom   50 type  3   force =     0.00000104    0.00000124    0.00000045
     atom   51 type  3   force =     0.00000027   -0.00000026    0.00000072
     atom   52 type  3   force =     0.00000015   -0.00000197    0.00000226
     atom   53 type  3   force =     0.00000028   -0.00000007   -0.00000091
     atom   54 type  4   force =     0.00000003    0.00000007   -0.00000055
     atom   55 type  5   force =     0.00000063    0.00000016   -0.00000036
     atom   56 type  6   force =     0.00000001   -0.00000002   -0.00000009
     atom   57 type  6   force =     0.00000007    0.00000003   -0.00000006
     atom   58 type  6   force =     0.00000001    0.00000004   -0.00000008

     DFT-D3 dispersion contribution to forces:
     atom    1 type  2   force =     0.00014031    0.00003169    0.00039726
     atom    2 type  2   force =     0.00011260    0.00016976    0.00049313
     atom    3 type  2   force =    -0.00045774   -0.00014014    0.00073665
     atom    4 type  2   force =    -0.00035297   -0.00038082    0.00063735
     atom    5 type  2   force =     0.00018456    0.00071943    0.00098282
     atom    6 type  2   force =     0.00101636    0.00070834    0.00248497
     atom    7 type  2   force =     0.00083704   -0.00018965    0.00138814
     atom    8 type  2   force =     0.00007452   -0.00002446    0.00022410
     atom    9 type  2   force =    -0.00025653    0.00054452    0.00078166
     atom   10 type  2   force =    -0.00005516    0.00100398    0.00259838
     atom   11 type  2   force =     0.00046686   -0.00069245    0.00379143
     atom   12 type  2   force =     0.00046896   -0.00064419    0.00104804
     atom   13 type  2   force =    -0.00004338   -0.00010703    0.00032927
     atom   14 type  2   force =    -0.00088237    0.00050355    0.00164641
     atom   15 type  2   force =    -0.00104028   -0.00052512    0.00341125
     atom   16 type  2   force =    -0.00015262   -0.00106692    0.00182871
     atom   17 type  1   force =     0.00008280    0.00024615   -0.00058045
     atom   18 type  1   force =     0.00080072    0.00058356   -0.00020463
     atom   19 type  1   force =     0.00034072   -0.00000721   -0.00034472
     atom   20 type  1   force =    -0.00035859   -0.00030555   -0.00058910
     atom   21 type  1   force =    -0.00006592    0.00064881   -0.00050851
     atom   22 type  1   force =     0.00016662    0.00115435   -0.00009427
     atom   23 type  1   force =     0.00134311   -0.00001087   -0.00027708
     atom   24 type  1   force =     0.00076529   -0.00060199   -0.00019089
     atom   25 type  1   force =     0.00005611   -0.00016156   -0.00059738
     atom   26 type  1   force =     0.00019349   -0.00024353   -0.00148287
     atom   27 type  1   force =    -0.00090463    0.00042984   -0.00274594
     atom   28 type  1   force =    -0.00021977   -0.00099881   -0.00033727
     atom   29 type  1   force =    -0.00005000   -0.00061177   -0.00054837
     atom   30 type  1   force =    -0.00043461    0.00032398   -0.00054745
     atom   31 type  1   force =    -0.00045835    0.00017238   -0.00112746
     atom   32 type  1   force =     0.00060184   -0.00057233   -0.00103946
     atom   33 type  1   force =     0.00001542    0.00001595    0.00095745
     atom   34 type  1   force =     0.00002742    0.00000324    0.00098754
     atom   35 type  1   force =    -0.00000980    0.00000171    0.00096885
     atom   36 type  1   force =     0.00001033    0.00001019    0.00093951
     atom   37 type  1   force =    -0.00001751   -0.00003640    0.00096603
     atom   38 type  1   force =     0.00000252    0.00001107    0.00119946
     atom   39 type  1   force =     0.00002160   -0.00001393    0.00120935
     atom   40 type  1   force =    -0.00003531    0.00001515    0.00097713
     atom   41 type  1   force =    -0.00000308   -0.00001634    0.00095927
     atom   42 type  1   force =    -0.00000790    0.00003142    0.00112347
     atom   43 type  1   force =     0.00000900    0.00001039    0.00143329
     atom   44 type  1   force =     0.00001666   -0.00002404    0.00118959
     atom   45 type  1   force =     0.00000591   -0.00000586    0.00097140
     atom   46 type  1   force =     0.00000648    0.00001492    0.00096223
     atom   47 type  1   force =    -0.00001251    0.00000469    0.00111201
     atom   48 type  1   force =    -0.00002887   -0.00002272    0.00111744
     atom   49 type  3   force =    -0.00086125    0.00011934   -0.00785567
     atom   50 type  3   force =    -0.00241140   -0.00340199   -0.00548031
     atom   51 type  3   force =     0.00139163    0.00051085   -0.00557148
     atom   52 type  3   force =    -0.00097581    0.00272342   -0.00647114
     atom   53 type  3   force =     0.00118132    0.00018659   -0.00196316
     atom   54 type  4   force =     0.00010431    0.00008150   -0.00074200
     atom   55 type  5   force =    -0.00030037    0.00006265   -0.00098192
     atom   56 type  6   force =     0.00005092    0.00011977    0.00020866
     atom   57 type  6   force =    -0.00021288   -0.00013962    0.00008065
     atom   58 type  6   force =     0.00011415   -0.00021785    0.00013862

     Total force =     0.032940     Total SCF correction =     0.000032

     DFT-D3 dispersion Force =     0.017432


     Computing stress (Cartesian axis) and pressure


     negative rho (up, down):  4.797E-03 5.165E-03
          total   stress  (Ry/bohr**3)                   (kbar)     P=       -1.37
  -0.00001041  -0.00000086   0.00000060           -1.53       -0.13        0.09
  -0.00000086  -0.00000786   0.00000133           -0.13       -1.16        0.20
   0.00000060   0.00000133  -0.00000967            0.09        0.20       -1.42

     kinetic stress (kbar)   7256.49     -1.14     -9.38
                               -1.14   7273.32     -0.27
                               -9.38     -0.27   7301.52

     local   stress (kbar)-135461.84    -63.77    518.77
                              -63.77-134007.40    220.56
                              518.77    220.56 134098.07

     nonloc. stress (kbar)  -1419.22     -0.12      0.32
                               -0.12  -1420.47      0.31
                                0.32      0.31  -1427.32

     hartree stress (kbar)  68217.54     29.43   -249.07
                               29.43  67561.17   -103.19
                             -249.07   -103.19 -63300.39

     exc-cor stress (kbar)   2000.73      0.00      0.00
                                0.00   2000.31     -0.04
                                0.00     -0.04   2000.27

     corecor stress (kbar)  -3626.56      0.04      0.05
                                0.04  -3626.83      0.01
                                0.05      0.01  -3627.24

     ewald   stress (kbar)  63035.59     35.40   -260.57
                               35.40  62222.97   -117.18
                             -260.57   -117.18 -75043.78

     hubbard stress (kbar)      0.00      0.00      0.00
                                0.00      0.00      0.00
                                0.00      0.00      0.00

     DFT-D   stress (kbar)     -4.26      0.02     -0.04
                                0.02     -4.22      0.01
                               -0.04      0.01     -2.55

     XDM     stress (kbar)      0.00      0.00      0.00
                                0.00      0.00      0.00
                                0.00      0.00      0.00

     dft-nl  stress (kbar)      0.00      0.00      0.00
                                0.00      0.00      0.00
                                0.00      0.00      0.00

     TS-vdW  stress (kbar)      0.00      0.00      0.00
                                0.00      0.00      0.00
                                0.00      0.00      0.00

     MDB     stress (kbar)      0.00      0.00      0.00
                                0.00      0.00      0.00
                                0.00      0.00      0.00

     3D-RISM stress (kbar)      0.00      0.00      0.00
                                0.00      0.00      0.00
                                0.00      0.00      0.00


     Writing all to output data dir ./Ag-WS2-H2NOH.save/ :
     XML data file, charge density, pseudopotentials, collected wavefunctions

     init_run     :    161.36s CPU    164.83s WALL (       1 calls)
     electrons    :  12926.49s CPU  13183.69s WALL (       1 calls)
     forces       :     42.57s CPU     44.16s WALL (       1 calls)
     force_dftd3  :      0.13s CPU      0.16s WALL (       1 calls)
     stress       :    153.65s CPU    158.25s WALL (       1 calls)
     stres_dftd3  :      0.13s CPU      0.15s WALL (       1 calls)

     Called by init_run:
     wfcinit      :    153.68s CPU    156.52s WALL (       1 calls)
     wfcinit:atom :      0.64s CPU      0.66s WALL (      26 calls)
     wfcinit:wfcr :    149.44s CPU    152.15s WALL (      26 calls)
     potinit      :      2.59s CPU      2.72s WALL (       1 calls)
     hinit0       :      1.44s CPU      1.53s WALL (       1 calls)

     Called by electrons:
     c_bands      :  11108.13s CPU  11308.62s WALL (      41 calls)
     sum_band     :   1683.27s CPU   1724.48s WALL (      41 calls)
     v_of_rho     :     22.17s CPU     23.48s WALL (      41 calls)
     v_h          :      1.09s CPU      1.23s WALL (      41 calls)
     v_xc         :     22.12s CPU     23.37s WALL (      43 calls)
     newd         :     64.32s CPU     77.24s WALL (      41 calls)
     PAW_pot      :     42.47s CPU     42.99s WALL (      41 calls)
     mix_rho      :      5.93s CPU      6.32s WALL (      41 calls)
     energy_dftd3 :      0.05s CPU      0.05s WALL (       1 calls)

     Called by c_bands:
     init_us_2    :    146.07s CPU    150.12s WALL (    2210 calls)
     cegterg      :  10923.02s CPU  11119.54s WALL (    1066 calls)

     Called by sum_band:
     sum_band:wei :      0.01s CPU      0.01s WALL (      41 calls)
     sum_band:loo :   1562.82s CPU   1587.49s WALL (      41 calls)
     sum_band:buf :     12.81s CPU     13.12s WALL (    1066 calls)
     sum_band:ini :     69.52s CPU     71.41s WALL (    1066 calls)
     sum_band:cal :    333.74s CPU    343.65s WALL (    1066 calls)
     sum_band:bec :      4.32s CPU      4.40s WALL (    1066 calls)
     addusdens    :    116.93s CPU    133.26s WALL (      41 calls)
                                        0.00s GPU  (      41 calls)
     addusd:skk   :      1.83s CPU      1.95s WALL (     246 calls)
                                        0.00s GPU  (     246 calls)

     Called by *egterg:
     cdiaghg      :    571.99s CPU    593.97s WALL (    6712 calls)
     cegterg:over :    576.88s CPU    592.70s WALL (    5672 calls)
     cegterg:upda :    271.32s CPU    276.27s WALL (    5672 calls)
     cegterg:last :    490.12s CPU    499.11s WALL (    2054 calls)
     cdiaghg:chol :     48.47s CPU     48.90s WALL (    6712 calls)
     cdiaghg:inve :      8.52s CPU      8.61s WALL (    6712 calls)
     cdiaghg:para :    160.52s CPU    173.02s WALL (   13424 calls)
     h_psi        :   8195.66s CPU   8320.55s WALL (    6764 calls)
     s_psi        :    764.45s CPU    773.48s WALL (    6764 calls)
     g_psi        :     11.25s CPU     11.65s WALL (    5672 calls)

     Called by h_psi:
     h_psi:calbec :   1009.52s CPU   1038.18s WALL (    6764 calls)
     vloc_psi     :   6365.13s CPU   6448.63s WALL (    6764 calls)
     add_vuspsi   :    789.42s CPU    799.73s WALL (    6764 calls)

     General routines
     calbec       :   1481.85s CPU   1524.53s WALL (    8272 calls)
     fft          :     22.01s CPU     23.88s WALL (    1065 calls)
     ffts         :      1.87s CPU      2.02s WALL (     164 calls)
     fftw         :   6871.34s CPU   6949.65s WALL ( 1538748 calls)
     interpolate  :      3.07s CPU      3.29s WALL (      82 calls)

     Parallel routines

     PAW routines
     PAW_pot      :     42.47s CPU     42.99s WALL (      41 calls)

     PWSCF        :  13294.49s CPU  13597.96s WALL


   This run was terminated on:  16: 6:42   1Aug2026            

=------------------------------------------------------------------------------=
   JOB DONE.
=------------------------------------------------------------------------------=
