
     Program PWSCF v.7.4.1 starts on  1Aug2026 at  5:38:19 

     This program is part of the open-source Quantum ESPRESSO suite
     for quantum simulation of materials; please cite
         "P. Giannozzi et al., J. Phys.:Condens. Matter 21 395502 (2009);
         "P. Giannozzi et al., J. Phys.:Condens. Matter 29 465901 (2017);
         "P. Giannozzi et al., J. Chem. Phys. 152 154105 (2020);
          URL http://www.quantum-espresso.org", 
     in publications or presentations arising from this work. More details at
     http://www.quantum-espresso.org/quote

     Parallel version (MPI & OpenMP), running on      64 processor cores
     Number of MPI processes:                64
     Threads/MPI process:                     1

     MPI processes distributed on     1 nodes
     42889 MiB available memory on the printing compute node when the environment starts

     Reading input from disp_010_atom55_-1y.in

     Current dimensions of program PWSCF are:
     Max number of different atomic species (ntypx) = 10
     Max number of k-points (npk) =  40000
     Max angular momentum in pseudopotentials (lmaxx) =  4
     file S.pbe-n-kjpaw_psl.1.0.0.UPF: wavefunction(s)  3S 3P renormalized
     file W.pbe-spn-kjpaw_psl.1.0.0.UPF: wavefunction(s)  6S 5P 5D renormalized
     file Ag.pbe-n-kjpaw_psl.1.0.0.UPF: wavefunction(s)  5S 5P renormalized
     file N.pbe-n-kjpaw_psl.1.0.0.UPF: wavefunction(s)  2S renormalized
     file O.pbe-n-kjpaw_psl.1.0.0.UPF: wavefunction(s)  2S 2P renormalized
     file H.pbe-kjpaw_psl.1.0.0.UPF: wavefunction(s)  1S renormalized
     Message from routine setup:
     the system is metallic, specify occupations

     R & G space division:  proc/nbgrp/npool/nimage =      64
     Subspace diagonalization in iterative solution of the eigenvalue problem:
     one sub-group per band group will be used
     ELPA distributed-memory algorithm (size of sub-group:  2*  2 procs)


     Parallelization info
     --------------------
     sticks:   dense  smooth     PW     G-vecs:    dense   smooth      PW
     Min         247     123     32                39673    14017    1874
     Max         248     124     33                39680    14030    1885
     Sum       15841    7909   2065              2539249   897387  120111

     Using Slab Decomposition



     bravais-lattice index     =            0
     lattice parameter (alat)  =      23.9624  a.u.
     unit-cell volume          =   18794.0729 (a.u.)^3
     number of atoms/cell      =           58
     number of atomic types    =            6
     number of electrons       =       485.00 (up: 243.00, down: 242.00)
     number of Kohn-Sham states=          243
     kinetic-energy cutoff     =      50.0000  Ry
     charge density cutoff     =     400.0000  Ry
     scf convergence threshold =      1.0E-10
     mixing beta               =       0.4000
     number of iterations used =            8  plain     mixing
     Exchange-correlation= SLA  PW   PBX  PBC
                           (   1   4   3   4   0   0   0)

     celldm(1)=  23.962422  celldm(2)=   0.000000  celldm(3)=   0.000000
     celldm(4)=   0.000000  celldm(5)=   0.000000  celldm(6)=   0.000000

     crystal axes: (cart. coord. in units of alat)
               a(1) = (   1.000000   0.000000   0.000000 )  
               a(2) = (  -0.500000   0.866025   0.000000 )  
               a(3) = (   0.000000   0.000000   1.577241 )  

     reciprocal axes: (cart. coord. in units 2 pi/alat)
               b(1) = (  1.000000  0.577350 -0.000000 )  
               b(2) = (  0.000000  1.154701  0.000000 )  
               b(3) = (  0.000000 -0.000000  0.634018 )  


     PseudoPot. # 1 for S  read from file:
     /share/work_r640/fmigm008/pseudo/S.pbe-n-kjpaw_psl.1.0.0.UPF
     MD5 check sum: fb45dfebcf3e72a4e1bd4a866ec2e262
     Pseudo is Projector augmented-wave + core cor, Zval =  6.0
     Generated using &quot;atomic&quot; code by A. Dal Corso  v.6.3
     Shape of augmentation charge: PSQ
     Using radial grid of 1151 points,  6 beta functions with: 
                l(1) =   0
                l(2) =   0
                l(3) =   1
                l(4) =   1
                l(5) =   2
                l(6) =   2
     Q(r) pseudized with 0 coefficients 


     PseudoPot. # 2 for W  read from file:
     /share/work_r640/fmigm008/pseudo/W.pbe-spn-kjpaw_psl.1.0.0.UPF
     MD5 check sum: 03c3df5b60893f488392c7401945500a
     Pseudo is Projector augmented-wave + core cor, Zval = 14.0
     Generated using &quot;atomic&quot; code by A. Dal Corso  v.6.2.2
     Shape of augmentation charge: PSQ
     Using radial grid of 1273 points,  6 beta functions with: 
                l(1) =   0
                l(2) =   0
                l(3) =   1
                l(4) =   1
                l(5) =   2
                l(6) =   2
     Q(r) pseudized with 0 coefficients 


     PseudoPot. # 3 for Ag read from file:
     /share/work_r640/fmigm008/pseudo/Ag.pbe-n-kjpaw_psl.1.0.0.UPF
     MD5 check sum: 51099775af2a3182a6a1caffb86952a3
     Pseudo is Projector augmented-wave + core cor, Zval = 11.0
     Generated using &quot;atomic&quot; code by A. Dal Corso  v.6.2.2
     Shape of augmentation charge: PSQ
     Using radial grid of 1237 points,  6 beta functions with: 
                l(1) =   0
                l(2) =   0
                l(3) =   1
                l(4) =   1
                l(5) =   2
                l(6) =   2
     Q(r) pseudized with 0 coefficients 


     PseudoPot. # 4 for N  read from file:
     /share/work_r640/fmigm008/pseudo/N.pbe-n-kjpaw_psl.1.0.0.UPF
     MD5 check sum: 14c48229446f9f2d411169a3abcbc3fa
     Pseudo is Projector augmented-wave + core cor, Zval =  5.0
     Generated using &quot;atomic&quot; code by A. Dal Corso  v.6.3
     Shape of augmentation charge: PSQ
     Using radial grid of 1085 points,  4 beta functions with: 
                l(1) =   0
                l(2) =   0
                l(3) =   1
                l(4) =   1
     Q(r) pseudized with 0 coefficients 


     PseudoPot. # 5 for O  read from file:
     /share/work_r640/fmigm008/pseudo/O.pbe-n-kjpaw_psl.1.0.0.UPF
     MD5 check sum: e99d9cef9b487d1ca56f5b95ecd0fd7a
     Pseudo is Projector augmented-wave + core cor, Zval =  6.0
     Generated using &quot;atomic&quot; code by A. Dal Corso  v.6.3
     Shape of augmentation charge: PSQ
     Using radial grid of 1095 points,  4 beta functions with: 
                l(1) =   0
                l(2) =   0
                l(3) =   1
                l(4) =   1
     Q(r) pseudized with 0 coefficients 


     PseudoPot. # 6 for H  read from file:
     /share/work_r640/fmigm008/pseudo/H.pbe-kjpaw_psl.1.0.0.UPF
     MD5 check sum: d81a744832360e4a8af0b0b5b123bc2a
     Pseudo is Projector augmented-wave, Zval =  1.0
     Generated using &quot;atomic&quot; code by A. Dal Corso  v.6.3MaX
     Shape of augmentation charge: PSQ
     Using radial grid of  929 points,  2 beta functions with: 
                l(1) =   0
                l(2) =   0
     Q(r) pseudized with 0 coefficients 


     atomic species   valence    mass     pseudopotential
     S                 6.00    32.06500     S ( 1.00)
     W                14.00   183.84000     W ( 1.00)
     Ag               11.00   107.87000     Ag( 1.00)
     N                 5.00    14.00700     N ( 1.00)
     O                 6.00    15.99900     O ( 1.00)
     H                 1.00     1.00800     H ( 1.00)

     Starting magnetic structure 
     atomic species   magnetization
     S               0.000
     W               0.000
     Ag              0.000
     N               0.000
     O               0.000
     H               0.000

     No symmetry found


                                    s                        frac. trans.

      isym =  1     identity                                     

 cryst.   s( 1) = (     1          0          0      )
                  (     0          1          0      )
                  (     0          0          1      )

 cart.    s( 1) = (  1.0000000  0.0000000  0.0000000 )
                  (  0.0000000  1.0000000  0.0000000 )
                  (  0.0000000  0.0000000  1.0000000 )


   Cartesian axes

     site n.     atom                  positions (alat units)
         1        W      tau(   1) = (  -0.0028587   0.1395947   0.2444812  )
         2        W      tau(   2) = (  -0.1282026   0.3564836   0.2443568  )
         3        W      tau(   3) = (  -0.2537731   0.5727289   0.2442261  )
         4        W      tau(   4) = (  -0.3783723   0.7888166   0.2441498  )
         5        W      tau(   5) = (   0.2469096   0.1395426   0.2440120  )
         6        W      tau(   6) = (   0.1225026   0.3570726   0.2432304  )
         7        W      tau(   7) = (  -0.0034888   0.5727502   0.2429844  )
         8        W      tau(   8) = (  -0.1283671   0.7891505   0.2439766  )
         9        W      tau(   9) = (   0.4969194   0.1397378   0.2430413  )
        10        W      tau(  10) = (   0.3721499   0.3552416   0.2405337  )
        11        W      tau(  11) = (   0.2452295   0.5727639   0.2402480  )
        12        W      tau(  12) = (   0.1220165   0.7890246   0.2436243  )
        13        W      tau(  13) = (   0.7467445   0.1394449   0.2440642  )
        14        W      tau(  14) = (   0.6211264   0.3563823   0.2436826  )
        15        W      tau(  15) = (   0.4971469   0.5732720   0.2421413  )
        16        W      tau(  16) = (   0.3721785   0.7886524   0.2428338  )
        17        S      tau(  17) = (   0.1219502   0.0672380   0.3684592  )
        18        S      tau(  18) = (  -0.0024014   0.2846735   0.3681910  )
        19        S      tau(  19) = (  -0.1281525   0.5008469   0.3682441  )
        20        S      tau(  20) = (  -0.2533258   0.7170167   0.3685687  )
        21        S      tau(  21) = (   0.3722606   0.0676427   0.3679766  )
        22        S      tau(  22) = (   0.2484890   0.2849851   0.3676532  )
        23        S      tau(  23) = (   0.1218721   0.5017515   0.3660861  )
        24        S      tau(  24) = (  -0.0030403   0.7167922   0.3679041  )
        25        S      tau(  25) = (   0.6215745   0.0674060   0.3678624  )
        26        S      tau(  26) = (   0.4959803   0.2843589   0.3667029  )
        27        S      tau(  27) = (   0.3710177   0.5007270   0.3638206  )
        28        S      tau(  28) = (   0.2481984   0.7153351   0.3669892  )
        29        S      tau(  29) = (   0.8717811   0.0668114   0.3679626  )
        30        S      tau(  30) = (   0.7463862   0.2840842   0.3681041  )
        31        S      tau(  31) = (   0.6195449   0.5004430   0.3687043  )
        32        S      tau(  32) = (   0.4956231   0.7159829   0.3681683  )
        33        S      tau(  33) = (   0.1218639   0.0672424   0.1203644  )
        34        S      tau(  34) = (  -0.0031686   0.2839920   0.1203246  )
        35        S      tau(  35) = (  -0.1290559   0.5005458   0.1199474  )
        36        S      tau(  36) = (  -0.2533637   0.7168463   0.1201865  )
        37        S      tau(  37) = (   0.3715067   0.0672515   0.1197328  )
        38        S      tau(  38) = (   0.2459712   0.2831895   0.1185177  )
        39        S      tau(  39) = (   0.1200987   0.4999851   0.1172124  )
        40        S      tau(  40) = (  -0.0034124   0.7174366   0.1195727  )
        41        S      tau(  41) = (   0.6220409   0.0671938   0.1195919  )
        42        S      tau(  42) = (   0.4978914   0.2834015   0.1177695  )
        43        S      tau(  43) = (   0.3720771   0.5008174   0.1169455  )
        44        S      tau(  44) = (   0.2466393   0.7180153   0.1180007  )
        45        S      tau(  45) = (   0.8722199   0.0680125   0.1199081  )
        46        S      tau(  46) = (   0.7469729   0.2840633   0.1202901  )
        47        S      tau(  47) = (   0.6222799   0.5003741   0.1191499  )
        48        S      tau(  48) = (   0.4972527   0.7176301   0.1185580  )
        49        Ag     tau(  49) = (   0.1547683   0.5150674   0.5753024  )
        50        Ag     tau(  50) = (   0.3069329   0.3595674   0.5464056  )
        51        Ag     tau(  51) = (   0.5024756   0.4743393   0.5615070  )
        52        Ag     tau(  52) = (   0.3399570   0.6321033   0.5430870  )
        53        Ag     tau(  53) = (   0.3428646   0.4953663   0.7084671  )
        54        N      tau(  54) = (   0.2596825   0.4648737   0.8674395  )
        55        O      tau(  55) = (   0.1477385   0.4493859   0.8500100  )
        56        H      tau(  56) = (   0.2650389   0.5234661   0.9229976  )
        57        H      tau(  57) = (   0.1408570   0.4629232   0.7729758  )
        58        H      tau(  58) = (   0.2837088   0.3964009   0.9032094  )

     --------------------------------------------
     DFT-D3 Dispersion Correction (3-body terms):
     --------------------------------------------
       Reference C6 values for interpolation: 

         atom   Coordination number   C6
         H          0.912             6.05
         H          0.000            15.18
         N          0.000            50.54
         N          0.994            44.25
         N          2.014            39.35
         N          2.990            31.16
         O          0.000            31.01
         O          0.993            25.63
         O          1.989            20.74
         S          0.000           268.01
         S          0.995           261.99
         S          1.990           251.62
         Ag         0.000           853.49
         Ag         0.968           537.23
         W          0.000          1628.72
         W          1.929          1086.81
         W         10.915           796.19

       Values used:

         atom   Coordination number  R0_AB[au]  C6      C8
         W          9.805            3.766    796.19 128250.55
         W          9.806            3.766    796.19 128250.55
         W          9.854            3.766    796.19 128250.55
         W          9.866            3.766    796.19 128250.55
         W          9.842            3.766    796.19 128250.55
         W          9.851            3.766    796.19 128250.55
         W          9.870            3.766    796.19 128250.55
         W          9.833            3.766    796.19 128250.55
         W          9.854            3.766    796.19 128250.55
         W          9.880            3.766    796.19 128250.55
         W          9.879            3.766    796.19 128250.55
         W          9.846            3.766    796.19 128250.55
         W          9.811            3.766    796.19 128250.55
         W          9.849            3.766    796.19 128250.55
         W          9.870            3.766    796.19 128250.55
         W          9.855            3.766    796.19 128250.55
         S          3.670            3.128    251.62  12327.25
         S          3.672            3.128    251.62  12327.25
         S          3.679            3.128    251.62  12327.25
         S          3.675            3.128    251.62  12327.25
         S          3.690            3.128    251.62  12327.25
         S          4.579            3.128    251.62  12327.25
         S          4.512            3.128    251.62  12327.25
         S          3.693            3.128    251.62  12327.25
         S          3.676            3.128    251.62  12327.25
         S          3.843            3.128    251.62  12327.25
         S          4.976            3.128    251.62  12327.25
         S          4.443            3.128    251.62  12327.25
         S          3.677            3.128    251.62  12327.25
         S          3.672            3.128    251.62  12327.25
         S          4.198            3.128    251.62  12327.25
         S          3.918            3.128    251.62  12327.25
         S          3.700            3.128    251.62  12327.25
         S          3.699            3.128    251.62  12327.25
         S          3.697            3.128    251.62  12327.25
         S          3.697            3.128    251.62  12327.25
         S          3.689            3.128    251.62  12327.25
         S          3.673            3.128    251.62  12327.25
         S          3.669            3.128    251.62  12327.25
         S          3.689            3.128    251.62  12327.25
         S          3.693            3.128    251.62  12327.25
         S          3.672            3.128    251.62  12327.25
         S          3.662            3.128    251.62  12327.25
         S          3.672            3.128    251.62  12327.25
         S          3.693            3.128    251.62  12327.25
         S          3.697            3.128    251.62  12327.25
         S          3.686            3.128    251.62  12327.25
         S          3.680            3.128    251.62  12327.25
         Ag         3.221            3.147    537.23  47741.54
         Ag         3.973            3.147    537.23  47741.54
         Ag         3.317            3.147    537.23  47741.54
         Ag         4.158            3.147    537.23  47741.54
         Ag         4.122            3.147    537.23  47741.54
         N          3.751            2.478     31.16    687.50
         O          1.999            2.345     20.82    420.14
         H          1.005            2.062      6.18     74.66
         H          1.030            2.062      6.16     74.42
         H          1.007            2.062      6.18     74.65

         Molecular C6 ( Ry / a.u.^6 ) =   1190032.26


   Crystallographic axes

     site n.     atom                  positions (cryst. coord.)
         1        W      tau(   1) = (  0.0777364  0.1611901  0.1550056  )
         2        W      tau(   2) = (  0.0776133  0.4116318  0.1549267  )
         3        W      tau(   3) = (  0.0768921  0.6613303  0.1548438  )
         4        W      tau(   4) = (  0.0770512  0.9108469  0.1547955  )
         5        W      tau(   5) = (  0.3274746  0.1611299  0.1547081  )
         6        W      tau(   6) = (  0.3286586  0.4123119  0.1542125  )
         7        W      tau(   7) = (  0.3271886  0.6613549  0.1540566  )
         8        W      tau(   8) = (  0.3272492  0.9112326  0.1546856  )
         9        W      tau(   9) = (  0.5775970  0.1613553  0.1540926  )
        10        W      tau(  10) = (  0.5772488  0.4101977  0.1525028  )
        11        W      tau(  11) = (  0.5759149  0.6613708  0.1523217  )
        12        W      tau(  12) = (  0.5775601  0.9110871  0.1544623  )
        13        W      tau(  13) = (  0.8272530  0.1610171  0.1547412  )
        14        W      tau(  14) = (  0.8268839  0.4115149  0.1544993  )
        15        W      tau(  15) = (  0.8281256  0.6619575  0.1535220  )
        16        W      tau(  16) = (  0.8275072  0.9106573  0.1539611  )
        17        S      tau(  17) = (  0.1607701  0.0776397  0.2336099  )
        18        S      tau(  18) = (  0.1619549  0.3287126  0.2334399  )
        19        S      tau(  19) = (  0.1610116  0.5783281  0.2334735  )
        20        S      tau(  20) = (  0.1606439  0.8279395  0.2336794  )
        21        S      tau(  21) = (  0.4113141  0.0781070  0.2333040  )
        22        S      tau(  22) = (  0.4130252  0.3290725  0.2330989  )
        23        S      tau(  23) = (  0.4115585  0.5793727  0.2321053  )
        24        S      tau(  24) = (  0.4107998  0.8276803  0.2332579  )
        25        S      tau(  25) = (  0.6604913  0.0778337  0.2332315  )
        26        S      tau(  26) = (  0.6601550  0.3283494  0.2324963  )
        27        S      tau(  27) = (  0.6601125  0.5781897  0.2306689  )
        28        S      tau(  28) = (  0.6611973  0.8259978  0.2326779  )
        29        S      tau(  29) = (  0.9103547  0.0771472  0.2332950  )
        30        S      tau(  30) = (  0.9104023  0.3280322  0.2333848  )
        31        S      tau(  31) = (  0.9084758  0.5778618  0.2337653  )
        32        S      tau(  32) = (  0.9089960  0.8267459  0.2334255  )
        33        S      tau(  33) = (  0.1606863  0.0776448  0.0763132  )
        34        S      tau(  34) = (  0.1607942  0.3279257  0.0762880  )
        35        S      tau(  35) = (  0.1599344  0.5779805  0.0760488  )
        36        S      tau(  36) = (  0.1605077  0.8277428  0.0762004  )
        37        S      tau(  37) = (  0.4103343  0.0776554  0.0759128  )
        38        S      tau(  38) = (  0.4094707  0.3269991  0.0751424  )
        39        S      tau(  39) = (  0.4087652  0.5773330  0.0743148  )
        40        S      tau(  40) = (  0.4107999  0.8284245  0.0758113  )
        41        S      tau(  41) = (  0.6608352  0.0775887  0.0758235  )
        42        S      tau(  42) = (  0.6615133  0.3272438  0.0746680  )
        43        S      tau(  43) = (  0.6612241  0.5782941  0.0741456  )
        44        S      tau(  44) = (  0.6611856  0.8290927  0.0748146  )
        45        S      tau(  45) = (  0.9114869  0.0785340  0.0760239  )
        46        S      tau(  46) = (  0.9109769  0.3280081  0.0762661  )
        47        S      tau(  47) = (  0.9111710  0.5777822  0.0755432  )
        48        S      tau(  48) = (  0.9115766  0.8286478  0.0751680  )
        49        Ag     tau(  49) = (  0.4521427  0.5947486  0.3647523  )
        50        Ag     tau(  50) = (  0.5145293  0.4151927  0.3464312  )
        51        Ag     tau(  51) = (  0.7763355  0.5477198  0.3560058  )
        52        Ag     tau(  52) = (  0.7049020  0.7298900  0.3443271  )
        53        Ag     tau(  53) = (  0.6288645  0.5719998  0.4491812  )
        54        N      tau(  54) = (  0.5280775  0.5367899  0.5499726  )
        55        O      tau(  55) = (  0.4071915  0.5189061  0.5389220  )
        56        H      tau(  56) = (  0.5672622  0.6044466  0.5851974  )
        57        H      tau(  57) = (  0.4081259  0.5345377  0.4900809  )
        58        H      tau(  58) = (  0.5125710  0.4577243  0.5726514  )

     number of k points=    13
                       cart. coord. in units 2pi/alat
        k(    1) = (   0.0000000   0.0000000   0.0000000), wk =   0.0400000
        k(    2) = (   0.0000000   0.2309401   0.0000000), wk =   0.0800000
        k(    3) = (   0.0000000   0.4618802   0.0000000), wk =   0.0800000
        k(    4) = (   0.2000000   0.3464102   0.0000000), wk =   0.0800000
        k(    5) = (   0.2000000   0.5773503   0.0000000), wk =   0.0800000
        k(    6) = (  -0.2000000   0.1154701   0.0000000), wk =   0.0800000
        k(    7) = (   0.2000000   0.1154701   0.0000000), wk =   0.0800000
        k(    8) = (  -0.4000000   0.2309401   0.0000000), wk =   0.0800000
        k(    9) = (   0.4000000   0.2309401   0.0000000), wk =   0.0800000
        k(   10) = (  -0.2000000   0.3464102   0.0000000), wk =   0.0800000
        k(   11) = (   0.4000000  -0.0000000   0.0000000), wk =   0.0800000
        k(   12) = (  -0.4000000   0.4618802   0.0000000), wk =   0.0800000
        k(   13) = (   0.6000000   0.1154701   0.0000000), wk =   0.0800000

                       cryst. coord.
        k(    1) = (   0.0000000   0.0000000   0.0000000), wk =   0.0400000
        k(    2) = (   0.0000000   0.2000000   0.0000000), wk =   0.0800000
        k(    3) = (   0.0000000   0.4000000   0.0000000), wk =   0.0800000
        k(    4) = (   0.2000000   0.2000000   0.0000000), wk =   0.0800000
        k(    5) = (   0.2000000   0.4000000   0.0000000), wk =   0.0800000
        k(    6) = (  -0.2000000   0.2000000   0.0000000), wk =   0.0800000
        k(    7) = (   0.2000000   0.0000000   0.0000000), wk =   0.0800000
        k(    8) = (  -0.4000000   0.4000000   0.0000000), wk =   0.0800000
        k(    9) = (   0.4000000   0.0000000   0.0000000), wk =   0.0800000
        k(   10) = (  -0.2000000   0.4000000   0.0000000), wk =   0.0800000
        k(   11) = (   0.4000000  -0.2000000   0.0000000), wk =   0.0800000
        k(   12) = (  -0.4000000   0.6000000   0.0000000), wk =   0.0800000
        k(   13) = (   0.6000000  -0.2000000   0.0000000), wk =   0.0800000

     Dense  grid:  2539249 G-vectors     FFT dimensions: ( 160, 160, 243)

     Smooth grid:   897387 G-vectors     FFT dimensions: ( 108, 108, 180)

     Dynamical RAM for                 wfc:       6.50 MB

     Dynamical RAM for     wfc (w. buffer):     175.50 MB

     Dynamical RAM for           str. fact:       3.63 MB

     Dynamical RAM for           local pot:       0.00 MB

     Dynamical RAM for          nlocal pot:      26.11 MB

     Dynamical RAM for                qrad:       9.63 MB

     Dynamical RAM for          rho,v,vnew:       8.32 MB

     Dynamical RAM for               rhoin:       2.77 MB

     Dynamical RAM for            rho*nmix:      19.38 MB

     Dynamical RAM for           G-vectors:       2.38 MB

     Dynamical RAM for          h,s,v(r/c):       2.70 MB

     Dynamical RAM for          <psi|beta>:       3.62 MB

     Dynamical RAM for                 psi:      13.00 MB

     Dynamical RAM for                hpsi:      13.00 MB

     Dynamical RAM for                spsi:      13.00 MB

     Dynamical RAM for      wfcinit/wfcrot:      14.35 MB

     Dynamical RAM for           addusdens:     132.60 MB

     Dynamical RAM for          addusforce:     170.39 MB

     Dynamical RAM for         addusstress:     122.61 MB

     Estimated static dynamical RAM per process >     237.27 MB

     Estimated max dynamical RAM per process >     427.03 MB

     Estimated total dynamical RAM >      26.69 GB
     Generating pointlists ...
     new r_m :   0.0782 (alat units)  1.8731 (a.u.) for type    1
     new r_m :   0.0782 (alat units)  1.8731 (a.u.) for type    2
     new r_m :   0.0751 (alat units)  1.7989 (a.u.) for type    3
     new r_m :   0.0334 (alat units)  0.7997 (a.u.) for type    4
     new r_m :   0.0324 (alat units)  0.7761 (a.u.) for type    5
     new r_m :   0.0324 (alat units)  0.7761 (a.u.) for type    6

     Initial potential from superposition of free atoms

     starting charge     484.9880, renormalised to     485.0000

     negative rho (up, down):  1.010E-03 1.010E-03
     Starting wfcs are  392 randomized atomic wfcs
     Checking if some PAW data can be deallocated... 
       PAW data deallocated on   32 nodes for type:  1
       PAW data deallocated on   42 nodes for type:  2
       PAW data deallocated on   59 nodes for type:  3
       PAW data deallocated on   63 nodes for type:  4
       PAW data deallocated on   63 nodes for type:  5
       PAW data deallocated on   61 nodes for type:  6

     total cpu time spent up to now is      165.3 secs

     per-process dynamical memory:   308.6 Mb

     Self-consistent Calculation

     iteration #  1     ecut=    50.00 Ry     beta= 0.40
     Davidson diagonalization with overlap

---- Real-time Memory Report at c_bands before calling an iterative solver
           368 MiB given to the printing process from OS
           301 MiB allocation reported by mallinfo(arena+hblkhd)
         22798 MiB available memory on the node where the printing process lives
------------------
     ethr =  1.00E-02,  avg # of iterations =  2.0

     Threshold (ethr) on eigenvalues was too large:
     Diagonalizing with lowered threshold

     Davidson diagonalization with overlap

---- Real-time Memory Report at c_bands before calling an iterative solver
           472 MiB given to the printing process from OS
           303 MiB allocation reported by mallinfo(arena+hblkhd)
         19289 MiB available memory on the node where the printing process lives
------------------
     ethr =  4.33E-04,  avg # of iterations =  4.8

     negative rho (up, down):  1.027E-02 6.721E-03

     total cpu time spent up to now is      827.5 secs

     total energy              =  -16138.22542053 Ry
     estimated scf accuracy    <       2.43952158 Ry

     total magnetization       =     1.00 Bohr mag/cell
     absolute magnetization    =     4.14 Bohr mag/cell

     iteration #  2     ecut=    50.00 Ry     beta= 0.40
     Davidson diagonalization with overlap

---- Real-time Memory Report at c_bands before calling an iterative solver
           479 MiB given to the printing process from OS
           311 MiB allocation reported by mallinfo(arena+hblkhd)
         19457 MiB available memory on the node where the printing process lives
------------------
     ethr =  5.03E-04,  avg # of iterations =  7.3

     negative rho (up, down):  3.222E-02 2.307E-02

     total cpu time spent up to now is     1182.2 secs

     total energy              =  -16138.44690415 Ry
     estimated scf accuracy    <       0.41144866 Ry

     total magnetization       =     1.00 Bohr mag/cell
     absolute magnetization    =     3.05 Bohr mag/cell

     iteration #  3     ecut=    50.00 Ry     beta= 0.40
     Davidson diagonalization with overlap

---- Real-time Memory Report at c_bands before calling an iterative solver
           481 MiB given to the printing process from OS
           313 MiB allocation reported by mallinfo(arena+hblkhd)
         20936 MiB available memory on the node where the printing process lives
------------------
     ethr =  8.48E-05,  avg # of iterations =  8.5

     negative rho (up, down):  3.681E-02 2.750E-02

     total cpu time spent up to now is     1545.7 secs

     total energy              =  -16138.51448851 Ry
     estimated scf accuracy    <       0.22054129 Ry

     total magnetization       =     1.00 Bohr mag/cell
     absolute magnetization    =     2.36 Bohr mag/cell

     iteration #  4     ecut=    50.00 Ry     beta= 0.40
     Davidson diagonalization with overlap

---- Real-time Memory Report at c_bands before calling an iterative solver
           483 MiB given to the printing process from OS
           314 MiB allocation reported by mallinfo(arena+hblkhd)
         18800 MiB available memory on the node where the printing process lives
------------------
     ethr =  4.55E-05,  avg # of iterations =  9.8

     negative rho (up, down):  3.078E-02 2.393E-02

     total cpu time spent up to now is     1879.4 secs

     total energy              =  -16138.54491441 Ry
     estimated scf accuracy    <       0.05188497 Ry

     total magnetization       =     1.00 Bohr mag/cell
     absolute magnetization    =     1.98 Bohr mag/cell

     iteration #  5     ecut=    50.00 Ry     beta= 0.40
     Davidson diagonalization with overlap

---- Real-time Memory Report at c_bands before calling an iterative solver
           510 MiB given to the printing process from OS
           345 MiB allocation reported by mallinfo(arena+hblkhd)
         20488 MiB available memory on the node where the printing process lives
------------------
     ethr =  1.07E-05,  avg # of iterations =  7.3

     negative rho (up, down):  2.109E-02 1.674E-02

     total cpu time spent up to now is     2226.0 secs

     total energy              =  -16138.55007986 Ry
     estimated scf accuracy    <       0.03159127 Ry

     total magnetization       =     1.00 Bohr mag/cell
     absolute magnetization    =     1.71 Bohr mag/cell

     iteration #  6     ecut=    50.00 Ry     beta= 0.40
     Davidson diagonalization with overlap

---- Real-time Memory Report at c_bands before calling an iterative solver
           515 MiB given to the printing process from OS
           347 MiB allocation reported by mallinfo(arena+hblkhd)
         18368 MiB available memory on the node where the printing process lives
------------------
     ethr =  6.51E-06,  avg # of iterations =  7.3

     negative rho (up, down):  1.382E-02 1.145E-02

     total cpu time spent up to now is     2540.0 secs

     total energy              =  -16138.55323725 Ry
     estimated scf accuracy    <       0.01635325 Ry

     total magnetization       =     1.00 Bohr mag/cell
     absolute magnetization    =     1.49 Bohr mag/cell

     iteration #  7     ecut=    50.00 Ry     beta= 0.40
     Davidson diagonalization with overlap

---- Real-time Memory Report at c_bands before calling an iterative solver
           517 MiB given to the printing process from OS
           348 MiB allocation reported by mallinfo(arena+hblkhd)
         17693 MiB available memory on the node where the printing process lives
------------------
     ethr =  3.37E-06,  avg # of iterations =  5.8

     negative rho (up, down):  2.019E-02 2.075E-02

     total cpu time spent up to now is     2840.4 secs

     total energy              =  -16138.55176964 Ry
     estimated scf accuracy    <       0.00825545 Ry

     total magnetization       =     1.00 Bohr mag/cell
     absolute magnetization    =     1.33 Bohr mag/cell

     iteration #  8     ecut=    50.00 Ry     beta= 0.40
     Davidson diagonalization with overlap

---- Real-time Memory Report at c_bands before calling an iterative solver
           517 MiB given to the printing process from OS
           349 MiB allocation reported by mallinfo(arena+hblkhd)
         20678 MiB available memory on the node where the printing process lives
------------------
     ethr =  1.70E-06,  avg # of iterations =  7.7

     negative rho (up, down):  2.093E-02 2.207E-02

     total cpu time spent up to now is     3142.0 secs

     total energy              =  -16138.55151850 Ry
     estimated scf accuracy    <       0.00200094 Ry

     total magnetization       =     1.00 Bohr mag/cell
     absolute magnetization    =     1.22 Bohr mag/cell

     iteration #  9     ecut=    50.00 Ry     beta= 0.40
     Davidson diagonalization with overlap

---- Real-time Memory Report at c_bands before calling an iterative solver
           519 MiB given to the printing process from OS
           350 MiB allocation reported by mallinfo(arena+hblkhd)
         16025 MiB available memory on the node where the printing process lives
------------------
     ethr =  4.13E-07,  avg # of iterations =  7.3

     negative rho (up, down):  1.517E-02 1.609E-02

     total cpu time spent up to now is     3493.0 secs

     total energy              =  -16138.55341271 Ry
     estimated scf accuracy    <       0.00048914 Ry

     total magnetization       =     1.00 Bohr mag/cell
     absolute magnetization    =     1.17 Bohr mag/cell

     iteration # 10     ecut=    50.00 Ry     beta= 0.40
     Davidson diagonalization with overlap

---- Real-time Memory Report at c_bands before calling an iterative solver
           519 MiB given to the printing process from OS
           351 MiB allocation reported by mallinfo(arena+hblkhd)
         20372 MiB available memory on the node where the printing process lives
------------------
     ethr =  1.01E-07,  avg # of iterations =  7.7

     negative rho (up, down):  1.097E-02 1.173E-02

     total cpu time spent up to now is     3845.0 secs

     total energy              =  -16138.55447175 Ry
     estimated scf accuracy    <       0.00015221 Ry

     total magnetization       =     1.00 Bohr mag/cell
     absolute magnetization    =     1.15 Bohr mag/cell

     iteration # 11     ecut=    50.00 Ry     beta= 0.40
     Davidson diagonalization with overlap

---- Real-time Memory Report at c_bands before calling an iterative solver
           521 MiB given to the printing process from OS
           353 MiB allocation reported by mallinfo(arena+hblkhd)
         18677 MiB available memory on the node where the printing process lives
------------------
     ethr =  3.14E-08,  avg # of iterations =  8.0

     negative rho (up, down):  7.814E-03 8.394E-03

     total cpu time spent up to now is     4240.9 secs

     total energy              =  -16138.55508898 Ry
     estimated scf accuracy    <       0.00007906 Ry

     total magnetization       =     1.00 Bohr mag/cell
     absolute magnetization    =     1.14 Bohr mag/cell

     iteration # 12     ecut=    50.00 Ry     beta= 0.40
     Davidson diagonalization with overlap

---- Real-time Memory Report at c_bands before calling an iterative solver
           522 MiB given to the printing process from OS
           354 MiB allocation reported by mallinfo(arena+hblkhd)
         19993 MiB available memory on the node where the printing process lives
------------------
     ethr =  1.63E-08,  avg # of iterations =  6.6

     negative rho (up, down):  5.998E-03 6.455E-03

     total cpu time spent up to now is     4598.9 secs

     total energy              =  -16138.55534403 Ry
     estimated scf accuracy    <       0.00002854 Ry

     total magnetization       =     1.00 Bohr mag/cell
     absolute magnetization    =     1.13 Bohr mag/cell

     iteration # 13     ecut=    50.00 Ry     beta= 0.40
     Davidson diagonalization with overlap

---- Real-time Memory Report at c_bands before calling an iterative solver
           522 MiB given to the printing process from OS
           354 MiB allocation reported by mallinfo(arena+hblkhd)
         20005 MiB available memory on the node where the printing process lives
------------------
     ethr =  5.88E-09,  avg # of iterations =  7.0

     negative rho (up, down):  5.229E-03 5.634E-03

     total cpu time spent up to now is     4951.0 secs

     total energy              =  -16138.55543134 Ry
     estimated scf accuracy    <       0.00001226 Ry

     total magnetization       =     1.00 Bohr mag/cell
     absolute magnetization    =     1.12 Bohr mag/cell

     iteration # 14     ecut=    50.00 Ry     beta= 0.40
     Davidson diagonalization with overlap

---- Real-time Memory Report at c_bands before calling an iterative solver
           522 MiB given to the printing process from OS
           354 MiB allocation reported by mallinfo(arena+hblkhd)
         15435 MiB available memory on the node where the printing process lives
------------------
     ethr =  2.53E-09,  avg # of iterations =  3.8

     negative rho (up, down):  4.902E-03 5.283E-03

     total cpu time spent up to now is     5257.6 secs

     total energy              =  -16138.55546763 Ry
     estimated scf accuracy    <       0.00000862 Ry

     total magnetization       =     1.00 Bohr mag/cell
     absolute magnetization    =     1.12 Bohr mag/cell

     iteration # 15     ecut=    50.00 Ry     beta= 0.40
     Davidson diagonalization with overlap

---- Real-time Memory Report at c_bands before calling an iterative solver
           522 MiB given to the printing process from OS
           354 MiB allocation reported by mallinfo(arena+hblkhd)
         15605 MiB available memory on the node where the printing process lives
------------------
     ethr =  1.78E-09,  avg # of iterations =  2.0

     negative rho (up, down):  4.846E-03 5.225E-03

     total cpu time spent up to now is     5523.3 secs

     total energy              =  -16138.55547408 Ry
     estimated scf accuracy    <       0.00000704 Ry

     total magnetization       =     1.00 Bohr mag/cell
     absolute magnetization    =     1.12 Bohr mag/cell

     iteration # 16     ecut=    50.00 Ry     beta= 0.40
     Davidson diagonalization with overlap

---- Real-time Memory Report at c_bands before calling an iterative solver
           522 MiB given to the printing process from OS
           354 MiB allocation reported by mallinfo(arena+hblkhd)
         16078 MiB available memory on the node where the printing process lives
------------------
     ethr =  1.45E-09,  avg # of iterations =  2.1

     negative rho (up, down):  5.364E-03 5.763E-03

     total cpu time spent up to now is     5783.4 secs

     total energy              =  -16138.55542121 Ry
     estimated scf accuracy    <       0.00000417 Ry

     total magnetization       =     1.00 Bohr mag/cell
     absolute magnetization    =     1.12 Bohr mag/cell

     iteration # 17     ecut=    50.00 Ry     beta= 0.40
     Davidson diagonalization with overlap

---- Real-time Memory Report at c_bands before calling an iterative solver
           522 MiB given to the printing process from OS
           354 MiB allocation reported by mallinfo(arena+hblkhd)
         18266 MiB available memory on the node where the printing process lives
------------------
     ethr =  8.60E-10,  avg # of iterations =  8.6

     negative rho (up, down):  4.935E-03 5.314E-03

     total cpu time spent up to now is     6160.9 secs

     total energy              =  -16138.55546334 Ry
     estimated scf accuracy    <       0.00000656 Ry

     total magnetization       =     1.00 Bohr mag/cell
     absolute magnetization    =     1.12 Bohr mag/cell

     iteration # 18     ecut=    50.00 Ry     beta= 0.40
     Davidson diagonalization with overlap

---- Real-time Memory Report at c_bands before calling an iterative solver
           522 MiB given to the printing process from OS
           354 MiB allocation reported by mallinfo(arena+hblkhd)
         18141 MiB available memory on the node where the printing process lives
------------------
     ethr =  8.60E-10,  avg # of iterations =  8.5

     negative rho (up, down):  4.810E-03 5.179E-03

     total cpu time spent up to now is     6503.1 secs

     total energy              =  -16138.55547869 Ry
     estimated scf accuracy    <       0.00000090 Ry

     total magnetization       =     1.00 Bohr mag/cell
     absolute magnetization    =     1.12 Bohr mag/cell

     iteration # 19     ecut=    50.00 Ry     beta= 0.40
     Davidson diagonalization with overlap

---- Real-time Memory Report at c_bands before calling an iterative solver
           522 MiB given to the printing process from OS
           354 MiB allocation reported by mallinfo(arena+hblkhd)
         19619 MiB available memory on the node where the printing process lives
------------------
     ethr =  1.85E-10,  avg # of iterations =  7.3

     negative rho (up, down):  4.801E-03 5.168E-03

     total cpu time spent up to now is     6940.9 secs

     total energy              =  -16138.55547966 Ry
     estimated scf accuracy    <       0.00000246 Ry

     total magnetization       =     1.00 Bohr mag/cell
     absolute magnetization    =     1.12 Bohr mag/cell

     iteration # 20     ecut=    50.00 Ry     beta= 0.40
     Davidson diagonalization with overlap

---- Real-time Memory Report at c_bands before calling an iterative solver
           522 MiB given to the printing process from OS
           354 MiB allocation reported by mallinfo(arena+hblkhd)
         17421 MiB available memory on the node where the printing process lives
------------------
     ethr =  1.85E-10,  avg # of iterations =  6.7

     negative rho (up, down):  4.804E-03 5.171E-03

     total cpu time spent up to now is     7301.7 secs

     total energy              =  -16138.55547904 Ry
     estimated scf accuracy    <       0.00000053 Ry

     total magnetization       =     1.00 Bohr mag/cell
     absolute magnetization    =     1.12 Bohr mag/cell

     iteration # 21     ecut=    50.00 Ry     beta= 0.40
     Davidson diagonalization with overlap

---- Real-time Memory Report at c_bands before calling an iterative solver
           522 MiB given to the printing process from OS
           354 MiB allocation reported by mallinfo(arena+hblkhd)
         19756 MiB available memory on the node where the printing process lives
------------------
     ethr =  1.09E-10,  avg # of iterations =  6.5

     negative rho (up, down):  4.800E-03 5.168E-03

     total cpu time spent up to now is     7674.9 secs

     total energy              =  -16138.55547955 Ry
     estimated scf accuracy    <       0.00000023 Ry

     total magnetization       =     1.00 Bohr mag/cell
     absolute magnetization    =     1.12 Bohr mag/cell

     iteration # 22     ecut=    50.00 Ry     beta= 0.40
     Davidson diagonalization with overlap

---- Real-time Memory Report at c_bands before calling an iterative solver
           522 MiB given to the printing process from OS
           354 MiB allocation reported by mallinfo(arena+hblkhd)
         17599 MiB available memory on the node where the printing process lives
------------------
     ethr =  4.73E-11,  avg # of iterations =  4.5

     negative rho (up, down):  4.798E-03 5.165E-03

     total cpu time spent up to now is     7964.6 secs

     total energy              =  -16138.55547976 Ry
     estimated scf accuracy    <       0.00000005 Ry

     total magnetization       =     1.00 Bohr mag/cell
     absolute magnetization    =     1.12 Bohr mag/cell

     iteration # 23     ecut=    50.00 Ry     beta= 0.40
     Davidson diagonalization with overlap

---- Real-time Memory Report at c_bands before calling an iterative solver
           522 MiB given to the printing process from OS
           354 MiB allocation reported by mallinfo(arena+hblkhd)
         18465 MiB available memory on the node where the printing process lives
------------------
     ethr =  9.59E-12,  avg # of iterations =  7.9

     negative rho (up, down):  4.797E-03 5.164E-03

     total cpu time spent up to now is     8377.9 secs

     total energy              =  -16138.55547994 Ry
     estimated scf accuracy    <       0.00000002 Ry

     total magnetization       =     1.00 Bohr mag/cell
     absolute magnetization    =     1.12 Bohr mag/cell

     iteration # 24     ecut=    50.00 Ry     beta= 0.40
     Davidson diagonalization with overlap

---- Real-time Memory Report at c_bands before calling an iterative solver
           522 MiB given to the printing process from OS
           354 MiB allocation reported by mallinfo(arena+hblkhd)
         19772 MiB available memory on the node where the printing process lives
------------------
     ethr =  3.55E-12,  avg # of iterations =  6.7

     negative rho (up, down):  4.796E-03 5.163E-03

     total cpu time spent up to now is     8673.4 secs

     total energy              =  -16138.55547999 Ry
     estimated scf accuracy    <          9.0E-09 Ry

     total magnetization       =     1.00 Bohr mag/cell
     absolute magnetization    =     1.12 Bohr mag/cell

     iteration # 25     ecut=    50.00 Ry     beta= 0.40
     Davidson diagonalization with overlap

---- Real-time Memory Report at c_bands before calling an iterative solver
           522 MiB given to the printing process from OS
           354 MiB allocation reported by mallinfo(arena+hblkhd)
         19889 MiB available memory on the node where the printing process lives
------------------
     ethr =  1.85E-12,  avg # of iterations =  6.5

     negative rho (up, down):  4.796E-03 5.163E-03

     total cpu time spent up to now is     9022.7 secs

     total energy              =  -16138.55548000 Ry
     estimated scf accuracy    <          3.9E-09 Ry

     total magnetization       =     1.00 Bohr mag/cell
     absolute magnetization    =     1.12 Bohr mag/cell

     iteration # 26     ecut=    50.00 Ry     beta= 0.40
     Davidson diagonalization with overlap

---- Real-time Memory Report at c_bands before calling an iterative solver
           522 MiB given to the printing process from OS
           354 MiB allocation reported by mallinfo(arena+hblkhd)
         17731 MiB available memory on the node where the printing process lives
------------------
     ethr =  7.95E-13,  avg # of iterations =  4.5

     negative rho (up, down):  4.795E-03 5.163E-03

     total cpu time spent up to now is     9314.8 secs

     total energy              =  -16138.55547998 Ry
     estimated scf accuracy    <          1.9E-09 Ry

     total magnetization       =     1.00 Bohr mag/cell
     absolute magnetization    =     1.12 Bohr mag/cell

     iteration # 27     ecut=    50.00 Ry     beta= 0.40
     Davidson diagonalization with overlap

---- Real-time Memory Report at c_bands before calling an iterative solver
           522 MiB given to the printing process from OS
           354 MiB allocation reported by mallinfo(arena+hblkhd)
         17662 MiB available memory on the node where the printing process lives
------------------
     ethr =  3.86E-13,  avg # of iterations = 10.1

     negative rho (up, down):  4.795E-03 5.163E-03

     total cpu time spent up to now is     9746.4 secs

     total energy              =  -16138.55548001 Ry
     estimated scf accuracy    <          6.4E-09 Ry

     total magnetization       =     1.00 Bohr mag/cell
     absolute magnetization    =     1.12 Bohr mag/cell

     iteration # 28     ecut=    50.00 Ry     beta= 0.40
     Davidson diagonalization with overlap

---- Real-time Memory Report at c_bands before calling an iterative solver
           522 MiB given to the printing process from OS
           354 MiB allocation reported by mallinfo(arena+hblkhd)
         16828 MiB available memory on the node where the printing process lives
------------------
     ethr =  3.86E-13,  avg # of iterations =  7.0

     negative rho (up, down):  4.795E-03 5.163E-03

     total cpu time spent up to now is    10149.9 secs

     total energy              =  -16138.55548001 Ry
     estimated scf accuracy    <          1.2E-09 Ry

     total magnetization       =     1.00 Bohr mag/cell
     absolute magnetization    =     1.12 Bohr mag/cell

     iteration # 29     ecut=    50.00 Ry     beta= 0.40
     Davidson diagonalization with overlap

---- Real-time Memory Report at c_bands before calling an iterative solver
           522 MiB given to the printing process from OS
           354 MiB allocation reported by mallinfo(arena+hblkhd)
         20355 MiB available memory on the node where the printing process lives
------------------
     ethr =  2.39E-13,  avg # of iterations =  6.9

     negative rho (up, down):  4.795E-03 5.163E-03

     total cpu time spent up to now is    10460.1 secs

     total energy              =  -16138.55548002 Ry
     estimated scf accuracy    <          6.4E-10 Ry

     total magnetization       =     1.00 Bohr mag/cell
     absolute magnetization    =     1.12 Bohr mag/cell

     iteration # 30     ecut=    50.00 Ry     beta= 0.40
     Davidson diagonalization with overlap

---- Real-time Memory Report at c_bands before calling an iterative solver
           522 MiB given to the printing process from OS
           354 MiB allocation reported by mallinfo(arena+hblkhd)
         16417 MiB available memory on the node where the printing process lives
------------------
     ethr =  1.31E-13,  avg # of iterations =  9.9

     negative rho (up, down):  4.795E-03 5.163E-03

     total cpu time spent up to now is    10909.3 secs

     total energy              =  -16138.55548002 Ry
     estimated scf accuracy    <          3.6E-09 Ry

     total magnetization       =     1.00 Bohr mag/cell
     absolute magnetization    =     1.12 Bohr mag/cell

     iteration # 31     ecut=    50.00 Ry     beta= 0.40
     Davidson diagonalization with overlap

---- Real-time Memory Report at c_bands before calling an iterative solver
           522 MiB given to the printing process from OS
           354 MiB allocation reported by mallinfo(arena+hblkhd)
         16408 MiB available memory on the node where the printing process lives
------------------
     ethr =  1.31E-13,  avg # of iterations =  7.2

     negative rho (up, down):  4.795E-03 5.163E-03

     total cpu time spent up to now is    11310.7 secs

     total energy              =  -16138.55548002 Ry
     estimated scf accuracy    <          5.7E-10 Ry

     total magnetization       =     1.00 Bohr mag/cell
     absolute magnetization    =     1.12 Bohr mag/cell

     iteration # 32     ecut=    50.00 Ry     beta= 0.40
     Davidson diagonalization with overlap

---- Real-time Memory Report at c_bands before calling an iterative solver
           523 MiB given to the printing process from OS
           355 MiB allocation reported by mallinfo(arena+hblkhd)
         16409 MiB available memory on the node where the printing process lives
------------------
     ethr =  1.17E-13,  avg # of iterations =  7.1

     negative rho (up, down):  4.795E-03 5.163E-03

     total cpu time spent up to now is    11676.4 secs

     total energy              =  -16138.55548002 Ry
     estimated scf accuracy    <          9.6E-10 Ry

     total magnetization       =     1.00 Bohr mag/cell
     absolute magnetization    =     1.12 Bohr mag/cell

     iteration # 33     ecut=    50.00 Ry     beta= 0.40
     Davidson diagonalization with overlap

---- Real-time Memory Report at c_bands before calling an iterative solver
           523 MiB given to the printing process from OS
           355 MiB allocation reported by mallinfo(arena+hblkhd)
         15524 MiB available memory on the node where the printing process lives
------------------
     ethr =  1.17E-13,  avg # of iterations =  2.0

     negative rho (up, down):  4.795E-03 5.163E-03

     total cpu time spent up to now is    11941.4 secs

     total energy              =  -16138.55548002 Ry
     estimated scf accuracy    <          5.3E-10 Ry

     total magnetization       =     1.00 Bohr mag/cell
     absolute magnetization    =     1.12 Bohr mag/cell

     iteration # 34     ecut=    50.00 Ry     beta= 0.40
     Davidson diagonalization with overlap

---- Real-time Memory Report at c_bands before calling an iterative solver
           523 MiB given to the printing process from OS
           355 MiB allocation reported by mallinfo(arena+hblkhd)
         19880 MiB available memory on the node where the printing process lives
------------------
     ethr =  1.09E-13,  avg # of iterations =  4.6

     negative rho (up, down):  4.795E-03 5.163E-03

     total cpu time spent up to now is    12213.7 secs

     total energy              =  -16138.55548002 Ry
     estimated scf accuracy    <          2.4E-10 Ry

     total magnetization       =     1.00 Bohr mag/cell
     absolute magnetization    =     1.12 Bohr mag/cell

     iteration # 35     ecut=    50.00 Ry     beta= 0.40
     Davidson diagonalization with overlap

---- Real-time Memory Report at c_bands before calling an iterative solver
           523 MiB given to the printing process from OS
           355 MiB allocation reported by mallinfo(arena+hblkhd)
         18208 MiB available memory on the node where the printing process lives
------------------
     ethr =  1.00E-13,  avg # of iterations =  8.5

     negative rho (up, down):  4.795E-03 5.163E-03

     Magnetic moment per site  (integrated on atomic sphere of radius R)
     atom   1 (R=0.078)  charge= 10.3731  magn=  0.0015
     atom   2 (R=0.078)  charge= 10.3731  magn=  0.0080
     atom   3 (R=0.078)  charge= 10.3740  magn= -0.0007
     atom   4 (R=0.078)  charge= 10.3743  magn=  0.0148
     atom   5 (R=0.078)  charge= 10.3763  magn=  0.0111
     atom   6 (R=0.078)  charge= 10.3757  magn=  0.0063
     atom   7 (R=0.078)  charge= 10.3783  magn=  0.0052
     atom   8 (R=0.078)  charge= 10.3749  magn=  0.0108
     atom   9 (R=0.078)  charge= 10.3753  magn=  0.0033
     atom  10 (R=0.078)  charge= 10.3820  magn=  0.0365
     atom  11 (R=0.078)  charge= 10.3836  magn=  0.0167
     atom  12 (R=0.078)  charge= 10.3743  magn=  0.0164
     atom  13 (R=0.078)  charge= 10.3731  magn=  0.0029
     atom  14 (R=0.078)  charge= 10.3740  magn= -0.0006
     atom  15 (R=0.078)  charge= 10.3816  magn=  0.0172
     atom  16 (R=0.078)  charge= 10.3760  magn=  0.0042
     atom  17 (R=0.078)  charge=  4.1591  magn=  0.0027
     atom  18 (R=0.078)  charge=  4.1558  magn=  0.0017
     atom  19 (R=0.078)  charge=  4.1586  magn= -0.0000
     atom  20 (R=0.078)  charge=  4.1590  magn=  0.0027
     atom  21 (R=0.078)  charge=  4.1594  magn=  0.0025
     atom  22 (R=0.078)  charge=  4.1750  magn=  0.0122
     atom  23 (R=0.078)  charge=  4.1787  magn=  0.0050
     atom  24 (R=0.078)  charge=  4.1586  magn=  0.0036
     atom  25 (R=0.078)  charge=  4.1591  magn=  0.0022
     atom  26 (R=0.078)  charge=  4.1626  magn=  0.0026
     atom  27 (R=0.078)  charge=  4.1805  magn=  0.0068
     atom  28 (R=0.078)  charge=  4.1668  magn=  0.0125
     atom  29 (R=0.078)  charge=  4.1578  magn=  0.0030
     atom  30 (R=0.078)  charge=  4.1574  magn=  0.0007
     atom  31 (R=0.078)  charge=  4.1566  magn=  0.0017
     atom  32 (R=0.078)  charge=  4.1575  magn=  0.0062
     atom  33 (R=0.078)  charge=  4.1610  magn=  0.0008
     atom  34 (R=0.078)  charge=  4.1591  magn=  0.0009
     atom  35 (R=0.078)  charge=  4.1606  magn= -0.0002
     atom  36 (R=0.078)  charge=  4.1609  magn=  0.0001
     atom  37 (R=0.078)  charge=  4.1601  magn=  0.0005
     atom  38 (R=0.078)  charge=  4.1589  magn=  0.0036
     atom  39 (R=0.078)  charge=  4.1568  magn=  0.0010
     atom  40 (R=0.078)  charge=  4.1595  magn= -0.0001
     atom  41 (R=0.078)  charge=  4.1602  magn=  0.0005
     atom  42 (R=0.078)  charge=  4.1579  magn=  0.0018
     atom  43 (R=0.078)  charge=  4.1526  magn=  0.0025
     atom  44 (R=0.078)  charge=  4.1584  magn=  0.0032
     atom  45 (R=0.078)  charge=  4.1594  magn=  0.0015
     atom  46 (R=0.078)  charge=  4.1597  magn=  0.0002
     atom  47 (R=0.078)  charge=  4.1603  magn=  0.0006
     atom  48 (R=0.078)  charge=  4.1598  magn=  0.0022
     atom  49 (R=0.075)  charge=  8.3762  magn=  0.0118
     atom  50 (R=0.075)  charge=  8.3724  magn=  0.0310
     atom  51 (R=0.075)  charge=  8.3760  magn=  0.0134
     atom  52 (R=0.075)  charge=  8.3726  magn=  0.0330
     atom  53 (R=0.075)  charge=  8.3616  magn=  0.0185
     atom  54 (R=0.033)  charge=  1.3258  magn= -0.0002
     atom  55 (R=0.032)  charge=  2.0331  magn=  0.0004
     atom  56 (R=0.032)  charge=  0.4203  magn=  0.0002
     atom  57 (R=0.032)  charge=  0.4031  magn=  0.0001
     atom  58 (R=0.032)  charge=  0.4205  magn=  0.0001

     total cpu time spent up to now is    12516.1 secs

     End of self-consistent calculation

 ------ SPIN UP ------------


          k = 0.0000 0.0000 0.0000 (112117 PWs)   bands (ev):

   -73.8179 -73.8144 -73.8115 -73.8089 -73.8070 -73.8061 -73.8035 -73.8015
   -73.7967 -73.7948 -73.7920 -73.7899 -73.7881 -73.7553 -73.7506 -73.7411
   -38.2258 -38.2209 -38.2197 -38.1648 -38.1640 -38.1592 -38.1587 -38.1524
   -38.1445 -38.0608 -38.0579 -38.0552 -38.0546 -38.0495 -38.0475 -38.0456
   -38.0321 -38.0304 -38.0278 -38.0273 -38.0234 -38.0228 -38.0205 -38.0184
   -38.0178 -38.0149 -38.0133 -38.0054 -37.9966 -37.9935 -37.9923 -37.9893
   -37.9876 -37.9835 -37.9697 -37.9595 -37.9582 -37.9553 -37.9528 -37.9474
   -37.9262 -37.9193 -37.9149 -37.9142 -37.9105 -37.9056 -37.8713 -37.8680
   -21.4715 -15.4141 -14.5999 -13.7132 -13.7000 -13.6760 -13.6455 -13.6323
   -13.6221 -12.9845 -12.7148 -12.6793 -12.6569 -12.6411 -12.6046 -12.5828
   -12.5414 -12.5087 -12.4746 -12.4583 -12.4471 -12.4450 -12.4237 -12.4224
   -12.4176 -12.2252 -12.2031 -12.1919 -12.1761 -12.1591 -12.1553 -12.1515
   -12.1484 -12.1459  -7.9176  -7.5195  -6.3448  -6.3292  -6.3111  -6.2861
    -6.1582  -5.6171  -5.5757  -5.5537  -5.5354  -5.5302  -5.4964  -5.4478
    -5.4171  -5.3944  -5.3166  -5.2865  -5.2644  -5.1086  -5.0965  -5.0673
    -5.0623  -5.0577  -5.0567  -5.0022  -5.0007  -4.9918  -4.5273  -4.4444
    -4.4050  -4.3501  -4.2970  -4.2872  -4.2712  -4.2502  -4.2359  -4.1858
    -4.0837  -4.0137  -3.9817  -3.9656  -3.9395  -3.7987  -3.7636  -3.7616
    -3.7068  -3.6812  -3.6777  -3.6186  -3.5186  -3.4776  -3.4105  -3.4061
    -3.3769  -3.3692  -3.3026  -3.2289  -3.2003  -3.1862  -3.1674  -3.1463
    -3.1367  -3.1288  -3.1147  -3.1113  -3.0662  -2.9647  -2.8249  -2.7750
    -2.7263  -2.6815  -2.6520  -2.5951  -2.5867  -2.5276  -2.5175  -2.4692
    -2.4643  -2.4378  -2.4361  -2.4305  -2.4044  -2.3460  -2.2970  -2.2130
    -2.1362  -2.0891  -1.9839  -1.9808  -1.9579  -1.9362  -1.8733  -1.8410
    -1.8182  -1.7869  -1.7722  -1.7679  -1.7549  -1.7546  -1.7465  -1.7409
    -1.7395  -1.7124  -1.7005  -1.6703  -1.6630  -1.6487  -1.6390  -1.6132
    -1.5858  -1.5351  -1.5270  -1.5092  -1.4564  -1.4214  -1.3768  -1.3601
    -1.3145  -1.2794  -1.2086  -1.1014  -1.0609  -1.0329  -1.0175  -0.9989
    -0.7322  -0.6966  -0.6923  -0.6901  -0.6808  -0.6769  -0.6517  -0.6487
    -0.6325  -0.3996  -0.3910  -0.3795  -0.3644  -0.3521  -0.3439  -0.3255
     0.1948   1.2527   1.5336

     occupation numbers 
     1.0000   1.0000   1.0000   1.0000   1.0000   1.0000   1.0000   1.0000
     1.0000   1.0000   1.0000   1.0000   1.0000   1.0000   1.0000   1.0000
     1.0000   1.0000   1.0000   1.0000   1.0000   1.0000   1.0000   1.0000
     1.0000   1.0000   1.0000   1.0000   1.0000   1.0000   1.0000   1.0000
     1.0000   1.0000   1.0000   1.0000   1.0000   1.0000   1.0000   1.0000
     1.0000   1.0000   1.0000   1.0000   1.0000   1.0000   1.0000   1.0000
     1.0000   1.0000   1.0000   1.0000   1.0000   1.0000   1.0000   1.0000
     1.0000   1.0000   1.0000   1.0000   1.0000   1.0000   1.0000   1.0000
     1.0000   1.0000   1.0000   1.0000   1.0000   1.0000   1.0000   1.0000
     1.0000   1.0000   1.0000   1.0000   1.0000   1.0000   1.0000   1.0000
     1.0000   1.0000   1.0000   1.0000   1.0000   1.0000   1.0000   1.0000
     1.0000   1.0000   1.0000   1.0000   1.0000   1.0000   1.0000   1.0000
     1.0000   1.0000   1.0000   1.0000   1.0000   1.0000   1.0000   1.0000
     1.0000   1.0000   1.0000   1.0000   1.0000   1.0000   1.0000   1.0000
     1.0000   1.0000   1.0000   1.0000   1.0000   1.0000   1.0000   1.0000
     1.0000   1.0000   1.0000   1.0000   1.0000   1.0000   1.0000   1.0000
     1.0000   1.0000   1.0000   1.0000   1.0000   1.0000   1.0000   1.0000
     1.0000   1.0000   1.0000   1.0000   1.0000   1.0000   1.0000   1.0000
     1.0000   1.0000   1.0000   1.0000   1.0000   1.0000   1.0000   1.0000
     1.0000   1.0000   1.0000   1.0000   1.0000   1.0000   1.0000   1.0000
     1.0000   1.0000   1.0000   1.0000   1.0000   1.0000   1.0000   1.0000
     1.0000   1.0000   1.0000   1.0000   1.0000   1.0000   1.0000   1.0000
     1.0000   1.0000   1.0000   1.0000   1.0000   1.0000   1.0000   1.0000
     1.0000   1.0000   1.0000   1.0000   1.0000   1.0000   1.0000   1.0000
     1.0000   1.0000   1.0000   1.0000   1.0000   1.0000   1.0000   1.0000
     1.0000   1.0000   1.0000   1.0000   1.0000   1.0000   1.0000   1.0000
     1.0000   1.0000   1.0000   1.0000   1.0000   1.0000   1.0000   1.0000
     1.0000   1.0000   1.0000   1.0000   1.0000   1.0000   1.0000   1.0000
     1.0000   1.0000   1.0000   1.0000   1.0000   1.0000   1.0000   1.0000
     1.0000   1.0000   1.0000   1.0000   1.0000   1.0000   1.0000   1.0000
     1.0000   1.0000   1.0000

          k = 0.0000 0.2309 0.0000 (112171 PWs)   bands (ev):

   -73.8178 -73.8147 -73.8115 -73.8091 -73.8067 -73.8060 -73.8035 -73.8014
   -73.7968 -73.7948 -73.7919 -73.7900 -73.7881 -73.7553 -73.7506 -73.7411
   -38.2206 -38.2156 -38.2134 -38.1713 -38.1666 -38.1633 -38.1564 -38.1489
   -38.1419 -38.1046 -38.0799 -38.0777 -38.0537 -38.0501 -38.0465 -38.0336
   -38.0302 -38.0275 -38.0252 -38.0225 -38.0193 -38.0172 -38.0144 -38.0125
   -38.0054 -38.0001 -37.9982 -37.9969 -37.9950 -37.9931 -37.9895 -37.9882
   -37.9867 -37.9833 -37.9700 -37.9628 -37.9607 -37.9557 -37.9528 -37.9476
   -37.9335 -37.9238 -37.9229 -37.9124 -37.9093 -37.9019 -37.8787 -37.8695
   -21.4715 -15.4141 -14.5583 -13.9787 -13.8039 -13.7868 -13.4957 -13.4628
   -13.3261 -12.9685 -12.8084 -12.7368 -12.6989 -12.6890 -12.6565 -12.5891
   -12.5565 -12.5445 -12.4958 -12.4782 -12.4585 -12.4387 -12.4248 -12.3183
   -12.2865 -12.2647 -12.2455 -12.2156 -12.1867 -12.1758 -12.1694 -12.1540
   -12.0966 -12.0815  -7.9176  -7.5195  -6.2833  -6.2719  -6.2397  -6.2381
    -6.1567  -5.6724  -5.6492  -5.6320  -5.5615  -5.5204  -5.4911  -5.4730
    -5.4320  -5.4198  -5.3977  -5.3229  -5.3186  -5.2892  -5.2721  -5.0752
    -5.0681  -5.0199  -5.0039  -4.9580  -4.7413  -4.7360  -4.5936  -4.4872
    -4.4557  -4.3880  -4.3249  -4.2907  -4.2120  -4.1631  -4.1487  -4.1224
    -4.1016  -4.0647  -4.0454  -4.0032  -3.9869  -3.9147  -3.9116  -3.9030
    -3.6780  -3.5779  -3.5450  -3.5115  -3.4712  -3.4460  -3.4405  -3.3860
    -3.3660  -3.3178  -3.2995  -3.2827  -3.2780  -3.2114  -3.1969  -3.1513
    -3.1060  -2.9991  -2.9674  -2.9368  -2.8614  -2.7977  -2.7787  -2.7510
    -2.7268  -2.7202  -2.7014  -2.6889  -2.6610  -2.6384  -2.6124  -2.5469
    -2.5257  -2.5080  -2.4798  -2.4461  -2.3659  -2.3186  -2.2071  -2.1668
    -2.1269  -2.0900  -2.0206  -2.0063  -1.9873  -1.9710  -1.9397  -1.9131
    -1.8937  -1.8656  -1.8552  -1.8206  -1.7940  -1.7665  -1.7490  -1.7327
    -1.7230  -1.7051  -1.6911  -1.6689  -1.6527  -1.6118  -1.5881  -1.5548
    -1.5386  -1.4974  -1.4867  -1.4639  -1.4358  -1.3750  -1.3392  -1.3293
    -1.2992  -1.2836  -1.2493  -1.2284  -1.1707  -1.0744  -1.0503  -1.0294
    -0.8992  -0.7823  -0.7645  -0.7520  -0.5750  -0.5668  -0.5550  -0.5366
    -0.5237  -0.5138  -0.4151  -0.3794  -0.3679  -0.2688  -0.1726  -0.1476
     0.1758   1.2592   1.5650

     occupation numbers 
     1.0000   1.0000   1.0000   1.0000   1.0000   1.0000   1.0000   1.0000
     1.0000   1.0000   1.0000   1.0000   1.0000   1.0000   1.0000   1.0000
     1.0000   1.0000   1.0000   1.0000   1.0000   1.0000   1.0000   1.0000
     1.0000   1.0000   1.0000   1.0000   1.0000   1.0000   1.0000   1.0000
     1.0000   1.0000   1.0000   1.0000   1.0000   1.0000   1.0000   1.0000
     1.0000   1.0000   1.0000   1.0000   1.0000   1.0000   1.0000   1.0000
     1.0000   1.0000   1.0000   1.0000   1.0000   1.0000   1.0000   1.0000
     1.0000   1.0000   1.0000   1.0000   1.0000   1.0000   1.0000   1.0000
     1.0000   1.0000   1.0000   1.0000   1.0000   1.0000   1.0000   1.0000
     1.0000   1.0000   1.0000   1.0000   1.0000   1.0000   1.0000   1.0000
     1.0000   1.0000   1.0000   1.0000   1.0000   1.0000   1.0000   1.0000
     1.0000   1.0000   1.0000   1.0000   1.0000   1.0000   1.0000   1.0000
     1.0000   1.0000   1.0000   1.0000   1.0000   1.0000   1.0000   1.0000
     1.0000   1.0000   1.0000   1.0000   1.0000   1.0000   1.0000   1.0000
     1.0000   1.0000   1.0000   1.0000   1.0000   1.0000   1.0000   1.0000
     1.0000   1.0000   1.0000   1.0000   1.0000   1.0000   1.0000   1.0000
     1.0000   1.0000   1.0000   1.0000   1.0000   1.0000   1.0000   1.0000
     1.0000   1.0000   1.0000   1.0000   1.0000   1.0000   1.0000   1.0000
     1.0000   1.0000   1.0000   1.0000   1.0000   1.0000   1.0000   1.0000
     1.0000   1.0000   1.0000   1.0000   1.0000   1.0000   1.0000   1.0000
     1.0000   1.0000   1.0000   1.0000   1.0000   1.0000   1.0000   1.0000
     1.0000   1.0000   1.0000   1.0000   1.0000   1.0000   1.0000   1.0000
     1.0000   1.0000   1.0000   1.0000   1.0000   1.0000   1.0000   1.0000
     1.0000   1.0000   1.0000   1.0000   1.0000   1.0000   1.0000   1.0000
     1.0000   1.0000   1.0000   1.0000   1.0000   1.0000   1.0000   1.0000
     1.0000   1.0000   1.0000   1.0000   1.0000   1.0000   1.0000   1.0000
     1.0000   1.0000   1.0000   1.0000   1.0000   1.0000   1.0000   1.0000
     1.0000   1.0000   1.0000   1.0000   1.0000   1.0000   1.0000   1.0000
     1.0000   1.0000   1.0000   1.0000   1.0000   1.0000   1.0000   1.0000
     1.0000   1.0000   1.0000   1.0000   1.0000   1.0000   1.0000   1.0000
     1.0000   1.0000   1.0000

          k = 0.0000 0.4619 0.0000 (112236 PWs)   bands (ev):

   -73.8174 -73.8150 -73.8115 -73.8093 -73.8065 -73.8059 -73.8035 -73.8013
   -73.7970 -73.7948 -73.7917 -73.7902 -73.7881 -73.7553 -73.7506 -73.7411
   -38.2074 -38.2048 -38.1914 -38.1889 -38.1769 -38.1672 -38.1609 -38.1479
   -38.1319 -38.1272 -38.1065 -38.1021 -38.0648 -38.0595 -38.0483 -38.0394
   -38.0323 -38.0214 -38.0178 -38.0136 -38.0103 -38.0076 -38.0039 -38.0016
   -37.9996 -37.9983 -37.9978 -37.9921 -37.9894 -37.9865 -37.9833 -37.9797
   -37.9746 -37.9711 -37.9678 -37.9664 -37.9541 -37.9524 -37.9504 -37.9487
   -37.9440 -37.9373 -37.9326 -37.9169 -37.9121 -37.8961 -37.8945 -37.8724
   -21.4715 -15.4141 -14.4367 -14.2352 -13.8736 -13.8548 -13.2668 -13.2315
   -13.0218 -13.0009 -12.9716 -12.9188 -12.8344 -12.7324 -12.7060 -12.6903
   -12.5231 -12.5159 -12.4643 -12.4512 -12.4382 -12.4259 -12.3837 -12.3704
   -12.3518 -12.2855 -12.2178 -12.2031 -12.1786 -12.1603 -12.1583 -12.1540
   -12.0575 -12.0406  -7.9176  -7.5195  -6.1714  -6.1270  -6.1151  -6.0930
    -6.0288  -5.8748  -5.8624  -5.8400  -5.7161  -5.5363  -5.5016  -5.4902
    -5.4621  -5.4475  -5.4391  -5.3954  -5.3757  -5.3279  -5.3034  -5.0685
    -5.0651  -5.0323  -5.0109  -4.8127  -4.6342  -4.5312  -4.4886  -4.4422
    -4.3962  -4.3773  -4.3512  -4.3155  -4.2470  -4.2339  -4.1934  -4.1624
    -4.1314  -4.1208  -4.1048  -4.0787  -4.0672  -4.0539  -4.0443  -3.7012
    -3.5778  -3.5134  -3.4843  -3.4458  -3.4232  -3.3943  -3.3729  -3.3128
    -3.2991  -3.2841  -3.2650  -3.2423  -3.2232  -3.1910  -3.1660  -3.1096
    -3.0690  -3.0631  -3.0122  -2.9741  -2.9556  -2.9179  -2.8665  -2.7802
    -2.7550  -2.7107  -2.6708  -2.6417  -2.6135  -2.5754  -2.5440  -2.4997
    -2.4538  -2.4348  -2.4002  -2.3215  -2.2822  -2.2573  -2.2442  -2.1891
    -2.1298  -2.1008  -2.0485  -2.0223  -2.0127  -2.0025  -1.9854  -1.9566
    -1.9350  -1.9110  -1.8824  -1.8759  -1.8581  -1.8458  -1.8414  -1.8295
    -1.7767  -1.7649  -1.7256  -1.7212  -1.6963  -1.6711  -1.6359  -1.6229
    -1.5963  -1.5569  -1.5359  -1.5068  -1.4372  -1.3927  -1.3041  -1.2919
    -1.2390  -1.2056  -1.1935  -1.1530  -1.1228  -1.1004  -1.0512  -1.0117
    -0.9799  -0.8968  -0.7359  -0.7247  -0.6432  -0.6270  -0.4974  -0.4594
    -0.4459  -0.4356  -0.4001  -0.3826  -0.3158  -0.0964  -0.0001   0.0230
     0.1262   1.2689   1.6175

     occupation numbers 
     1.0000   1.0000   1.0000   1.0000   1.0000   1.0000   1.0000   1.0000
     1.0000   1.0000   1.0000   1.0000   1.0000   1.0000   1.0000   1.0000
     1.0000   1.0000   1.0000   1.0000   1.0000   1.0000   1.0000   1.0000
     1.0000   1.0000   1.0000   1.0000   1.0000   1.0000   1.0000   1.0000
     1.0000   1.0000   1.0000   1.0000   1.0000   1.0000   1.0000   1.0000
     1.0000   1.0000   1.0000   1.0000   1.0000   1.0000   1.0000   1.0000
     1.0000   1.0000   1.0000   1.0000   1.0000   1.0000   1.0000   1.0000
     1.0000   1.0000   1.0000   1.0000   1.0000   1.0000   1.0000   1.0000
     1.0000   1.0000   1.0000   1.0000   1.0000   1.0000   1.0000   1.0000
     1.0000   1.0000   1.0000   1.0000   1.0000   1.0000   1.0000   1.0000
     1.0000   1.0000   1.0000   1.0000   1.0000   1.0000   1.0000   1.0000
     1.0000   1.0000   1.0000   1.0000   1.0000   1.0000   1.0000   1.0000
     1.0000   1.0000   1.0000   1.0000   1.0000   1.0000   1.0000   1.0000
     1.0000   1.0000   1.0000   1.0000   1.0000   1.0000   1.0000   1.0000
     1.0000   1.0000   1.0000   1.0000   1.0000   1.0000   1.0000   1.0000
     1.0000   1.0000   1.0000   1.0000   1.0000   1.0000   1.0000   1.0000
     1.0000   1.0000   1.0000   1.0000   1.0000   1.0000   1.0000   1.0000
     1.0000   1.0000   1.0000   1.0000   1.0000   1.0000   1.0000   1.0000
     1.0000   1.0000   1.0000   1.0000   1.0000   1.0000   1.0000   1.0000
     1.0000   1.0000   1.0000   1.0000   1.0000   1.0000   1.0000   1.0000
     1.0000   1.0000   1.0000   1.0000   1.0000   1.0000   1.0000   1.0000
     1.0000   1.0000   1.0000   1.0000   1.0000   1.0000   1.0000   1.0000
     1.0000   1.0000   1.0000   1.0000   1.0000   1.0000   1.0000   1.0000
     1.0000   1.0000   1.0000   1.0000   1.0000   1.0000   1.0000   1.0000
     1.0000   1.0000   1.0000   1.0000   1.0000   1.0000   1.0000   1.0000
     1.0000   1.0000   1.0000   1.0000   1.0000   1.0000   1.0000   1.0000
     1.0000   1.0000   1.0000   1.0000   1.0000   1.0000   1.0000   1.0000
     1.0000   1.0000   1.0000   1.0000   1.0000   1.0000   1.0000   1.0000
     1.0000   1.0000   1.0000   1.0000   1.0000   1.0000   1.0000   1.0000
     1.0000   1.0000   1.0000   1.0000   1.0000   1.0000   1.0000   1.0000
     1.0000   1.0000   1.0000

          k = 0.2000 0.3464 0.0000 (112231 PWs)   bands (ev):

   -73.8174 -73.8151 -73.8115 -73.8091 -73.8067 -73.8058 -73.8036 -73.8014
   -73.7967 -73.7949 -73.7917 -73.7902 -73.7881 -73.7553 -73.7506 -73.7411
   -38.2129 -38.2041 -38.2009 -38.1801 -38.1770 -38.1653 -38.1566 -38.1491
   -38.1332 -38.1247 -38.1174 -38.0785 -38.0605 -38.0569 -38.0485 -38.0381
   -38.0330 -38.0299 -38.0262 -38.0206 -38.0168 -38.0103 -38.0039 -38.0010
   -37.9963 -37.9936 -37.9918 -37.9901 -37.9877 -37.9851 -37.9836 -37.9822
   -37.9772 -37.9736 -37.9701 -37.9668 -37.9599 -37.9560 -37.9528 -37.9482
   -37.9420 -37.9329 -37.9271 -37.9220 -37.9059 -37.9008 -37.8876 -37.8731
   -21.4715 -15.4141 -14.4765 -14.1049 -14.0602 -13.5684 -13.5656 -13.1761
   -13.1198 -13.0108 -12.9367 -12.8114 -12.7910 -12.7119 -12.6728 -12.6068
   -12.5963 -12.5778 -12.5729 -12.4589 -12.4260 -12.3925 -12.3781 -12.3146
   -12.2914 -12.2743 -12.2533 -12.2336 -12.2218 -12.1561 -12.1515 -12.1091
   -12.0964 -12.0369  -7.9176  -7.5195  -6.1849  -6.1746  -6.1450  -6.1285
    -6.1066  -5.7677  -5.7387  -5.7224  -5.6828  -5.6456  -5.6032  -5.5679
    -5.5067  -5.4751  -5.3570  -5.3360  -5.2857  -5.2774  -5.2447  -5.2302
    -5.0968  -4.9069  -4.8914  -4.8174  -4.7525  -4.6080  -4.4930  -4.4721
    -4.3996  -4.3686  -4.3393  -4.3060  -4.2774  -4.2646  -4.2363  -4.2282
    -4.1745  -4.1241  -4.1089  -4.0935  -4.0569  -3.7683  -3.7381  -3.7281
    -3.7202  -3.6954  -3.6167  -3.4996  -3.4329  -3.4031  -3.3539  -3.3243
    -3.3009  -3.2478  -3.2279  -3.2084  -3.1709  -3.1522  -3.1098  -3.0930
    -3.0433  -3.0171  -2.9921  -2.9533  -2.9456  -2.9277  -2.9176  -2.9021
    -2.8209  -2.7462  -2.7245  -2.6558  -2.6378  -2.5655  -2.5249  -2.4815
    -2.4680  -2.4408  -2.3888  -2.3645  -2.3176  -2.2229  -2.1867  -2.1666
    -2.1332  -2.1265  -2.0983  -2.0900  -2.0202  -2.0008  -1.9832  -1.9533
    -1.9303  -1.9081  -1.8850  -1.8590  -1.8395  -1.8301  -1.8019  -1.7490
    -1.7368  -1.7212  -1.7116  -1.6807  -1.6731  -1.6245  -1.5974  -1.5768
    -1.5681  -1.5434  -1.5394  -1.5101  -1.4301  -1.3950  -1.3826  -1.3674
    -1.2933  -1.2278  -1.2099  -1.1873  -1.1586  -1.1206  -1.0361  -1.0187
    -0.8764  -0.8497  -0.6831  -0.6737  -0.6403  -0.6329  -0.6174  -0.5432
    -0.5343  -0.4406  -0.3775  -0.2570  -0.2127  -0.2014  -0.1607   0.0701
     0.1389   1.2817   1.5897

     occupation numbers 
     1.0000   1.0000   1.0000   1.0000   1.0000   1.0000   1.0000   1.0000
     1.0000   1.0000   1.0000   1.0000   1.0000   1.0000   1.0000   1.0000
     1.0000   1.0000   1.0000   1.0000   1.0000   1.0000   1.0000   1.0000
     1.0000   1.0000   1.0000   1.0000   1.0000   1.0000   1.0000   1.0000
     1.0000   1.0000   1.0000   1.0000   1.0000   1.0000   1.0000   1.0000
     1.0000   1.0000   1.0000   1.0000   1.0000   1.0000   1.0000   1.0000
     1.0000   1.0000   1.0000   1.0000   1.0000   1.0000   1.0000   1.0000
     1.0000   1.0000   1.0000   1.0000   1.0000   1.0000   1.0000   1.0000
     1.0000   1.0000   1.0000   1.0000   1.0000   1.0000   1.0000   1.0000
     1.0000   1.0000   1.0000   1.0000   1.0000   1.0000   1.0000   1.0000
     1.0000   1.0000   1.0000   1.0000   1.0000   1.0000   1.0000   1.0000
     1.0000   1.0000   1.0000   1.0000   1.0000   1.0000   1.0000   1.0000
     1.0000   1.0000   1.0000   1.0000   1.0000   1.0000   1.0000   1.0000
     1.0000   1.0000   1.0000   1.0000   1.0000   1.0000   1.0000   1.0000
     1.0000   1.0000   1.0000   1.0000   1.0000   1.0000   1.0000   1.0000
     1.0000   1.0000   1.0000   1.0000   1.0000   1.0000   1.0000   1.0000
     1.0000   1.0000   1.0000   1.0000   1.0000   1.0000   1.0000   1.0000
     1.0000   1.0000   1.0000   1.0000   1.0000   1.0000   1.0000   1.0000
     1.0000   1.0000   1.0000   1.0000   1.0000   1.0000   1.0000   1.0000
     1.0000   1.0000   1.0000   1.0000   1.0000   1.0000   1.0000   1.0000
     1.0000   1.0000   1.0000   1.0000   1.0000   1.0000   1.0000   1.0000
     1.0000   1.0000   1.0000   1.0000   1.0000   1.0000   1.0000   1.0000
     1.0000   1.0000   1.0000   1.0000   1.0000   1.0000   1.0000   1.0000
     1.0000   1.0000   1.0000   1.0000   1.0000   1.0000   1.0000   1.0000
     1.0000   1.0000   1.0000   1.0000   1.0000   1.0000   1.0000   1.0000
     1.0000   1.0000   1.0000   1.0000   1.0000   1.0000   1.0000   1.0000
     1.0000   1.0000   1.0000   1.0000   1.0000   1.0000   1.0000   1.0000
     1.0000   1.0000   1.0000   1.0000   1.0000   1.0000   1.0000   1.0000
     1.0000   1.0000   1.0000   1.0000   1.0000   1.0000   1.0000   1.0000
     1.0000   1.0000   1.0000   1.0000   1.0000   1.0000   1.0000   1.0000
     1.0000   1.0000   1.0000

          k = 0.2000 0.5774 0.0000 (112237 PWs)   bands (ev):

   -73.8173 -73.8152 -73.8116 -73.8094 -73.8065 -73.8057 -73.8036 -73.8013
   -73.7969 -73.7949 -73.7917 -73.7902 -73.7881 -73.7553 -73.7506 -73.7411
   -38.2018 -38.1978 -38.1876 -38.1844 -38.1776 -38.1721 -38.1663 -38.1515
   -38.1482 -38.1338 -38.0936 -38.0921 -38.0880 -38.0519 -38.0464 -38.0409
   -38.0347 -38.0315 -38.0185 -38.0181 -38.0083 -38.0059 -38.0036 -38.0019
   -38.0008 -37.9980 -37.9931 -37.9894 -37.9867 -37.9830 -37.9760 -37.9716
   -37.9702 -37.9676 -37.9626 -37.9600 -37.9572 -37.9539 -37.9513 -37.9470
   -37.9434 -37.9387 -37.9328 -37.9300 -37.9185 -37.8983 -37.8894 -37.8761
   -21.4715 -15.4141 -14.3376 -14.2941 -14.1158 -13.5967 -13.3031 -13.2948
   -12.9555 -12.9498 -12.8897 -12.8547 -12.8430 -12.8032 -12.7939 -12.6594
   -12.6321 -12.6043 -12.4934 -12.4854 -12.3852 -12.3735 -12.3600 -12.3246
   -12.3107 -12.2980 -12.2599 -12.2345 -12.2334 -12.1318 -12.1217 -12.1194
   -12.0797 -12.0173  -7.9176  -7.5195  -6.1661  -6.0590  -6.0107  -5.9875
    -5.9226  -5.8974  -5.8772  -5.8512  -5.8105  -5.7447  -5.6883  -5.6254
    -5.6143  -5.5421  -5.3649  -5.2680  -5.2563  -5.2207  -5.2055  -5.1722
    -5.1562  -4.8576  -4.8333  -4.7549  -4.6353  -4.5799  -4.5494  -4.5227
    -4.4759  -4.4197  -4.4002  -4.3205  -4.3132  -4.2405  -4.2339  -4.2140
    -4.1902  -4.1664  -4.1235  -4.0966  -3.9549  -3.9513  -3.7943  -3.6648
    -3.6542  -3.5692  -3.4434  -3.3947  -3.3633  -3.3307  -3.3112  -3.2875
    -3.2741  -3.2631  -3.2460  -3.2357  -3.2170  -3.2026  -3.1449  -3.1266
    -3.1032  -3.0818  -3.0634  -3.0367  -3.0092  -2.9605  -2.8802  -2.8326
    -2.7550  -2.7306  -2.6994  -2.6738  -2.6345  -2.5601  -2.5210  -2.4591
    -2.4003  -2.3350  -2.3215  -2.3097  -2.2561  -2.2079  -2.1809  -2.1367
    -2.1222  -2.1116  -2.0812  -2.0630  -2.0190  -1.9886  -1.9684  -1.9573
    -1.9400  -1.9197  -1.8988  -1.8821  -1.8713  -1.8576  -1.8449  -1.8366
    -1.8249  -1.7841  -1.7623  -1.7372  -1.7105  -1.6861  -1.6821  -1.6524
    -1.6197  -1.5743  -1.5631  -1.5097  -1.4799  -1.4677  -1.4160  -1.3354
    -1.2863  -1.1969  -1.1626  -1.1457  -1.0993  -1.0824  -1.0099  -1.0004
    -0.8151  -0.8006  -0.7034  -0.6925  -0.6614  -0.6468  -0.5940  -0.5844
    -0.5676  -0.4168  -0.2803  -0.2716  -0.1903  -0.1265  -0.0680   0.0889
     0.1870   1.2909   1.6060

     occupation numbers 
     1.0000   1.0000   1.0000   1.0000   1.0000   1.0000   1.0000   1.0000
     1.0000   1.0000   1.0000   1.0000   1.0000   1.0000   1.0000   1.0000
     1.0000   1.0000   1.0000   1.0000   1.0000   1.0000   1.0000   1.0000
     1.0000   1.0000   1.0000   1.0000   1.0000   1.0000   1.0000   1.0000
     1.0000   1.0000   1.0000   1.0000   1.0000   1.0000   1.0000   1.0000
     1.0000   1.0000   1.0000   1.0000   1.0000   1.0000   1.0000   1.0000
     1.0000   1.0000   1.0000   1.0000   1.0000   1.0000   1.0000   1.0000
     1.0000   1.0000   1.0000   1.0000   1.0000   1.0000   1.0000   1.0000
     1.0000   1.0000   1.0000   1.0000   1.0000   1.0000   1.0000   1.0000
     1.0000   1.0000   1.0000   1.0000   1.0000   1.0000   1.0000   1.0000
     1.0000   1.0000   1.0000   1.0000   1.0000   1.0000   1.0000   1.0000
     1.0000   1.0000   1.0000   1.0000   1.0000   1.0000   1.0000   1.0000
     1.0000   1.0000   1.0000   1.0000   1.0000   1.0000   1.0000   1.0000
     1.0000   1.0000   1.0000   1.0000   1.0000   1.0000   1.0000   1.0000
     1.0000   1.0000   1.0000   1.0000   1.0000   1.0000   1.0000   1.0000
     1.0000   1.0000   1.0000   1.0000   1.0000   1.0000   1.0000   1.0000
     1.0000   1.0000   1.0000   1.0000   1.0000   1.0000   1.0000   1.0000
     1.0000   1.0000   1.0000   1.0000   1.0000   1.0000   1.0000   1.0000
     1.0000   1.0000   1.0000   1.0000   1.0000   1.0000   1.0000   1.0000
     1.0000   1.0000   1.0000   1.0000   1.0000   1.0000   1.0000   1.0000
     1.0000   1.0000   1.0000   1.0000   1.0000   1.0000   1.0000   1.0000
     1.0000   1.0000   1.0000   1.0000   1.0000   1.0000   1.0000   1.0000
     1.0000   1.0000   1.0000   1.0000   1.0000   1.0000   1.0000   1.0000
     1.0000   1.0000   1.0000   1.0000   1.0000   1.0000   1.0000   1.0000
     1.0000   1.0000   1.0000   1.0000   1.0000   1.0000   1.0000   1.0000
     1.0000   1.0000   1.0000   1.0000   1.0000   1.0000   1.0000   1.0000
     1.0000   1.0000   1.0000   1.0000   1.0000   1.0000   1.0000   1.0000
     1.0000   1.0000   1.0000   1.0000   1.0000   1.0000   1.0000   1.0000
     1.0000   1.0000   1.0000   1.0000   1.0000   1.0000   1.0000   1.0000
     1.0000   1.0000   1.0000   1.0000   1.0000   1.0000   1.0000   1.0000
     1.0000   1.0000   1.0000

          k =-0.2000 0.1155 0.0000 (112171 PWs)   bands (ev):

   -73.8178 -73.8146 -73.8115 -73.8093 -73.8068 -73.8058 -73.8036 -73.8015
   -73.7967 -73.7949 -73.7920 -73.7899 -73.7881 -73.7553 -73.7506 -73.7411
   -38.2207 -38.2159 -38.2131 -38.1698 -38.1660 -38.1649 -38.1599 -38.1472
   -38.1407 -38.1039 -38.0811 -38.0770 -38.0521 -38.0496 -38.0456 -38.0353
   -38.0291 -38.0286 -38.0260 -38.0248 -38.0177 -38.0169 -38.0146 -38.0133
   -38.0050 -38.0017 -37.9985 -37.9972 -37.9943 -37.9928 -37.9892 -37.9873
   -37.9865 -37.9833 -37.9700 -37.9633 -37.9608 -37.9552 -37.9528 -37.9476
   -37.9338 -37.9257 -37.9218 -37.9115 -37.9095 -37.9014 -37.8758 -37.8726
   -21.4715 -15.4141 -14.5583 -13.9774 -13.8039 -13.7895 -13.4806 -13.4759
   -13.3267 -12.9689 -12.7935 -12.7608 -12.6934 -12.6836 -12.6588 -12.5888
   -12.5665 -12.5231 -12.4992 -12.4802 -12.4714 -12.4338 -12.4231 -12.3095
   -12.2960 -12.2630 -12.2456 -12.2148 -12.1881 -12.1771 -12.1691 -12.1519
   -12.0963 -12.0822  -7.9176  -7.5195  -6.2873  -6.2665  -6.2460  -6.2331
    -6.1567  -5.6807  -5.6414  -5.6270  -5.5513  -5.5336  -5.4944  -5.4708
    -5.4406  -5.4220  -5.3858  -5.3300  -5.3125  -5.2843  -5.2784  -5.0838
    -5.0646  -5.0176  -5.0015  -4.9534  -4.7422  -4.7372  -4.5754  -4.5172
    -4.4524  -4.3744  -4.3422  -4.2823  -4.2102  -4.1640  -4.1495  -4.1246
    -4.1018  -4.0681  -4.0422  -3.9981  -3.9858  -3.9172  -3.9074  -3.8988
    -3.6731  -3.5925  -3.5386  -3.5054  -3.4806  -3.4631  -3.4470  -3.3773
    -3.3682  -3.3221  -3.2974  -3.2812  -3.2673  -3.2083  -3.1968  -3.1568
    -3.1053  -2.9885  -2.9671  -2.9325  -2.8362  -2.8057  -2.7790  -2.7522
    -2.7338  -2.7169  -2.7008  -2.6926  -2.6786  -2.6553  -2.6091  -2.5493
    -2.5231  -2.4873  -2.4721  -2.4499  -2.3723  -2.3156  -2.2001  -2.1779
    -2.1369  -2.0917  -2.0241  -2.0080  -1.9819  -1.9685  -1.9472  -1.9100
    -1.8878  -1.8686  -1.8439  -1.8243  -1.8074  -1.7756  -1.7425  -1.7280
    -1.7129  -1.7005  -1.6886  -1.6688  -1.6559  -1.6110  -1.5788  -1.5581
    -1.5315  -1.5078  -1.4977  -1.4380  -1.4287  -1.3755  -1.3539  -1.3319
    -1.3160  -1.2784  -1.2585  -1.2262  -1.1685  -1.0833  -1.0482  -1.0183
    -0.9023  -0.7782  -0.7611  -0.7428  -0.5880  -0.5711  -0.5547  -0.5354
    -0.5208  -0.5124  -0.4172  -0.3852  -0.3611  -0.2667  -0.1743  -0.1474
     0.1746   1.2809   1.5411

     occupation numbers 
     1.0000   1.0000   1.0000   1.0000   1.0000   1.0000   1.0000   1.0000
     1.0000   1.0000   1.0000   1.0000   1.0000   1.0000   1.0000   1.0000
     1.0000   1.0000   1.0000   1.0000   1.0000   1.0000   1.0000   1.0000
     1.0000   1.0000   1.0000   1.0000   1.0000   1.0000   1.0000   1.0000
     1.0000   1.0000   1.0000   1.0000   1.0000   1.0000   1.0000   1.0000
     1.0000   1.0000   1.0000   1.0000   1.0000   1.0000   1.0000   1.0000
     1.0000   1.0000   1.0000   1.0000   1.0000   1.0000   1.0000   1.0000
     1.0000   1.0000   1.0000   1.0000   1.0000   1.0000   1.0000   1.0000
     1.0000   1.0000   1.0000   1.0000   1.0000   1.0000   1.0000   1.0000
     1.0000   1.0000   1.0000   1.0000   1.0000   1.0000   1.0000   1.0000
     1.0000   1.0000   1.0000   1.0000   1.0000   1.0000   1.0000   1.0000
     1.0000   1.0000   1.0000   1.0000   1.0000   1.0000   1.0000   1.0000
     1.0000   1.0000   1.0000   1.0000   1.0000   1.0000   1.0000   1.0000
     1.0000   1.0000   1.0000   1.0000   1.0000   1.0000   1.0000   1.0000
     1.0000   1.0000   1.0000   1.0000   1.0000   1.0000   1.0000   1.0000
     1.0000   1.0000   1.0000   1.0000   1.0000   1.0000   1.0000   1.0000
     1.0000   1.0000   1.0000   1.0000   1.0000   1.0000   1.0000   1.0000
     1.0000   1.0000   1.0000   1.0000   1.0000   1.0000   1.0000   1.0000
     1.0000   1.0000   1.0000   1.0000   1.0000   1.0000   1.0000   1.0000
     1.0000   1.0000   1.0000   1.0000   1.0000   1.0000   1.0000   1.0000
     1.0000   1.0000   1.0000   1.0000   1.0000   1.0000   1.0000   1.0000
     1.0000   1.0000   1.0000   1.0000   1.0000   1.0000   1.0000   1.0000
     1.0000   1.0000   1.0000   1.0000   1.0000   1.0000   1.0000   1.0000
     1.0000   1.0000   1.0000   1.0000   1.0000   1.0000   1.0000   1.0000
     1.0000   1.0000   1.0000   1.0000   1.0000   1.0000   1.0000   1.0000
     1.0000   1.0000   1.0000   1.0000   1.0000   1.0000   1.0000   1.0000
     1.0000   1.0000   1.0000   1.0000   1.0000   1.0000   1.0000   1.0000
     1.0000   1.0000   1.0000   1.0000   1.0000   1.0000   1.0000   1.0000
     1.0000   1.0000   1.0000   1.0000   1.0000   1.0000   1.0000   1.0000
     1.0000   1.0000   1.0000   1.0000   1.0000   1.0000   1.0000   1.0000
     1.0000   1.0000   1.0000

          k = 0.2000 0.1155 0.0000 (112171 PWs)   bands (ev):

   -73.8177 -73.8147 -73.8115 -73.8090 -73.8069 -73.8058 -73.8036 -73.8015
   -73.7966 -73.7949 -73.7919 -73.7900 -73.7881 -73.7553 -73.7506 -73.7411
   -38.2204 -38.2165 -38.2128 -38.1706 -38.1670 -38.1637 -38.1587 -38.1475
   -38.1409 -38.1042 -38.0810 -38.0774 -38.0523 -38.0499 -38.0461 -38.0353
   -38.0292 -38.0273 -38.0262 -38.0244 -38.0180 -38.0160 -38.0151 -38.0135
   -38.0054 -38.0008 -37.9986 -37.9971 -37.9945 -37.9924 -37.9904 -37.9874
   -37.9864 -37.9832 -37.9698 -37.9626 -37.9615 -37.9554 -37.9527 -37.9475
   -37.9337 -37.9250 -37.9213 -37.9135 -37.9087 -37.9015 -37.8774 -37.8710
   -21.4715 -15.4141 -14.5583 -13.9776 -13.8030 -13.7900 -13.4798 -13.4776
   -13.3258 -12.9690 -12.7937 -12.7601 -12.6929 -12.6848 -12.6591 -12.5887
   -12.5677 -12.5214 -12.4969 -12.4821 -12.4709 -12.4362 -12.4224 -12.3049
   -12.2958 -12.2661 -12.2487 -12.2099 -12.1937 -12.1740 -12.1722 -12.1494
   -12.0935 -12.0847  -7.9176  -7.5195  -6.2819  -6.2682  -6.2488  -6.2346
    -6.1567  -5.6746  -5.6449  -5.6246  -5.5524  -5.5379  -5.4915  -5.4734
    -5.4463  -5.4257  -5.3729  -5.3295  -5.3159  -5.2849  -5.2773  -5.0796
    -5.0725  -5.0155  -5.0052  -4.9479  -4.7431  -4.7379  -4.5711  -4.5132
    -4.4496  -4.3961  -4.3412  -4.2760  -4.2094  -4.1646  -4.1514  -4.1249
    -4.1014  -4.0582  -4.0421  -4.0052  -3.9841  -3.9147  -3.9116  -3.9012
    -3.6656  -3.5726  -3.5540  -3.5124  -3.4706  -3.4594  -3.4433  -3.3860
    -3.3742  -3.3141  -3.3038  -3.2847  -3.2620  -3.2153  -3.1988  -3.1494
    -3.1116  -3.0043  -2.9623  -2.9148  -2.8328  -2.8113  -2.7864  -2.7547
    -2.7404  -2.7149  -2.7010  -2.6946  -2.6706  -2.6409  -2.6017  -2.5523
    -2.5369  -2.5034  -2.4777  -2.4334  -2.3692  -2.3091  -2.2053  -2.1836
    -2.1259  -2.0936  -2.0215  -2.0028  -1.9749  -1.9712  -1.9330  -1.9109
    -1.9029  -1.8803  -1.8407  -1.8270  -1.8103  -1.7837  -1.7445  -1.7357
    -1.7121  -1.6952  -1.6830  -1.6603  -1.6423  -1.6290  -1.5928  -1.5471
    -1.5350  -1.5072  -1.4620  -1.4477  -1.4271  -1.4068  -1.3588  -1.3136
    -1.3075  -1.2991  -1.2534  -1.2136  -1.1727  -1.0679  -1.0482  -1.0311
    -0.9013  -0.7683  -0.7599  -0.7572  -0.5996  -0.5641  -0.5502  -0.5348
    -0.5231  -0.5174  -0.4125  -0.3859  -0.3574  -0.2675  -0.1705  -0.1514
     0.1752   1.2755   1.5476

     occupation numbers 
     1.0000   1.0000   1.0000   1.0000   1.0000   1.0000   1.0000   1.0000
     1.0000   1.0000   1.0000   1.0000   1.0000   1.0000   1.0000   1.0000
     1.0000   1.0000   1.0000   1.0000   1.0000   1.0000   1.0000   1.0000
     1.0000   1.0000   1.0000   1.0000   1.0000   1.0000   1.0000   1.0000
     1.0000   1.0000   1.0000   1.0000   1.0000   1.0000   1.0000   1.0000
     1.0000   1.0000   1.0000   1.0000   1.0000   1.0000   1.0000   1.0000
     1.0000   1.0000   1.0000   1.0000   1.0000   1.0000   1.0000   1.0000
     1.0000   1.0000   1.0000   1.0000   1.0000   1.0000   1.0000   1.0000
     1.0000   1.0000   1.0000   1.0000   1.0000   1.0000   1.0000   1.0000
     1.0000   1.0000   1.0000   1.0000   1.0000   1.0000   1.0000   1.0000
     1.0000   1.0000   1.0000   1.0000   1.0000   1.0000   1.0000   1.0000
     1.0000   1.0000   1.0000   1.0000   1.0000   1.0000   1.0000   1.0000
     1.0000   1.0000   1.0000   1.0000   1.0000   1.0000   1.0000   1.0000
     1.0000   1.0000   1.0000   1.0000   1.0000   1.0000   1.0000   1.0000
     1.0000   1.0000   1.0000   1.0000   1.0000   1.0000   1.0000   1.0000
     1.0000   1.0000   1.0000   1.0000   1.0000   1.0000   1.0000   1.0000
     1.0000   1.0000   1.0000   1.0000   1.0000   1.0000   1.0000   1.0000
     1.0000   1.0000   1.0000   1.0000   1.0000   1.0000   1.0000   1.0000
     1.0000   1.0000   1.0000   1.0000   1.0000   1.0000   1.0000   1.0000
     1.0000   1.0000   1.0000   1.0000   1.0000   1.0000   1.0000   1.0000
     1.0000   1.0000   1.0000   1.0000   1.0000   1.0000   1.0000   1.0000
     1.0000   1.0000   1.0000   1.0000   1.0000   1.0000   1.0000   1.0000
     1.0000   1.0000   1.0000   1.0000   1.0000   1.0000   1.0000   1.0000
     1.0000   1.0000   1.0000   1.0000   1.0000   1.0000   1.0000   1.0000
     1.0000   1.0000   1.0000   1.0000   1.0000   1.0000   1.0000   1.0000
     1.0000   1.0000   1.0000   1.0000   1.0000   1.0000   1.0000   1.0000
     1.0000   1.0000   1.0000   1.0000   1.0000   1.0000   1.0000   1.0000
     1.0000   1.0000   1.0000   1.0000   1.0000   1.0000   1.0000   1.0000
     1.0000   1.0000   1.0000   1.0000   1.0000   1.0000   1.0000   1.0000
     1.0000   1.0000   1.0000   1.0000   1.0000   1.0000   1.0000   1.0000
     1.0000   1.0000   1.0000

          k =-0.4000 0.2309 0.0000 (112236 PWs)   bands (ev):

   -73.8175 -73.8148 -73.8115 -73.8098 -73.8066 -73.8052 -73.8038 -73.8014
   -73.7967 -73.7950 -73.7920 -73.7899 -73.7881 -73.7553 -73.7506 -73.7411
   -38.2086 -38.2029 -38.1914 -38.1851 -38.1840 -38.1652 -38.1621 -38.1481
   -38.1313 -38.1249 -38.1068 -38.1020 -38.0641 -38.0589 -38.0481 -38.0408
   -38.0301 -38.0257 -38.0155 -38.0132 -38.0104 -38.0092 -38.0052 -38.0007
   -37.9995 -37.9984 -37.9963 -37.9936 -37.9886 -37.9869 -37.9833 -37.9804
   -37.9762 -37.9704 -37.9670 -37.9663 -37.9543 -37.9523 -37.9504 -37.9478
   -37.9456 -37.9393 -37.9308 -37.9181 -37.9101 -37.8932 -37.8915 -37.8772
   -21.4715 -15.4141 -14.4371 -14.2340 -13.8710 -13.8591 -13.2509 -13.2452
   -13.0263 -12.9990 -12.9765 -12.9121 -12.8338 -12.7345 -12.7051 -12.6863
   -12.5378 -12.5106 -12.4630 -12.4542 -12.4318 -12.4244 -12.3877 -12.3646
   -12.3542 -12.2833 -12.2234 -12.2014 -12.1770 -12.1626 -12.1560 -12.1534
   -12.0574 -12.0413  -7.9176  -7.5195  -6.1710  -6.1337  -6.1149  -6.0906
    -6.0243  -5.8781  -5.8577  -5.8410  -5.7131  -5.5358  -5.5127  -5.4915
    -5.4558  -5.4482  -5.4390  -5.3905  -5.3811  -5.3188  -5.3114  -5.0839
    -5.0596  -5.0253  -5.0071  -4.8063  -4.6110  -4.5586  -4.4838  -4.4438
    -4.4155  -4.3751  -4.3539  -4.3130  -4.2481  -4.2242  -4.1972  -4.1634
    -4.1239  -4.1157  -4.1033  -4.0765  -4.0703  -4.0557  -4.0444  -3.6951
    -3.5740  -3.5266  -3.4805  -3.4614  -3.4278  -3.4008  -3.3606  -3.3207
    -3.3048  -3.2827  -3.2622  -3.2441  -3.2171  -3.2013  -3.1526  -3.1178
    -3.0751  -3.0502  -3.0165  -2.9750  -2.9405  -2.9086  -2.8430  -2.7836
    -2.7462  -2.7171  -2.6696  -2.6361  -2.6180  -2.5901  -2.5601  -2.5017
    -2.4355  -2.4291  -2.4028  -2.3393  -2.2877  -2.2565  -2.2474  -2.1795
    -2.1296  -2.1204  -2.0627  -2.0342  -2.0204  -1.9967  -1.9671  -1.9391
    -1.9202  -1.9031  -1.8925  -1.8723  -1.8674  -1.8544  -1.8409  -1.8266
    -1.7912  -1.7605  -1.7150  -1.7001  -1.6986  -1.6740  -1.6552  -1.6173
    -1.5950  -1.5662  -1.5075  -1.4812  -1.4545  -1.3622  -1.3353  -1.3043
    -1.2684  -1.2239  -1.1760  -1.1312  -1.1241  -1.1062  -1.0801  -0.9921
    -0.9736  -0.8818  -0.7380  -0.7224  -0.6433  -0.6261  -0.5127  -0.4581
    -0.4523  -0.4271  -0.4062  -0.3794  -0.3064  -0.1035  -0.0013   0.0290
     0.1207   1.3270   1.5530

     occupation numbers 
     1.0000   1.0000   1.0000   1.0000   1.0000   1.0000   1.0000   1.0000
     1.0000   1.0000   1.0000   1.0000   1.0000   1.0000   1.0000   1.0000
     1.0000   1.0000   1.0000   1.0000   1.0000   1.0000   1.0000   1.0000
     1.0000   1.0000   1.0000   1.0000   1.0000   1.0000   1.0000   1.0000
     1.0000   1.0000   1.0000   1.0000   1.0000   1.0000   1.0000   1.0000
     1.0000   1.0000   1.0000   1.0000   1.0000   1.0000   1.0000   1.0000
     1.0000   1.0000   1.0000   1.0000   1.0000   1.0000   1.0000   1.0000
     1.0000   1.0000   1.0000   1.0000   1.0000   1.0000   1.0000   1.0000
     1.0000   1.0000   1.0000   1.0000   1.0000   1.0000   1.0000   1.0000
     1.0000   1.0000   1.0000   1.0000   1.0000   1.0000   1.0000   1.0000
     1.0000   1.0000   1.0000   1.0000   1.0000   1.0000   1.0000   1.0000
     1.0000   1.0000   1.0000   1.0000   1.0000   1.0000   1.0000   1.0000
     1.0000   1.0000   1.0000   1.0000   1.0000   1.0000   1.0000   1.0000
     1.0000   1.0000   1.0000   1.0000   1.0000   1.0000   1.0000   1.0000
     1.0000   1.0000   1.0000   1.0000   1.0000   1.0000   1.0000   1.0000
     1.0000   1.0000   1.0000   1.0000   1.0000   1.0000   1.0000   1.0000
     1.0000   1.0000   1.0000   1.0000   1.0000   1.0000   1.0000   1.0000
     1.0000   1.0000   1.0000   1.0000   1.0000   1.0000   1.0000   1.0000
     1.0000   1.0000   1.0000   1.0000   1.0000   1.0000   1.0000   1.0000
     1.0000   1.0000   1.0000   1.0000   1.0000   1.0000   1.0000   1.0000
     1.0000   1.0000   1.0000   1.0000   1.0000   1.0000   1.0000   1.0000
     1.0000   1.0000   1.0000   1.0000   1.0000   1.0000   1.0000   1.0000
     1.0000   1.0000   1.0000   1.0000   1.0000   1.0000   1.0000   1.0000
     1.0000   1.0000   1.0000   1.0000   1.0000   1.0000   1.0000   1.0000
     1.0000   1.0000   1.0000   1.0000   1.0000   1.0000   1.0000   1.0000
     1.0000   1.0000   1.0000   1.0000   1.0000   1.0000   1.0000   1.0000
     1.0000   1.0000   1.0000   1.0000   1.0000   1.0000   1.0000   1.0000
     1.0000   1.0000   1.0000   1.0000   1.0000   1.0000   1.0000   1.0000
     1.0000   1.0000   1.0000   1.0000   1.0000   1.0000   1.0000   1.0000
     1.0000   1.0000   1.0000   1.0000   1.0000   1.0000   1.0000   1.0000
     1.0000   1.0000   1.0000

          k = 0.4000 0.2309 0.0000 (112236 PWs)   bands (ev):

   -73.8173 -73.8153 -73.8115 -73.8091 -73.8068 -73.8055 -73.8038 -73.8015
   -73.7964 -73.7952 -73.7917 -73.7902 -73.7881 -73.7553 -73.7506 -73.7411
   -38.2070 -38.2049 -38.1911 -38.1878 -38.1814 -38.1642 -38.1625 -38.1479
   -38.1309 -38.1255 -38.1075 -38.1023 -38.0636 -38.0600 -38.0479 -38.0411
   -38.0293 -38.0257 -38.0147 -38.0123 -38.0116 -38.0104 -38.0052 -38.0010
   -37.9988 -37.9975 -37.9957 -37.9925 -37.9905 -37.9870 -37.9830 -37.9803
   -37.9776 -37.9702 -37.9677 -37.9652 -37.9538 -37.9513 -37.9508 -37.9476
   -37.9457 -37.9383 -37.9309 -37.9189 -37.9105 -37.8950 -37.8926 -37.8748
   -21.4715 -15.4141 -14.4370 -14.2343 -13.8703 -13.8597 -13.2507 -13.2463
   -13.0230 -12.9989 -12.9785 -12.9114 -12.8346 -12.7322 -12.7070 -12.6871
   -12.5447 -12.5034 -12.4672 -12.4518 -12.4307 -12.4246 -12.3881 -12.3632
   -12.3517 -12.2832 -12.2301 -12.1993 -12.1790 -12.1616 -12.1564 -12.1508
   -12.0544 -12.0438  -7.9176  -7.5195  -6.1707  -6.1257  -6.1154  -6.0905
    -6.0381  -5.8708  -5.8574  -5.8377  -5.7180  -5.5370  -5.5112  -5.4944
    -5.4504  -5.4497  -5.4416  -5.3900  -5.3845  -5.3166  -5.3105  -5.0752
    -5.0712  -5.0235  -5.0118  -4.7785  -4.6244  -4.5626  -4.4922  -4.4541
    -4.4216  -4.3741  -4.3520  -4.3070  -4.2424  -4.2285  -4.1931  -4.1608
    -4.1274  -4.1171  -4.1045  -4.0784  -4.0653  -4.0533  -4.0450  -3.6825
    -3.5663  -3.5278  -3.4711  -3.4537  -3.4336  -3.4046  -3.3632  -3.3303
    -3.2938  -3.2873  -3.2574  -3.2426  -3.2215  -3.2074  -3.1419  -3.1208
    -3.0931  -3.0592  -3.0230  -2.9731  -2.9428  -2.9083  -2.8542  -2.7841
    -2.7498  -2.6939  -2.6598  -2.6364  -2.6232  -2.6079  -2.5246  -2.5087
    -2.4647  -2.4343  -2.3790  -2.3379  -2.2802  -2.2621  -2.2481  -2.1634
    -2.1286  -2.1214  -2.0478  -2.0187  -2.0131  -1.9892  -1.9825  -1.9669
    -1.9428  -1.9077  -1.8970  -1.8717  -1.8595  -1.8499  -1.8410  -1.8257
    -1.8084  -1.7458  -1.7342  -1.7103  -1.7005  -1.6513  -1.6385  -1.6307
    -1.6013  -1.5592  -1.5155  -1.5024  -1.4282  -1.3660  -1.3167  -1.2971
    -1.2638  -1.2410  -1.1953  -1.1372  -1.1212  -1.0675  -1.0595  -1.0072
    -0.9797  -0.8928  -0.7331  -0.7287  -0.6419  -0.6325  -0.5225  -0.4618
    -0.4510  -0.4253  -0.4072  -0.3696  -0.3000  -0.1051   0.0000   0.0250
     0.1238   1.3099   1.5739

     occupation numbers 
     1.0000   1.0000   1.0000   1.0000   1.0000   1.0000   1.0000   1.0000
     1.0000   1.0000   1.0000   1.0000   1.0000   1.0000   1.0000   1.0000
     1.0000   1.0000   1.0000   1.0000   1.0000   1.0000   1.0000   1.0000
     1.0000   1.0000   1.0000   1.0000   1.0000   1.0000   1.0000   1.0000
     1.0000   1.0000   1.0000   1.0000   1.0000   1.0000   1.0000   1.0000
     1.0000   1.0000   1.0000   1.0000   1.0000   1.0000   1.0000   1.0000
     1.0000   1.0000   1.0000   1.0000   1.0000   1.0000   1.0000   1.0000
     1.0000   1.0000   1.0000   1.0000   1.0000   1.0000   1.0000   1.0000
     1.0000   1.0000   1.0000   1.0000   1.0000   1.0000   1.0000   1.0000
     1.0000   1.0000   1.0000   1.0000   1.0000   1.0000   1.0000   1.0000
     1.0000   1.0000   1.0000   1.0000   1.0000   1.0000   1.0000   1.0000
     1.0000   1.0000   1.0000   1.0000   1.0000   1.0000   1.0000   1.0000
     1.0000   1.0000   1.0000   1.0000   1.0000   1.0000   1.0000   1.0000
     1.0000   1.0000   1.0000   1.0000   1.0000   1.0000   1.0000   1.0000
     1.0000   1.0000   1.0000   1.0000   1.0000   1.0000   1.0000   1.0000
     1.0000   1.0000   1.0000   1.0000   1.0000   1.0000   1.0000   1.0000
     1.0000   1.0000   1.0000   1.0000   1.0000   1.0000   1.0000   1.0000
     1.0000   1.0000   1.0000   1.0000   1.0000   1.0000   1.0000   1.0000
     1.0000   1.0000   1.0000   1.0000   1.0000   1.0000   1.0000   1.0000
     1.0000   1.0000   1.0000   1.0000   1.0000   1.0000   1.0000   1.0000
     1.0000   1.0000   1.0000   1.0000   1.0000   1.0000   1.0000   1.0000
     1.0000   1.0000   1.0000   1.0000   1.0000   1.0000   1.0000   1.0000
     1.0000   1.0000   1.0000   1.0000   1.0000   1.0000   1.0000   1.0000
     1.0000   1.0000   1.0000   1.0000   1.0000   1.0000   1.0000   1.0000
     1.0000   1.0000   1.0000   1.0000   1.0000   1.0000   1.0000   1.0000
     1.0000   1.0000   1.0000   1.0000   1.0000   1.0000   1.0000   1.0000
     1.0000   1.0000   1.0000   1.0000   1.0000   1.0000   1.0000   1.0000
     1.0000   1.0000   1.0000   1.0000   1.0000   1.0000   1.0000   1.0000
     1.0000   1.0000   1.0000   1.0000   1.0000   1.0000   1.0000   1.0000
     1.0000   1.0000   1.0000   1.0000   1.0000   1.0000   1.0000   1.0000
     1.0000   1.0000   1.0000

          k =-0.2000 0.3464 0.0000 (112231 PWs)   bands (ev):

   -73.8176 -73.8148 -73.8115 -73.8095 -73.8066 -73.8057 -73.8036 -73.8014
   -73.7969 -73.7948 -73.7919 -73.7900 -73.7881 -73.7553 -73.7506 -73.7411
   -38.2131 -38.2031 -38.2016 -38.1801 -38.1766 -38.1652 -38.1565 -38.1503
   -38.1337 -38.1264 -38.1139 -38.0779 -38.0618 -38.0565 -38.0488 -38.0381
   -38.0331 -38.0294 -38.0261 -38.0213 -38.0170 -38.0091 -38.0045 -38.0006
   -37.9972 -37.9942 -37.9922 -37.9894 -37.9873 -37.9849 -37.9831 -37.9820
   -37.9775 -37.9745 -37.9705 -37.9661 -37.9593 -37.9563 -37.9528 -37.9481
   -37.9425 -37.9334 -37.9276 -37.9225 -37.9043 -37.8995 -37.8876 -37.8742
   -21.4715 -15.4141 -14.4766 -14.1041 -14.0610 -13.5752 -13.5582 -13.1769
   -13.1204 -13.0108 -12.9365 -12.8097 -12.7926 -12.7077 -12.6738 -12.6212
   -12.5864 -12.5780 -12.5701 -12.4563 -12.4274 -12.3950 -12.3806 -12.3115
   -12.2930 -12.2752 -12.2527 -12.2278 -12.2240 -12.1578 -12.1511 -12.1096
   -12.0967 -12.0366  -7.9176  -7.5195  -6.1934  -6.1747  -6.1418  -6.1229
    -6.1046  -5.7704  -5.7395  -5.7184  -5.7011  -5.6278  -5.6038  -5.5654
    -5.5092  -5.4775  -5.3579  -5.3327  -5.3017  -5.2669  -5.2436  -5.2228
    -5.0992  -4.9156  -4.8962  -4.7983  -4.7574  -4.6107  -4.5192  -4.4497
    -4.3972  -4.3462  -4.3369  -4.3111  -4.2821  -4.2624  -4.2473  -4.2292
    -4.1659  -4.1318  -4.1128  -4.0948  -4.0556  -3.7769  -3.7419  -3.7305
    -3.7105  -3.6938  -3.6185  -3.5099  -3.4253  -3.3849  -3.3760  -3.3113
    -3.2969  -3.2451  -3.2351  -3.2058  -3.1686  -3.1492  -3.1293  -3.0857
    -3.0651  -3.0145  -2.9763  -2.9476  -2.9356  -2.9289  -2.9255  -2.9037
    -2.8001  -2.7470  -2.7247  -2.6795  -2.6327  -2.5676  -2.5340  -2.4799
    -2.4660  -2.4126  -2.3923  -2.3678  -2.3250  -2.2236  -2.2000  -2.1601
    -2.1398  -2.1255  -2.1103  -2.0853  -2.0401  -1.9925  -1.9855  -1.9460
    -1.9225  -1.9036  -1.8716  -1.8570  -1.8281  -1.8198  -1.7993  -1.7769
    -1.7457  -1.7127  -1.7032  -1.6815  -1.6579  -1.6408  -1.5917  -1.5855
    -1.5633  -1.5509  -1.5331  -1.5132  -1.4456  -1.3993  -1.3874  -1.3487
    -1.2921  -1.2505  -1.1992  -1.1755  -1.1606  -1.1249  -1.0493  -1.0067
    -0.8785  -0.8396  -0.6895  -0.6732  -0.6399  -0.6300  -0.6122  -0.5450
    -0.5382  -0.4306  -0.3876  -0.2596  -0.2083  -0.2009  -0.1631   0.0707
     0.1373   1.2897   1.5796

     occupation numbers 
     1.0000   1.0000   1.0000   1.0000   1.0000   1.0000   1.0000   1.0000
     1.0000   1.0000   1.0000   1.0000   1.0000   1.0000   1.0000   1.0000
     1.0000   1.0000   1.0000   1.0000   1.0000   1.0000   1.0000   1.0000
     1.0000   1.0000   1.0000   1.0000   1.0000   1.0000   1.0000   1.0000
     1.0000   1.0000   1.0000   1.0000   1.0000   1.0000   1.0000   1.0000
     1.0000   1.0000   1.0000   1.0000   1.0000   1.0000   1.0000   1.0000
     1.0000   1.0000   1.0000   1.0000   1.0000   1.0000   1.0000   1.0000
     1.0000   1.0000   1.0000   1.0000   1.0000   1.0000   1.0000   1.0000
     1.0000   1.0000   1.0000   1.0000   1.0000   1.0000   1.0000   1.0000
     1.0000   1.0000   1.0000   1.0000   1.0000   1.0000   1.0000   1.0000
     1.0000   1.0000   1.0000   1.0000   1.0000   1.0000   1.0000   1.0000
     1.0000   1.0000   1.0000   1.0000   1.0000   1.0000   1.0000   1.0000
     1.0000   1.0000   1.0000   1.0000   1.0000   1.0000   1.0000   1.0000
     1.0000   1.0000   1.0000   1.0000   1.0000   1.0000   1.0000   1.0000
     1.0000   1.0000   1.0000   1.0000   1.0000   1.0000   1.0000   1.0000
     1.0000   1.0000   1.0000   1.0000   1.0000   1.0000   1.0000   1.0000
     1.0000   1.0000   1.0000   1.0000   1.0000   1.0000   1.0000   1.0000
     1.0000   1.0000   1.0000   1.0000   1.0000   1.0000   1.0000   1.0000
     1.0000   1.0000   1.0000   1.0000   1.0000   1.0000   1.0000   1.0000
     1.0000   1.0000   1.0000   1.0000   1.0000   1.0000   1.0000   1.0000
     1.0000   1.0000   1.0000   1.0000   1.0000   1.0000   1.0000   1.0000
     1.0000   1.0000   1.0000   1.0000   1.0000   1.0000   1.0000   1.0000
     1.0000   1.0000   1.0000   1.0000   1.0000   1.0000   1.0000   1.0000
     1.0000   1.0000   1.0000   1.0000   1.0000   1.0000   1.0000   1.0000
     1.0000   1.0000   1.0000   1.0000   1.0000   1.0000   1.0000   1.0000
     1.0000   1.0000   1.0000   1.0000   1.0000   1.0000   1.0000   1.0000
     1.0000   1.0000   1.0000   1.0000   1.0000   1.0000   1.0000   1.0000
     1.0000   1.0000   1.0000   1.0000   1.0000   1.0000   1.0000   1.0000
     1.0000   1.0000   1.0000   1.0000   1.0000   1.0000   1.0000   1.0000
     1.0000   1.0000   1.0000   1.0000   1.0000   1.0000   1.0000   1.0000
     1.0000   1.0000   1.0000

          k = 0.4000-0.0000 0.0000 (112231 PWs)   bands (ev):

   -73.8175 -73.8150 -73.8115 -73.8094 -73.8067 -73.8054 -73.8038 -73.8015
   -73.7965 -73.7951 -73.7919 -73.7900 -73.7881 -73.7553 -73.7506 -73.7411
   -38.2132 -38.2037 -38.2005 -38.1799 -38.1768 -38.1665 -38.1570 -38.1504
   -38.1330 -38.1250 -38.1135 -38.0777 -38.0627 -38.0571 -38.0486 -38.0388
   -38.0316 -38.0297 -38.0262 -38.0228 -38.0149 -38.0101 -38.0048 -37.9995
   -37.9970 -37.9944 -37.9921 -37.9899 -37.9887 -37.9861 -37.9830 -37.9810
   -37.9761 -37.9755 -37.9702 -37.9664 -37.9592 -37.9558 -37.9525 -37.9479
   -37.9431 -37.9327 -37.9288 -37.9230 -37.9025 -37.8991 -37.8865 -37.8761
   -21.4715 -15.4141 -14.4767 -14.1006 -14.0645 -13.5696 -13.5645 -13.1719
   -13.1237 -13.0147 -12.9303 -12.8057 -12.7967 -12.7124 -12.6829 -12.6034
   -12.6005 -12.5751 -12.5621 -12.4579 -12.4246 -12.4138 -12.3658 -12.3087
   -12.2941 -12.2721 -12.2553 -12.2357 -12.2211 -12.1586 -12.1485 -12.1074
   -12.0981 -12.0370  -7.9176  -7.5195  -6.1831  -6.1813  -6.1449  -6.1205
    -6.1097  -5.7600  -5.7443  -5.7224  -5.6893  -5.6382  -5.6102  -5.5630
    -5.5072  -5.4748  -5.3534  -5.3365  -5.2943  -5.2733  -5.2460  -5.2309
    -5.0988  -4.9034  -4.8881  -4.8118  -4.7577  -4.5739  -4.5407  -4.4676
    -4.4114  -4.3484  -4.3396  -4.3149  -4.2771  -4.2660  -4.2452  -4.2124
    -4.1768  -4.1191  -4.1117  -4.0915  -4.0557  -3.7659  -3.7365  -3.7293
    -3.7098  -3.7004  -3.6301  -3.4882  -3.4327  -3.4045  -3.3742  -3.3287
    -3.2903  -3.2482  -3.2383  -3.2045  -3.1791  -3.1467  -3.1290  -3.0843
    -3.0453  -3.0077  -2.9712  -2.9539  -2.9429  -2.9255  -2.9098  -2.9019
    -2.7915  -2.7609  -2.7247  -2.6641  -2.6352  -2.5871  -2.5506  -2.4738
    -2.4697  -2.4229  -2.3901  -2.3488  -2.3230  -2.2290  -2.1826  -2.1646
    -2.1339  -2.1263  -2.1097  -2.1034  -2.0156  -1.9967  -1.9785  -1.9527
    -1.9290  -1.9030  -1.8849  -1.8670  -1.8551  -1.8234  -1.7922  -1.7700
    -1.7340  -1.7119  -1.6963  -1.6768  -1.6629  -1.6315  -1.5972  -1.5746
    -1.5591  -1.5491  -1.5349  -1.5089  -1.4519  -1.4148  -1.3718  -1.3422
    -1.2901  -1.2693  -1.2038  -1.1812  -1.1541  -1.1129  -1.0520  -1.0051
    -0.8696  -0.8516  -0.6838  -0.6765  -0.6410  -0.6248  -0.6167  -0.5432
    -0.5373  -0.4451  -0.3850  -0.2543  -0.2091  -0.1959  -0.1646   0.0680
     0.1373   1.3193   1.5487

     occupation numbers 
     1.0000   1.0000   1.0000   1.0000   1.0000   1.0000   1.0000   1.0000
     1.0000   1.0000   1.0000   1.0000   1.0000   1.0000   1.0000   1.0000
     1.0000   1.0000   1.0000   1.0000   1.0000   1.0000   1.0000   1.0000
     1.0000   1.0000   1.0000   1.0000   1.0000   1.0000   1.0000   1.0000
     1.0000   1.0000   1.0000   1.0000   1.0000   1.0000   1.0000   1.0000
     1.0000   1.0000   1.0000   1.0000   1.0000   1.0000   1.0000   1.0000
     1.0000   1.0000   1.0000   1.0000   1.0000   1.0000   1.0000   1.0000
     1.0000   1.0000   1.0000   1.0000   1.0000   1.0000   1.0000   1.0000
     1.0000   1.0000   1.0000   1.0000   1.0000   1.0000   1.0000   1.0000
     1.0000   1.0000   1.0000   1.0000   1.0000   1.0000   1.0000   1.0000
     1.0000   1.0000   1.0000   1.0000   1.0000   1.0000   1.0000   1.0000
     1.0000   1.0000   1.0000   1.0000   1.0000   1.0000   1.0000   1.0000
     1.0000   1.0000   1.0000   1.0000   1.0000   1.0000   1.0000   1.0000
     1.0000   1.0000   1.0000   1.0000   1.0000   1.0000   1.0000   1.0000
     1.0000   1.0000   1.0000   1.0000   1.0000   1.0000   1.0000   1.0000
     1.0000   1.0000   1.0000   1.0000   1.0000   1.0000   1.0000   1.0000
     1.0000   1.0000   1.0000   1.0000   1.0000   1.0000   1.0000   1.0000
     1.0000   1.0000   1.0000   1.0000   1.0000   1.0000   1.0000   1.0000
     1.0000   1.0000   1.0000   1.0000   1.0000   1.0000   1.0000   1.0000
     1.0000   1.0000   1.0000   1.0000   1.0000   1.0000   1.0000   1.0000
     1.0000   1.0000   1.0000   1.0000   1.0000   1.0000   1.0000   1.0000
     1.0000   1.0000   1.0000   1.0000   1.0000   1.0000   1.0000   1.0000
     1.0000   1.0000   1.0000   1.0000   1.0000   1.0000   1.0000   1.0000
     1.0000   1.0000   1.0000   1.0000   1.0000   1.0000   1.0000   1.0000
     1.0000   1.0000   1.0000   1.0000   1.0000   1.0000   1.0000   1.0000
     1.0000   1.0000   1.0000   1.0000   1.0000   1.0000   1.0000   1.0000
     1.0000   1.0000   1.0000   1.0000   1.0000   1.0000   1.0000   1.0000
     1.0000   1.0000   1.0000   1.0000   1.0000   1.0000   1.0000   1.0000
     1.0000   1.0000   1.0000   1.0000   1.0000   1.0000   1.0000   1.0000
     1.0000   1.0000   1.0000   1.0000   1.0000   1.0000   1.0000   1.0000
     1.0000   1.0000   1.0000

          k =-0.4000 0.4619 0.0000 (112237 PWs)   bands (ev):

   -73.8174 -73.8150 -73.8116 -73.8097 -73.8066 -73.8052 -73.8038 -73.8014
   -73.7967 -73.7950 -73.7919 -73.7900 -73.7881 -73.7553 -73.7506 -73.7411
   -38.2028 -38.1960 -38.1865 -38.1832 -38.1806 -38.1743 -38.1668 -38.1500
   -38.1472 -38.1336 -38.0953 -38.0911 -38.0859 -38.0530 -38.0457 -38.0421
   -38.0340 -38.0322 -38.0219 -38.0138 -38.0091 -38.0061 -38.0045 -38.0011
   -38.0000 -37.9972 -37.9945 -37.9890 -37.9868 -37.9831 -37.9757 -37.9725
   -37.9705 -37.9688 -37.9621 -37.9586 -37.9555 -37.9538 -37.9508 -37.9487
   -37.9465 -37.9391 -37.9348 -37.9279 -37.9158 -37.8969 -37.8863 -37.8805
   -21.4715 -15.4141 -14.3403 -14.2903 -14.1168 -13.5977 -13.2995 -13.2959
   -12.9627 -12.9506 -12.8878 -12.8578 -12.8287 -12.8022 -12.7974 -12.6668
   -12.6354 -12.5972 -12.4952 -12.4847 -12.3890 -12.3766 -12.3492 -12.3271
   -12.3105 -12.2983 -12.2621 -12.2358 -12.2305 -12.1350 -12.1210 -12.1159
   -12.0809 -12.0174  -7.9176  -7.5195  -6.1659  -6.0606  -6.0262  -5.9707
    -5.9163  -5.8916  -5.8786  -5.8608  -5.8092  -5.7459  -5.6905  -5.6271
    -5.6115  -5.5424  -5.3590  -5.2878  -5.2489  -5.2180  -5.2030  -5.1699
    -5.1589  -4.8558  -4.8340  -4.7472  -4.6216  -4.5914  -4.5458  -4.5265
    -4.4927  -4.4280  -4.3858  -4.3272  -4.3096  -4.2433  -4.2284  -4.2103
    -4.1948  -4.1652  -4.1214  -4.0956  -3.9584  -3.9483  -3.7942  -3.6731
    -3.6299  -3.5910  -3.4356  -3.3991  -3.3649  -3.3274  -3.3102  -3.2829
    -3.2800  -3.2686  -3.2435  -3.2331  -3.2214  -3.2153  -3.1508  -3.1224
    -3.0984  -3.0865  -3.0603  -3.0480  -2.9988  -2.9545  -2.8524  -2.8171
    -2.7461  -2.7320  -2.7140  -2.6838  -2.6327  -2.5998  -2.5130  -2.4220
    -2.4019  -2.3323  -2.3243  -2.3192  -2.2693  -2.2001  -2.1759  -2.1615
    -2.1477  -2.0913  -2.0816  -2.0533  -2.0300  -1.9804  -1.9701  -1.9502
    -1.9337  -1.9196  -1.8960  -1.8850  -1.8700  -1.8563  -1.8461  -1.8435
    -1.8198  -1.7954  -1.7561  -1.7261  -1.7078  -1.6931  -1.6740  -1.6552
    -1.6281  -1.5868  -1.5380  -1.5068  -1.4857  -1.4630  -1.4224  -1.3192
    -1.2857  -1.2381  -1.1719  -1.1178  -1.0954  -1.0787  -1.0459  -0.9745
    -0.8155  -0.7894  -0.7038  -0.6930  -0.6593  -0.6477  -0.6013  -0.5852
    -0.5687  -0.4159  -0.2822  -0.2760  -0.1806  -0.1207  -0.0787   0.0892
     0.1857   1.3278   1.5658

     occupation numbers 
     1.0000   1.0000   1.0000   1.0000   1.0000   1.0000   1.0000   1.0000
     1.0000   1.0000   1.0000   1.0000   1.0000   1.0000   1.0000   1.0000
     1.0000   1.0000   1.0000   1.0000   1.0000   1.0000   1.0000   1.0000
     1.0000   1.0000   1.0000   1.0000   1.0000   1.0000   1.0000   1.0000
     1.0000   1.0000   1.0000   1.0000   1.0000   1.0000   1.0000   1.0000
     1.0000   1.0000   1.0000   1.0000   1.0000   1.0000   1.0000   1.0000
     1.0000   1.0000   1.0000   1.0000   1.0000   1.0000   1.0000   1.0000
     1.0000   1.0000   1.0000   1.0000   1.0000   1.0000   1.0000   1.0000
     1.0000   1.0000   1.0000   1.0000   1.0000   1.0000   1.0000   1.0000
     1.0000   1.0000   1.0000   1.0000   1.0000   1.0000   1.0000   1.0000
     1.0000   1.0000   1.0000   1.0000   1.0000   1.0000   1.0000   1.0000
     1.0000   1.0000   1.0000   1.0000   1.0000   1.0000   1.0000   1.0000
     1.0000   1.0000   1.0000   1.0000   1.0000   1.0000   1.0000   1.0000
     1.0000   1.0000   1.0000   1.0000   1.0000   1.0000   1.0000   1.0000
     1.0000   1.0000   1.0000   1.0000   1.0000   1.0000   1.0000   1.0000
     1.0000   1.0000   1.0000   1.0000   1.0000   1.0000   1.0000   1.0000
     1.0000   1.0000   1.0000   1.0000   1.0000   1.0000   1.0000   1.0000
     1.0000   1.0000   1.0000   1.0000   1.0000   1.0000   1.0000   1.0000
     1.0000   1.0000   1.0000   1.0000   1.0000   1.0000   1.0000   1.0000
     1.0000   1.0000   1.0000   1.0000   1.0000   1.0000   1.0000   1.0000
     1.0000   1.0000   1.0000   1.0000   1.0000   1.0000   1.0000   1.0000
     1.0000   1.0000   1.0000   1.0000   1.0000   1.0000   1.0000   1.0000
     1.0000   1.0000   1.0000   1.0000   1.0000   1.0000   1.0000   1.0000
     1.0000   1.0000   1.0000   1.0000   1.0000   1.0000   1.0000   1.0000
     1.0000   1.0000   1.0000   1.0000   1.0000   1.0000   1.0000   1.0000
     1.0000   1.0000   1.0000   1.0000   1.0000   1.0000   1.0000   1.0000
     1.0000   1.0000   1.0000   1.0000   1.0000   1.0000   1.0000   1.0000
     1.0000   1.0000   1.0000   1.0000   1.0000   1.0000   1.0000   1.0000
     1.0000   1.0000   1.0000   1.0000   1.0000   1.0000   1.0000   1.0000
     1.0000   1.0000   1.0000   1.0000   1.0000   1.0000   1.0000   1.0000
     1.0000   1.0000   1.0000

          k = 0.6000 0.1155 0.0000 (112237 PWs)   bands (ev):

   -73.8172 -73.8154 -73.8115 -73.8093 -73.8066 -73.8054 -73.8038 -73.8015
   -73.7965 -73.7951 -73.7917 -73.7902 -73.7881 -73.7553 -73.7506 -73.7411
   -38.2015 -38.1976 -38.1873 -38.1847 -38.1777 -38.1742 -38.1663 -38.1497
   -38.1480 -38.1334 -38.0946 -38.0930 -38.0855 -38.0525 -38.0458 -38.0418
   -38.0341 -38.0324 -38.0215 -38.0130 -38.0099 -38.0069 -38.0039 -38.0014
   -38.0004 -37.9958 -37.9942 -37.9899 -37.9870 -37.9830 -37.9755 -37.9727
   -37.9704 -37.9696 -37.9619 -37.9586 -37.9560 -37.9541 -37.9512 -37.9485
   -37.9426 -37.9397 -37.9330 -37.9302 -37.9169 -37.8978 -37.8878 -37.8782
   -21.4715 -15.4141 -14.3397 -14.2912 -14.1166 -13.5976 -13.3068 -13.2886
   -12.9687 -12.9446 -12.8828 -12.8613 -12.8291 -12.8026 -12.7979 -12.6693
   -12.6342 -12.5954 -12.5051 -12.4746 -12.3957 -12.3733 -12.3453 -12.3224
   -12.3113 -12.3004 -12.2653 -12.2363 -12.2313 -12.1328 -12.1218 -12.1163
   -12.0802 -12.0177  -7.9176  -7.5195  -6.1659  -6.0575  -6.0212  -5.9698
    -5.9299  -5.9079  -5.8780  -5.8364  -5.8085  -5.7509  -5.6924  -5.6248
    -5.6137  -5.5390  -5.3579  -5.2841  -5.2575  -5.2268  -5.1982  -5.1738
    -5.1497  -4.8578  -4.8408  -4.6971  -4.6486  -4.6112  -4.5529  -4.5158
    -4.4957  -4.4369  -4.3862  -4.3228  -4.3035  -4.2434  -4.2327  -4.2009
    -4.1932  -4.1689  -4.1211  -4.0972  -3.9591  -3.9486  -3.7906  -3.6706
    -3.6315  -3.5819  -3.4374  -3.3776  -3.3689  -3.3362  -3.3045  -3.2885
    -3.2859  -3.2628  -3.2469  -3.2360  -3.2222  -3.2044  -3.1814  -3.1447
    -3.0887  -3.0803  -3.0546  -3.0229  -3.0080  -2.9670  -2.8504  -2.8146
    -2.7543  -2.7335  -2.7272  -2.6596  -2.6424  -2.5622  -2.5226  -2.4695
    -2.3967  -2.3373  -2.3173  -2.2985  -2.2483  -2.2162  -2.1757  -2.1523
    -2.1306  -2.1063  -2.0785  -2.0498  -2.0213  -1.9858  -1.9700  -1.9605
    -1.9399  -1.9144  -1.9045  -1.8834  -1.8739  -1.8637  -1.8549  -1.8457
    -1.8127  -1.7984  -1.7466  -1.7342  -1.7052  -1.6966  -1.6667  -1.6458
    -1.6285  -1.6068  -1.5404  -1.5231  -1.4779  -1.4358  -1.4079  -1.3311
    -1.2944  -1.2322  -1.1623  -1.1409  -1.0974  -1.0595  -1.0239  -0.9941
    -0.8119  -0.7959  -0.6993  -0.6976  -0.6604  -0.6538  -0.6020  -0.5967
    -0.5543  -0.4173  -0.2842  -0.2691  -0.1780  -0.1257  -0.0780   0.0900
     0.1860   1.3175   1.5783

     occupation numbers 
     1.0000   1.0000   1.0000   1.0000   1.0000   1.0000   1.0000   1.0000
     1.0000   1.0000   1.0000   1.0000   1.0000   1.0000   1.0000   1.0000
     1.0000   1.0000   1.0000   1.0000   1.0000   1.0000   1.0000   1.0000
     1.0000   1.0000   1.0000   1.0000   1.0000   1.0000   1.0000   1.0000
     1.0000   1.0000   1.0000   1.0000   1.0000   1.0000   1.0000   1.0000
     1.0000   1.0000   1.0000   1.0000   1.0000   1.0000   1.0000   1.0000
     1.0000   1.0000   1.0000   1.0000   1.0000   1.0000   1.0000   1.0000
     1.0000   1.0000   1.0000   1.0000   1.0000   1.0000   1.0000   1.0000
     1.0000   1.0000   1.0000   1.0000   1.0000   1.0000   1.0000   1.0000
     1.0000   1.0000   1.0000   1.0000   1.0000   1.0000   1.0000   1.0000
     1.0000   1.0000   1.0000   1.0000   1.0000   1.0000   1.0000   1.0000
     1.0000   1.0000   1.0000   1.0000   1.0000   1.0000   1.0000   1.0000
     1.0000   1.0000   1.0000   1.0000   1.0000   1.0000   1.0000   1.0000
     1.0000   1.0000   1.0000   1.0000   1.0000   1.0000   1.0000   1.0000
     1.0000   1.0000   1.0000   1.0000   1.0000   1.0000   1.0000   1.0000
     1.0000   1.0000   1.0000   1.0000   1.0000   1.0000   1.0000   1.0000
     1.0000   1.0000   1.0000   1.0000   1.0000   1.0000   1.0000   1.0000
     1.0000   1.0000   1.0000   1.0000   1.0000   1.0000   1.0000   1.0000
     1.0000   1.0000   1.0000   1.0000   1.0000   1.0000   1.0000   1.0000
     1.0000   1.0000   1.0000   1.0000   1.0000   1.0000   1.0000   1.0000
     1.0000   1.0000   1.0000   1.0000   1.0000   1.0000   1.0000   1.0000
     1.0000   1.0000   1.0000   1.0000   1.0000   1.0000   1.0000   1.0000
     1.0000   1.0000   1.0000   1.0000   1.0000   1.0000   1.0000   1.0000
     1.0000   1.0000   1.0000   1.0000   1.0000   1.0000   1.0000   1.0000
     1.0000   1.0000   1.0000   1.0000   1.0000   1.0000   1.0000   1.0000
     1.0000   1.0000   1.0000   1.0000   1.0000   1.0000   1.0000   1.0000
     1.0000   1.0000   1.0000   1.0000   1.0000   1.0000   1.0000   1.0000
     1.0000   1.0000   1.0000   1.0000   1.0000   1.0000   1.0000   1.0000
     1.0000   1.0000   1.0000   1.0000   1.0000   1.0000   1.0000   1.0000
     1.0000   1.0000   1.0000   1.0000   1.0000   1.0000   1.0000   1.0000
     1.0000   1.0000   1.0000

 ------ SPIN DOWN ----------


          k = 0.0000 0.0000 0.0000 (112117 PWs)   bands (ev):

   -73.8146 -73.8101 -73.8071 -73.8053 -73.8030 -73.8023 -73.7990 -73.7967
   -73.7945 -73.7894 -73.7885 -73.7870 -73.7829 -73.7419 -73.7323 -73.7293
   -38.2167 -38.2155 -38.2135 -38.1574 -38.1568 -38.1526 -38.1480 -38.1469
   -38.1355 -38.0564 -38.0513 -38.0487 -38.0482 -38.0421 -38.0391 -38.0379
   -38.0250 -38.0231 -38.0213 -38.0200 -38.0174 -38.0172 -38.0158 -38.0128
   -38.0097 -38.0064 -38.0050 -38.0000 -37.9931 -37.9897 -37.9872 -37.9857
   -37.9842 -37.9771 -37.9530 -37.9521 -37.9492 -37.9454 -37.9362 -37.9255
   -37.9196 -37.9086 -37.9064 -37.9048 -37.9024 -37.8917 -37.8592 -37.8572
   -21.4701 -15.4130 -14.5954 -13.7066 -13.6919 -13.6720 -13.6432 -13.6292
   -13.6200 -12.9800 -12.7058 -12.6753 -12.6511 -12.6366 -12.6014 -12.5807
   -12.5332 -12.5045 -12.4685 -12.4557 -12.4441 -12.4424 -12.4213 -12.4197
   -12.4160 -12.2210 -12.1988 -12.1891 -12.1724 -12.1567 -12.1528 -12.1485
   -12.1465 -12.1441  -7.9158  -7.5176  -6.3366  -6.3234  -6.3058  -6.2757
    -6.1564  -5.6007  -5.5692  -5.5451  -5.5294  -5.5252  -5.4927  -5.4385
    -5.4057  -5.3870  -5.3117  -5.2804  -5.2604  -5.0996  -5.0906  -5.0626
    -5.0579  -5.0538  -5.0531  -4.9971  -4.9964  -4.9880  -4.5121  -4.4328
    -4.3930  -4.3437  -4.2900  -4.2810  -4.2650  -4.2438  -4.2304  -4.1768
    -4.0777  -4.0070  -3.9760  -3.9609  -3.9345  -3.7889  -3.7564  -3.7525
    -3.6986  -3.6767  -3.6737  -3.6002  -3.5083  -3.4689  -3.4035  -3.3997
    -3.3722  -3.3654  -3.2753  -3.2197  -3.1936  -3.1798  -3.1580  -3.1403
    -3.1272  -3.1225  -3.1082  -3.1057  -3.0396  -2.9249  -2.7920  -2.7483
    -2.6877  -2.6666  -2.6205  -2.5862  -2.5733  -2.5025  -2.4920  -2.4633
    -2.4583  -2.4311  -2.4283  -2.4233  -2.3903  -2.3296  -2.2733  -2.1864
    -2.1158  -2.0542  -1.9647  -1.9600  -1.9302  -1.9168  -1.8658  -1.8232
    -1.7989  -1.7764  -1.7642  -1.7608  -1.7488  -1.7471  -1.7414  -1.7330
    -1.7316  -1.6998  -1.6906  -1.6565  -1.6468  -1.6346  -1.6318  -1.5988
    -1.5737  -1.5263  -1.5163  -1.4888  -1.4484  -1.4094  -1.3700  -1.3525
    -1.2905  -1.2619  -1.1834  -1.0878  -1.0339  -1.0261  -1.0098  -0.9903
    -0.7224  -0.6876  -0.6835  -0.6831  -0.6701  -0.6655  -0.6433  -0.6369
    -0.6205  -0.3931  -0.3818  -0.3718  -0.3566  -0.3399  -0.3304  -0.2943
     0.2181   1.3005   1.6761

     occupation numbers 
     1.0000   1.0000   1.0000   1.0000   1.0000   1.0000   1.0000   1.0000
     1.0000   1.0000   1.0000   1.0000   1.0000   1.0000   1.0000   1.0000
     1.0000   1.0000   1.0000   1.0000   1.0000   1.0000   1.0000   1.0000
     1.0000   1.0000   1.0000   1.0000   1.0000   1.0000   1.0000   1.0000
     1.0000   1.0000   1.0000   1.0000   1.0000   1.0000   1.0000   1.0000
     1.0000   1.0000   1.0000   1.0000   1.0000   1.0000   1.0000   1.0000
     1.0000   1.0000   1.0000   1.0000   1.0000   1.0000   1.0000   1.0000
     1.0000   1.0000   1.0000   1.0000   1.0000   1.0000   1.0000   1.0000
     1.0000   1.0000   1.0000   1.0000   1.0000   1.0000   1.0000   1.0000
     1.0000   1.0000   1.0000   1.0000   1.0000   1.0000   1.0000   1.0000
     1.0000   1.0000   1.0000   1.0000   1.0000   1.0000   1.0000   1.0000
     1.0000   1.0000   1.0000   1.0000   1.0000   1.0000   1.0000   1.0000
     1.0000   1.0000   1.0000   1.0000   1.0000   1.0000   1.0000   1.0000
     1.0000   1.0000   1.0000   1.0000   1.0000   1.0000   1.0000   1.0000
     1.0000   1.0000   1.0000   1.0000   1.0000   1.0000   1.0000   1.0000
     1.0000   1.0000   1.0000   1.0000   1.0000   1.0000   1.0000   1.0000
     1.0000   1.0000   1.0000   1.0000   1.0000   1.0000   1.0000   1.0000
     1.0000   1.0000   1.0000   1.0000   1.0000   1.0000   1.0000   1.0000
     1.0000   1.0000   1.0000   1.0000   1.0000   1.0000   1.0000   1.0000
     1.0000   1.0000   1.0000   1.0000   1.0000   1.0000   1.0000   1.0000
     1.0000   1.0000   1.0000   1.0000   1.0000   1.0000   1.0000   1.0000
     1.0000   1.0000   1.0000   1.0000   1.0000   1.0000   1.0000   1.0000
     1.0000   1.0000   1.0000   1.0000   1.0000   1.0000   1.0000   1.0000
     1.0000   1.0000   1.0000   1.0000   1.0000   1.0000   1.0000   1.0000
     1.0000   1.0000   1.0000   1.0000   1.0000   1.0000   1.0000   1.0000
     1.0000   1.0000   1.0000   1.0000   1.0000   1.0000   1.0000   1.0000
     1.0000   1.0000   1.0000   1.0000   1.0000   1.0000   1.0000   1.0000
     1.0000   1.0000   1.0000   1.0000   1.0000   1.0000   1.0000   1.0000
     1.0000   1.0000   1.0000   1.0000   1.0000   1.0000   1.0000   1.0000
     1.0000   1.0000   1.0000   1.0000   1.0000   1.0000   1.0000   1.0000
     1.0000   1.0000   0.0000

          k = 0.0000 0.2309 0.0000 (112171 PWs)   bands (ev):

   -73.8145 -73.8101 -73.8073 -73.8052 -73.8032 -73.8020 -73.7990 -73.7967
   -73.7946 -73.7895 -73.7885 -73.7870 -73.7829 -73.7419 -73.7323 -73.7293
   -38.2119 -38.2100 -38.2070 -38.1610 -38.1596 -38.1581 -38.1510 -38.1404
   -38.1323 -38.0971 -38.0717 -38.0704 -38.0470 -38.0431 -38.0383 -38.0275
   -38.0260 -38.0208 -38.0179 -38.0166 -38.0138 -38.0110 -38.0094 -38.0060
   -37.9999 -37.9952 -37.9947 -37.9913 -37.9887 -37.9873 -37.9845 -37.9838
   -37.9799 -37.9770 -37.9561 -37.9537 -37.9496 -37.9463 -37.9364 -37.9265
   -37.9259 -37.9151 -37.9113 -37.9033 -37.8994 -37.8901 -37.8649 -37.8599
   -21.4701 -15.4130 -14.5537 -13.9735 -13.7994 -13.7833 -13.4893 -13.4594
   -13.3225 -12.9639 -12.8007 -12.7327 -12.6935 -12.6853 -12.6533 -12.5836
   -12.5527 -12.5397 -12.4924 -12.4756 -12.4544 -12.4337 -12.4226 -12.3144
   -12.2832 -12.2609 -12.2425 -12.2132 -12.1836 -12.1731 -12.1663 -12.1514
   -12.0945 -12.0787  -7.9158  -7.5176  -6.2754  -6.2648  -6.2333  -6.2292
    -6.1546  -5.6597  -5.6402  -5.6236  -5.5536  -5.5150  -5.4865  -5.4676
    -5.4234  -5.4131  -5.3907  -5.3181  -5.3138  -5.2833  -5.2665  -5.0692
    -5.0644  -5.0136  -4.9997  -4.9516  -4.7364  -4.7317  -4.5808  -4.4737
    -4.4452  -4.3813  -4.3185  -4.2812  -4.2034  -4.1578  -4.1427  -4.1167
    -4.0965  -4.0583  -4.0402  -3.9983  -3.9820  -3.9079  -3.9054  -3.8979
    -3.6562  -3.5667  -3.5357  -3.5022  -3.4629  -3.4384  -3.4340  -3.3805
    -3.3613  -3.3100  -3.2892  -3.2755  -3.2618  -3.2034  -3.1894  -3.1466
    -3.0731  -2.9812  -2.9375  -2.9219  -2.8427  -2.7756  -2.7561  -2.7417
    -2.7160  -2.7080  -2.6927  -2.6689  -2.6428  -2.6255  -2.5828  -2.5386
    -2.5001  -2.4953  -2.4642  -2.4288  -2.3477  -2.3023  -2.1855  -2.1572
    -2.1042  -2.0611  -2.0090  -1.9934  -1.9681  -1.9489  -1.9228  -1.9009
    -1.8818  -1.8519  -1.8404  -1.8103  -1.7768  -1.7522  -1.7375  -1.7201
    -1.7161  -1.6933  -1.6774  -1.6520  -1.6363  -1.6002  -1.5790  -1.5387
    -1.5233  -1.4886  -1.4768  -1.4484  -1.4290  -1.3647  -1.3320  -1.3190
    -1.2938  -1.2725  -1.2329  -1.2144  -1.1488  -1.0621  -1.0384  -1.0040
    -0.8876  -0.7739  -0.7557  -0.7392  -0.5637  -0.5596  -0.5423  -0.5285
    -0.5154  -0.5026  -0.4029  -0.3722  -0.3566  -0.2425  -0.1658  -0.1354
     0.2001   1.3064   1.7072

     occupation numbers 
     1.0000   1.0000   1.0000   1.0000   1.0000   1.0000   1.0000   1.0000
     1.0000   1.0000   1.0000   1.0000   1.0000   1.0000   1.0000   1.0000
     1.0000   1.0000   1.0000   1.0000   1.0000   1.0000   1.0000   1.0000
     1.0000   1.0000   1.0000   1.0000   1.0000   1.0000   1.0000   1.0000
     1.0000   1.0000   1.0000   1.0000   1.0000   1.0000   1.0000   1.0000
     1.0000   1.0000   1.0000   1.0000   1.0000   1.0000   1.0000   1.0000
     1.0000   1.0000   1.0000   1.0000   1.0000   1.0000   1.0000   1.0000
     1.0000   1.0000   1.0000   1.0000   1.0000   1.0000   1.0000   1.0000
     1.0000   1.0000   1.0000   1.0000   1.0000   1.0000   1.0000   1.0000
     1.0000   1.0000   1.0000   1.0000   1.0000   1.0000   1.0000   1.0000
     1.0000   1.0000   1.0000   1.0000   1.0000   1.0000   1.0000   1.0000
     1.0000   1.0000   1.0000   1.0000   1.0000   1.0000   1.0000   1.0000
     1.0000   1.0000   1.0000   1.0000   1.0000   1.0000   1.0000   1.0000
     1.0000   1.0000   1.0000   1.0000   1.0000   1.0000   1.0000   1.0000
     1.0000   1.0000   1.0000   1.0000   1.0000   1.0000   1.0000   1.0000
     1.0000   1.0000   1.0000   1.0000   1.0000   1.0000   1.0000   1.0000
     1.0000   1.0000   1.0000   1.0000   1.0000   1.0000   1.0000   1.0000
     1.0000   1.0000   1.0000   1.0000   1.0000   1.0000   1.0000   1.0000
     1.0000   1.0000   1.0000   1.0000   1.0000   1.0000   1.0000   1.0000
     1.0000   1.0000   1.0000   1.0000   1.0000   1.0000   1.0000   1.0000
     1.0000   1.0000   1.0000   1.0000   1.0000   1.0000   1.0000   1.0000
     1.0000   1.0000   1.0000   1.0000   1.0000   1.0000   1.0000   1.0000
     1.0000   1.0000   1.0000   1.0000   1.0000   1.0000   1.0000   1.0000
     1.0000   1.0000   1.0000   1.0000   1.0000   1.0000   1.0000   1.0000
     1.0000   1.0000   1.0000   1.0000   1.0000   1.0000   1.0000   1.0000
     1.0000   1.0000   1.0000   1.0000   1.0000   1.0000   1.0000   1.0000
     1.0000   1.0000   1.0000   1.0000   1.0000   1.0000   1.0000   1.0000
     1.0000   1.0000   1.0000   1.0000   1.0000   1.0000   1.0000   1.0000
     1.0000   1.0000   1.0000   1.0000   1.0000   1.0000   1.0000   1.0000
     1.0000   1.0000   1.0000   1.0000   1.0000   1.0000   1.0000   1.0000
     1.0000   1.0000   0.0000

          k = 0.0000 0.4619 0.0000 (112236 PWs)   bands (ev):

   -73.8143 -73.8103 -73.8076 -73.8051 -73.8033 -73.8018 -73.7989 -73.7966
   -73.7947 -73.7895 -73.7885 -73.7871 -73.7829 -73.7419 -73.7323 -73.7293
   -38.2013 -38.1971 -38.1854 -38.1783 -38.1734 -38.1589 -38.1553 -38.1393
   -38.1248 -38.1176 -38.0967 -38.0939 -38.0571 -38.0508 -38.0434 -38.0338
   -38.0277 -38.0163 -38.0108 -38.0078 -38.0035 -38.0023 -37.9991 -37.9981
   -37.9953 -37.9921 -37.9918 -37.9882 -37.9845 -37.9830 -37.9770 -37.9739
   -37.9676 -37.9612 -37.9592 -37.9512 -37.9457 -37.9419 -37.9395 -37.9342
   -37.9329 -37.9228 -37.9183 -37.9098 -37.8996 -37.8847 -37.8788 -37.8633
   -21.4701 -15.4130 -14.4320 -14.2306 -13.8688 -13.8514 -13.2599 -13.2281
   -13.0155 -12.9968 -12.9680 -12.9141 -12.8307 -12.7270 -12.7027 -12.6869
   -12.5180 -12.5105 -12.4588 -12.4479 -12.4345 -12.4236 -12.3806 -12.3669
   -12.3487 -12.2826 -12.2136 -12.1999 -12.1755 -12.1574 -12.1556 -12.1513
   -12.0553 -12.0379  -7.9158  -7.5176  -6.1672  -6.1186  -6.1056  -6.0864
    -6.0215  -5.8682  -5.8561  -5.8311  -5.7086  -5.5285  -5.4959  -5.4829
    -5.4558  -5.4430  -5.4339  -5.3881  -5.3707  -5.3212  -5.2978  -5.0644
    -5.0591  -5.0263  -5.0069  -4.8033  -4.6219  -4.5171  -4.4796  -4.4355
    -4.3910  -4.3713  -4.3453  -4.3075  -4.2409  -4.2262  -4.1883  -4.1567
    -4.1259  -4.1148  -4.1002  -4.0738  -4.0637  -4.0489  -4.0388  -3.6802
    -3.5655  -3.5039  -3.4724  -3.4377  -3.4130  -3.3836  -3.3634  -3.3069
    -3.2854  -3.2764  -3.2579  -3.2333  -3.2156  -3.1829  -3.1534  -3.1033
    -3.0589  -3.0456  -3.0020  -2.9505  -2.9323  -2.9053  -2.8424  -2.7590
    -2.7229  -2.6932  -2.6436  -2.6280  -2.5930  -2.5532  -2.5245  -2.4785
    -2.4395  -2.4255  -2.3894  -2.3111  -2.2736  -2.2470  -2.2380  -2.1695
    -2.1030  -2.0812  -2.0338  -2.0090  -2.0022  -1.9908  -1.9703  -1.9349
    -1.9183  -1.8973  -1.8746  -1.8644  -1.8496  -1.8374  -1.8277  -1.8218
    -1.7622  -1.7507  -1.7136  -1.7037  -1.6769  -1.6517  -1.6229  -1.6095
    -1.5814  -1.5475  -1.5163  -1.4864  -1.4190  -1.3812  -1.2968  -1.2791
    -1.2228  -1.1957  -1.1856  -1.1385  -1.1121  -1.0915  -1.0390  -0.9900
    -0.9658  -0.8841  -0.7280  -0.7130  -0.6355  -0.6156  -0.4785  -0.4505
    -0.4387  -0.4272  -0.3935  -0.3701  -0.2988  -0.0823   0.0062   0.0359
     0.1536   1.3151   1.7582

     occupation numbers 
     1.0000   1.0000   1.0000   1.0000   1.0000   1.0000   1.0000   1.0000
     1.0000   1.0000   1.0000   1.0000   1.0000   1.0000   1.0000   1.0000
     1.0000   1.0000   1.0000   1.0000   1.0000   1.0000   1.0000   1.0000
     1.0000   1.0000   1.0000   1.0000   1.0000   1.0000   1.0000   1.0000
     1.0000   1.0000   1.0000   1.0000   1.0000   1.0000   1.0000   1.0000
     1.0000   1.0000   1.0000   1.0000   1.0000   1.0000   1.0000   1.0000
     1.0000   1.0000   1.0000   1.0000   1.0000   1.0000   1.0000   1.0000
     1.0000   1.0000   1.0000   1.0000   1.0000   1.0000   1.0000   1.0000
     1.0000   1.0000   1.0000   1.0000   1.0000   1.0000   1.0000   1.0000
     1.0000   1.0000   1.0000   1.0000   1.0000   1.0000   1.0000   1.0000
     1.0000   1.0000   1.0000   1.0000   1.0000   1.0000   1.0000   1.0000
     1.0000   1.0000   1.0000   1.0000   1.0000   1.0000   1.0000   1.0000
     1.0000   1.0000   1.0000   1.0000   1.0000   1.0000   1.0000   1.0000
     1.0000   1.0000   1.0000   1.0000   1.0000   1.0000   1.0000   1.0000
     1.0000   1.0000   1.0000   1.0000   1.0000   1.0000   1.0000   1.0000
     1.0000   1.0000   1.0000   1.0000   1.0000   1.0000   1.0000   1.0000
     1.0000   1.0000   1.0000   1.0000   1.0000   1.0000   1.0000   1.0000
     1.0000   1.0000   1.0000   1.0000   1.0000   1.0000   1.0000   1.0000
     1.0000   1.0000   1.0000   1.0000   1.0000   1.0000   1.0000   1.0000
     1.0000   1.0000   1.0000   1.0000   1.0000   1.0000   1.0000   1.0000
     1.0000   1.0000   1.0000   1.0000   1.0000   1.0000   1.0000   1.0000
     1.0000   1.0000   1.0000   1.0000   1.0000   1.0000   1.0000   1.0000
     1.0000   1.0000   1.0000   1.0000   1.0000   1.0000   1.0000   1.0000
     1.0000   1.0000   1.0000   1.0000   1.0000   1.0000   1.0000   1.0000
     1.0000   1.0000   1.0000   1.0000   1.0000   1.0000   1.0000   1.0000
     1.0000   1.0000   1.0000   1.0000   1.0000   1.0000   1.0000   1.0000
     1.0000   1.0000   1.0000   1.0000   1.0000   1.0000   1.0000   1.0000
     1.0000   1.0000   1.0000   1.0000   1.0000   1.0000   1.0000   1.0000
     1.0000   1.0000   1.0000   1.0000   1.0000   1.0000   1.0000   1.0000
     1.0000   1.0000   1.0000   1.0000   1.0000   1.0000   1.0000   1.0000
     1.0000   1.0000   0.0000

          k = 0.2000 0.3464 0.0000 (112231 PWs)   bands (ev):

   -73.8143 -73.8104 -73.8074 -73.8052 -73.8031 -73.8018 -73.7991 -73.7967
   -73.7945 -73.7896 -73.7884 -73.7871 -73.7829 -73.7419 -73.7323 -73.7293
   -38.2056 -38.1965 -38.1958 -38.1731 -38.1679 -38.1589 -38.1490 -38.1418
   -38.1271 -38.1165 -38.1057 -38.0707 -38.0538 -38.0482 -38.0439 -38.0324
   -38.0276 -38.0230 -38.0176 -38.0150 -38.0115 -38.0060 -37.9993 -37.9977
   -37.9922 -37.9890 -37.9874 -37.9852 -37.9829 -37.9804 -37.9770 -37.9759
   -37.9704 -37.9664 -37.9580 -37.9526 -37.9499 -37.9470 -37.9383 -37.9339
   -37.9272 -37.9209 -37.9180 -37.9097 -37.8965 -37.8896 -37.8745 -37.8620
   -21.4701 -15.4130 -14.4719 -14.0989 -14.0575 -13.5635 -13.5615 -13.1694
   -13.1171 -13.0058 -12.9320 -12.8057 -12.7868 -12.7069 -12.6704 -12.6013
   -12.5918 -12.5746 -12.5695 -12.4544 -12.4228 -12.3884 -12.3742 -12.3105
   -12.2886 -12.2703 -12.2507 -12.2303 -12.2195 -12.1529 -12.1484 -12.1057
   -12.0946 -12.0344  -7.9158  -7.5176  -6.1767  -6.1690  -6.1384  -6.1192
    -6.1016  -5.7544  -5.7314  -5.7165  -5.6760  -5.6407  -5.5986  -5.5602
    -5.5015  -5.4699  -5.3512  -5.3287  -5.2807  -5.2714  -5.2393  -5.2225
    -5.0921  -4.9000  -4.8856  -4.8104  -4.7493  -4.5933  -4.4839  -4.4583
    -4.3913  -4.3618  -4.3341  -4.2986  -4.2732  -4.2598  -4.2297  -4.2218
    -4.1686  -4.1186  -4.1038  -4.0886  -4.0532  -3.7568  -3.7305  -3.7213
    -3.7136  -3.6883  -3.5984  -3.4904  -3.4224  -3.3908  -3.3454  -3.3150
    -3.2806  -3.2404  -3.2177  -3.1991  -3.1627  -3.1465  -3.0944  -3.0879
    -3.0334  -3.0009  -2.9654  -2.9443  -2.9361  -2.9185  -2.9037  -2.8911
    -2.7936  -2.7183  -2.6895  -2.6411  -2.6046  -2.5375  -2.5031  -2.4711
    -2.4544  -2.4256  -2.3808  -2.3547  -2.3050  -2.2093  -2.1717  -2.1539
    -2.1211  -2.1196  -2.0816  -2.0716  -1.9969  -1.9820  -1.9662  -1.9383
    -1.9171  -1.8933  -1.8694  -1.8451  -1.8298  -1.8151  -1.7882  -1.7356
    -1.7229  -1.7074  -1.6995  -1.6637  -1.6572  -1.6101  -1.5826  -1.5691
    -1.5606  -1.5344  -1.5222  -1.4950  -1.4150  -1.3830  -1.3689  -1.3562
    -1.2797  -1.2165  -1.2000  -1.1757  -1.1489  -1.1039  -1.0216  -0.9917
    -0.8685  -0.8369  -0.6750  -0.6653  -0.6311  -0.6218  -0.6085  -0.5336
    -0.5249  -0.4192  -0.3685  -0.2500  -0.2009  -0.1916  -0.1434   0.0798
     0.1653   1.3288   1.7284

     occupation numbers 
     1.0000   1.0000   1.0000   1.0000   1.0000   1.0000   1.0000   1.0000
     1.0000   1.0000   1.0000   1.0000   1.0000   1.0000   1.0000   1.0000
     1.0000   1.0000   1.0000   1.0000   1.0000   1.0000   1.0000   1.0000
     1.0000   1.0000   1.0000   1.0000   1.0000   1.0000   1.0000   1.0000
     1.0000   1.0000   1.0000   1.0000   1.0000   1.0000   1.0000   1.0000
     1.0000   1.0000   1.0000   1.0000   1.0000   1.0000   1.0000   1.0000
     1.0000   1.0000   1.0000   1.0000   1.0000   1.0000   1.0000   1.0000
     1.0000   1.0000   1.0000   1.0000   1.0000   1.0000   1.0000   1.0000
     1.0000   1.0000   1.0000   1.0000   1.0000   1.0000   1.0000   1.0000
     1.0000   1.0000   1.0000   1.0000   1.0000   1.0000   1.0000   1.0000
     1.0000   1.0000   1.0000   1.0000   1.0000   1.0000   1.0000   1.0000
     1.0000   1.0000   1.0000   1.0000   1.0000   1.0000   1.0000   1.0000
     1.0000   1.0000   1.0000   1.0000   1.0000   1.0000   1.0000   1.0000
     1.0000   1.0000   1.0000   1.0000   1.0000   1.0000   1.0000   1.0000
     1.0000   1.0000   1.0000   1.0000   1.0000   1.0000   1.0000   1.0000
     1.0000   1.0000   1.0000   1.0000   1.0000   1.0000   1.0000   1.0000
     1.0000   1.0000   1.0000   1.0000   1.0000   1.0000   1.0000   1.0000
     1.0000   1.0000   1.0000   1.0000   1.0000   1.0000   1.0000   1.0000
     1.0000   1.0000   1.0000   1.0000   1.0000   1.0000   1.0000   1.0000
     1.0000   1.0000   1.0000   1.0000   1.0000   1.0000   1.0000   1.0000
     1.0000   1.0000   1.0000   1.0000   1.0000   1.0000   1.0000   1.0000
     1.0000   1.0000   1.0000   1.0000   1.0000   1.0000   1.0000   1.0000
     1.0000   1.0000   1.0000   1.0000   1.0000   1.0000   1.0000   1.0000
     1.0000   1.0000   1.0000   1.0000   1.0000   1.0000   1.0000   1.0000
     1.0000   1.0000   1.0000   1.0000   1.0000   1.0000   1.0000   1.0000
     1.0000   1.0000   1.0000   1.0000   1.0000   1.0000   1.0000   1.0000
     1.0000   1.0000   1.0000   1.0000   1.0000   1.0000   1.0000   1.0000
     1.0000   1.0000   1.0000   1.0000   1.0000   1.0000   1.0000   1.0000
     1.0000   1.0000   1.0000   1.0000   1.0000   1.0000   1.0000   1.0000
     1.0000   1.0000   1.0000   1.0000   1.0000   1.0000   1.0000   1.0000
     1.0000   1.0000   0.0000

          k = 0.2000 0.5774 0.0000 (112237 PWs)   bands (ev):

   -73.8142 -73.8104 -73.8076 -73.8051 -73.8031 -73.8018 -73.7989 -73.7966
   -73.7946 -73.7895 -73.7885 -73.7871 -73.7829 -73.7419 -73.7323 -73.7293
   -38.1964 -38.1894 -38.1807 -38.1766 -38.1709 -38.1670 -38.1589 -38.1436
   -38.1396 -38.1235 -38.0862 -38.0848 -38.0769 -38.0455 -38.0417 -38.0352
   -38.0297 -38.0233 -38.0140 -38.0104 -38.0044 -38.0006 -37.9987 -37.9968
   -37.9957 -37.9937 -37.9890 -37.9850 -37.9825 -37.9769 -37.9697 -37.9656
   -37.9606 -37.9563 -37.9540 -37.9511 -37.9499 -37.9424 -37.9387 -37.9352
   -37.9319 -37.9249 -37.9208 -37.9167 -37.9049 -37.8873 -37.8750 -37.8666
   -21.4701 -15.4130 -14.3321 -14.2900 -14.1121 -13.5924 -13.2964 -13.2915
   -12.9481 -12.9448 -12.8858 -12.8505 -12.8382 -12.8002 -12.7908 -12.6555
   -12.6281 -12.6004 -12.4887 -12.4822 -12.3805 -12.3689 -12.3554 -12.3220
   -12.3075 -12.2956 -12.2562 -12.2317 -12.2307 -12.1287 -12.1186 -12.1162
   -12.0774 -12.0149  -7.9158  -7.5176  -6.1634  -6.0445  -5.9987  -5.9820
    -5.9154  -5.8903  -5.8710  -5.8443  -5.8056  -5.7404  -5.6820  -5.6187
    -5.6102  -5.5375  -5.3585  -5.2608  -5.2508  -5.2138  -5.1987  -5.1666
    -5.1505  -4.8512  -4.8275  -4.7440  -4.6274  -4.5715  -4.5418  -4.5147
    -4.4689  -4.4120  -4.3924  -4.3123  -4.3061  -4.2359  -4.2286  -4.2084
    -4.1823  -4.1614  -4.1191  -4.0927  -3.9496  -3.9462  -3.7848  -3.6570
    -3.6351  -3.5604  -3.4273  -3.3836  -3.3507  -3.3181  -3.2981  -3.2798
    -3.2651  -3.2559  -3.2379  -3.2282  -3.2109  -3.1953  -3.1359  -3.1166
    -3.0925  -3.0745  -3.0567  -3.0245  -2.9923  -2.9224  -2.8682  -2.8120
    -2.7295  -2.6991  -2.6791  -2.6561  -2.5997  -2.5408  -2.4937  -2.4423
    -2.3851  -2.3272  -2.3149  -2.3008  -2.2454  -2.1899  -2.1675  -2.1243
    -2.1086  -2.0934  -2.0685  -2.0470  -2.0068  -1.9735  -1.9544  -1.9432
    -1.9250  -1.9056  -1.8861  -1.8696  -1.8612  -1.8486  -1.8383  -1.8284
    -1.8106  -1.7722  -1.7490  -1.7253  -1.6978  -1.6705  -1.6583  -1.6358
    -1.6027  -1.5614  -1.5437  -1.4909  -1.4727  -1.4581  -1.3925  -1.3210
    -1.2662  -1.1853  -1.1523  -1.1342  -1.0872  -1.0731  -0.9984  -0.9737
    -0.8070  -0.7918  -0.6957  -0.6834  -0.6503  -0.6361  -0.5861  -0.5750
    -0.5570  -0.3922  -0.2720  -0.2628  -0.1805  -0.1175  -0.0570   0.1208
     0.1965   1.3369   1.7415

     occupation numbers 
     1.0000   1.0000   1.0000   1.0000   1.0000   1.0000   1.0000   1.0000
     1.0000   1.0000   1.0000   1.0000   1.0000   1.0000   1.0000   1.0000
     1.0000   1.0000   1.0000   1.0000   1.0000   1.0000   1.0000   1.0000
     1.0000   1.0000   1.0000   1.0000   1.0000   1.0000   1.0000   1.0000
     1.0000   1.0000   1.0000   1.0000   1.0000   1.0000   1.0000   1.0000
     1.0000   1.0000   1.0000   1.0000   1.0000   1.0000   1.0000   1.0000
     1.0000   1.0000   1.0000   1.0000   1.0000   1.0000   1.0000   1.0000
     1.0000   1.0000   1.0000   1.0000   1.0000   1.0000   1.0000   1.0000
     1.0000   1.0000   1.0000   1.0000   1.0000   1.0000   1.0000   1.0000
     1.0000   1.0000   1.0000   1.0000   1.0000   1.0000   1.0000   1.0000
     1.0000   1.0000   1.0000   1.0000   1.0000   1.0000   1.0000   1.0000
     1.0000   1.0000   1.0000   1.0000   1.0000   1.0000   1.0000   1.0000
     1.0000   1.0000   1.0000   1.0000   1.0000   1.0000   1.0000   1.0000
     1.0000   1.0000   1.0000   1.0000   1.0000   1.0000   1.0000   1.0000
     1.0000   1.0000   1.0000   1.0000   1.0000   1.0000   1.0000   1.0000
     1.0000   1.0000   1.0000   1.0000   1.0000   1.0000   1.0000   1.0000
     1.0000   1.0000   1.0000   1.0000   1.0000   1.0000   1.0000   1.0000
     1.0000   1.0000   1.0000   1.0000   1.0000   1.0000   1.0000   1.0000
     1.0000   1.0000   1.0000   1.0000   1.0000   1.0000   1.0000   1.0000
     1.0000   1.0000   1.0000   1.0000   1.0000   1.0000   1.0000   1.0000
     1.0000   1.0000   1.0000   1.0000   1.0000   1.0000   1.0000   1.0000
     1.0000   1.0000   1.0000   1.0000   1.0000   1.0000   1.0000   1.0000
     1.0000   1.0000   1.0000   1.0000   1.0000   1.0000   1.0000   1.0000
     1.0000   1.0000   1.0000   1.0000   1.0000   1.0000   1.0000   1.0000
     1.0000   1.0000   1.0000   1.0000   1.0000   1.0000   1.0000   1.0000
     1.0000   1.0000   1.0000   1.0000   1.0000   1.0000   1.0000   1.0000
     1.0000   1.0000   1.0000   1.0000   1.0000   1.0000   1.0000   1.0000
     1.0000   1.0000   1.0000   1.0000   1.0000   1.0000   1.0000   1.0000
     1.0000   1.0000   1.0000   1.0000   1.0000   1.0000   1.0000   1.0000
     1.0000   1.0000   1.0000   1.0000   1.0000   1.0000   1.0000   1.0000
     1.0000   1.0000   0.0000

          k =-0.2000 0.1155 0.0000 (112171 PWs)   bands (ev):

   -73.8145 -73.8102 -73.8072 -73.8053 -73.8029 -73.8023 -73.7990 -73.7967
   -73.7945 -73.7895 -73.7885 -73.7870 -73.7829 -73.7419 -73.7323 -73.7293
   -38.2115 -38.2111 -38.2065 -38.1626 -38.1594 -38.1567 -38.1512 -38.1397
   -38.1326 -38.0965 -38.0725 -38.0704 -38.0470 -38.0433 -38.0381 -38.0289
   -38.0229 -38.0211 -38.0202 -38.0187 -38.0121 -38.0105 -38.0092 -38.0057
   -37.9999 -37.9950 -37.9934 -37.9920 -37.9889 -37.9875 -37.9852 -37.9834
   -37.9799 -37.9769 -37.9560 -37.9529 -37.9503 -37.9463 -37.9363 -37.9283
   -37.9244 -37.9146 -37.9105 -37.9040 -37.9000 -37.8900 -37.8643 -37.8604
   -21.4701 -15.4130 -14.5538 -13.9727 -13.7985 -13.7861 -13.4761 -13.4714
   -13.3228 -12.9643 -12.7879 -12.7536 -12.6893 -12.6795 -12.6555 -12.5843
   -12.5621 -12.5187 -12.4944 -12.4768 -12.4663 -12.4310 -12.4217 -12.3051
   -12.2925 -12.2599 -12.2427 -12.2113 -12.1851 -12.1736 -12.1666 -12.1502
   -12.0937 -12.0796  -7.9158  -7.5176  -6.2793  -6.2589  -6.2386  -6.2257
    -6.1547  -5.6686  -5.6325  -5.6199  -5.5444  -5.5264  -5.4860  -5.4662
    -5.4332  -5.4143  -5.3805  -5.3247  -5.3087  -5.2785  -5.2732  -5.0764
    -5.0599  -5.0121  -4.9976  -4.9482  -4.7366  -4.7330  -4.5632  -4.5044
    -4.4403  -4.3672  -4.3357  -4.2735  -4.2017  -4.1579  -4.1430  -4.1196
    -4.0964  -4.0615  -4.0372  -3.9930  -3.9804  -3.9118  -3.9017  -3.8931
    -3.6509  -3.5814  -3.5294  -3.4967  -3.4716  -3.4555  -3.4409  -3.3709
    -3.3623  -3.3083  -3.2913  -3.2741  -3.2538  -3.2014  -3.1900  -3.1496
    -3.0742  -2.9684  -2.9450  -2.9120  -2.8138  -2.7892  -2.7646  -2.7389
    -2.7162  -2.7034  -2.6908  -2.6814  -2.6626  -2.6350  -2.5809  -2.5388
    -2.4945  -2.4772  -2.4615  -2.4268  -2.3548  -2.3015  -2.1783  -2.1653
    -2.1132  -2.0655  -2.0133  -1.9920  -1.9643  -1.9539  -1.9234  -1.8994
    -1.8742  -1.8544  -1.8306  -1.8119  -1.7895  -1.7612  -1.7304  -1.7187
    -1.7036  -1.6903  -1.6750  -1.6530  -1.6436  -1.5988  -1.5653  -1.5438
    -1.5148  -1.4950  -1.4886  -1.4312  -1.4227  -1.3583  -1.3432  -1.3223
    -1.3056  -1.2720  -1.2439  -1.2138  -1.1464  -1.0717  -1.0354  -0.9911
    -0.8938  -0.7691  -0.7512  -0.7312  -0.5781  -0.5627  -0.5420  -0.5272
    -0.5107  -0.5019  -0.4056  -0.3755  -0.3509  -0.2416  -0.1653  -0.1375
     0.1987   1.3286   1.6816

     occupation numbers 
     1.0000   1.0000   1.0000   1.0000   1.0000   1.0000   1.0000   1.0000
     1.0000   1.0000   1.0000   1.0000   1.0000   1.0000   1.0000   1.0000
     1.0000   1.0000   1.0000   1.0000   1.0000   1.0000   1.0000   1.0000
     1.0000   1.0000   1.0000   1.0000   1.0000   1.0000   1.0000   1.0000
     1.0000   1.0000   1.0000   1.0000   1.0000   1.0000   1.0000   1.0000
     1.0000   1.0000   1.0000   1.0000   1.0000   1.0000   1.0000   1.0000
     1.0000   1.0000   1.0000   1.0000   1.0000   1.0000   1.0000   1.0000
     1.0000   1.0000   1.0000   1.0000   1.0000   1.0000   1.0000   1.0000
     1.0000   1.0000   1.0000   1.0000   1.0000   1.0000   1.0000   1.0000
     1.0000   1.0000   1.0000   1.0000   1.0000   1.0000   1.0000   1.0000
     1.0000   1.0000   1.0000   1.0000   1.0000   1.0000   1.0000   1.0000
     1.0000   1.0000   1.0000   1.0000   1.0000   1.0000   1.0000   1.0000
     1.0000   1.0000   1.0000   1.0000   1.0000   1.0000   1.0000   1.0000
     1.0000   1.0000   1.0000   1.0000   1.0000   1.0000   1.0000   1.0000
     1.0000   1.0000   1.0000   1.0000   1.0000   1.0000   1.0000   1.0000
     1.0000   1.0000   1.0000   1.0000   1.0000   1.0000   1.0000   1.0000
     1.0000   1.0000   1.0000   1.0000   1.0000   1.0000   1.0000   1.0000
     1.0000   1.0000   1.0000   1.0000   1.0000   1.0000   1.0000   1.0000
     1.0000   1.0000   1.0000   1.0000   1.0000   1.0000   1.0000   1.0000
     1.0000   1.0000   1.0000   1.0000   1.0000   1.0000   1.0000   1.0000
     1.0000   1.0000   1.0000   1.0000   1.0000   1.0000   1.0000   1.0000
     1.0000   1.0000   1.0000   1.0000   1.0000   1.0000   1.0000   1.0000
     1.0000   1.0000   1.0000   1.0000   1.0000   1.0000   1.0000   1.0000
     1.0000   1.0000   1.0000   1.0000   1.0000   1.0000   1.0000   1.0000
     1.0000   1.0000   1.0000   1.0000   1.0000   1.0000   1.0000   1.0000
     1.0000   1.0000   1.0000   1.0000   1.0000   1.0000   1.0000   1.0000
     1.0000   1.0000   1.0000   1.0000   1.0000   1.0000   1.0000   1.0000
     1.0000   1.0000   1.0000   1.0000   1.0000   1.0000   1.0000   1.0000
     1.0000   1.0000   1.0000   1.0000   1.0000   1.0000   1.0000   1.0000
     1.0000   1.0000   1.0000   1.0000   1.0000   1.0000   1.0000   1.0000
     1.0000   1.0000   0.0000

          k = 0.2000 0.1155 0.0000 (112171 PWs)   bands (ev):

   -73.8144 -73.8103 -73.8071 -73.8053 -73.8030 -73.8021 -73.7991 -73.7967
   -73.7944 -73.7895 -73.7885 -73.7870 -73.7829 -73.7419 -73.7323 -73.7293
   -38.2121 -38.2099 -38.2070 -38.1639 -38.1589 -38.1560 -38.1504 -38.1398
   -38.1331 -38.0966 -38.0728 -38.0702 -38.0471 -38.0422 -38.0395 -38.0289
   -38.0234 -38.0211 -38.0194 -38.0178 -38.0131 -38.0103 -38.0083 -38.0058
   -38.0003 -37.9949 -37.9940 -37.9906 -37.9886 -37.9877 -37.9864 -37.9833
   -37.9799 -37.9769 -37.9551 -37.9541 -37.9504 -37.9459 -37.9363 -37.9284
   -37.9241 -37.9141 -37.9111 -37.9041 -37.8999 -37.8903 -37.8662 -37.8585
   -21.4701 -15.4130 -14.5538 -13.9729 -13.7978 -13.7866 -13.4750 -13.4732
   -13.3221 -12.9644 -12.7878 -12.7530 -12.6886 -12.6811 -12.6558 -12.5842
   -12.5632 -12.5175 -12.4921 -12.4786 -12.4662 -12.4330 -12.4207 -12.3008
   -12.2923 -12.2627 -12.2457 -12.2068 -12.1907 -12.1712 -12.1691 -12.1473
   -12.0910 -12.0820  -7.9158  -7.5176  -6.2735  -6.2614  -6.2418  -6.2265
    -6.1547  -5.6614  -5.6381  -5.6165  -5.5442  -5.5315  -5.4850  -5.4678
    -5.4376  -5.4194  -5.3675  -5.3241  -5.3116  -5.2789  -5.2719  -5.0738
    -5.0669  -5.0104  -5.0009  -4.9424  -4.7379  -4.7333  -4.5570  -4.5044
    -4.4350  -4.3879  -4.3351  -4.2681  -4.2006  -4.1586  -4.1451  -4.1201
    -4.0959  -4.0524  -4.0368  -3.9997  -3.9794  -3.9091  -3.9054  -3.8954
    -3.6434  -3.5625  -3.5445  -3.5025  -3.4627  -3.4531  -3.4359  -3.3780
    -3.3682  -3.3050  -3.2956  -3.2783  -3.2451  -3.2075  -3.1929  -3.1434
    -3.0826  -2.9818  -2.9351  -2.9006  -2.8111  -2.7907  -2.7693  -2.7407
    -2.7273  -2.7042  -2.6926  -2.6819  -2.6489  -2.6223  -2.5738  -2.5423
    -2.5186  -2.4829  -2.4653  -2.4144  -2.3514  -2.2944  -2.1891  -2.1634
    -2.1073  -2.0664  -2.0111  -1.9836  -1.9590  -1.9464  -1.9150  -1.9011
    -1.8935  -1.8673  -1.8288  -1.8101  -1.7966  -1.7658  -1.7323  -1.7259
    -1.7021  -1.6841  -1.6706  -1.6468  -1.6284  -1.6099  -1.5841  -1.5316
    -1.5257  -1.4970  -1.4482  -1.4383  -1.4189  -1.3936  -1.3456  -1.3059
    -1.3014  -1.2904  -1.2396  -1.1976  -1.1524  -1.0517  -1.0365  -1.0078
    -0.8910  -0.7594  -0.7499  -0.7451  -0.5890  -0.5538  -0.5418  -0.5267
    -0.5135  -0.5060  -0.4014  -0.3769  -0.3459  -0.2424  -0.1613  -0.1412
     0.1994   1.3234   1.6883

     occupation numbers 
     1.0000   1.0000   1.0000   1.0000   1.0000   1.0000   1.0000   1.0000
     1.0000   1.0000   1.0000   1.0000   1.0000   1.0000   1.0000   1.0000
     1.0000   1.0000   1.0000   1.0000   1.0000   1.0000   1.0000   1.0000
     1.0000   1.0000   1.0000   1.0000   1.0000   1.0000   1.0000   1.0000
     1.0000   1.0000   1.0000   1.0000   1.0000   1.0000   1.0000   1.0000
     1.0000   1.0000   1.0000   1.0000   1.0000   1.0000   1.0000   1.0000
     1.0000   1.0000   1.0000   1.0000   1.0000   1.0000   1.0000   1.0000
     1.0000   1.0000   1.0000   1.0000   1.0000   1.0000   1.0000   1.0000
     1.0000   1.0000   1.0000   1.0000   1.0000   1.0000   1.0000   1.0000
     1.0000   1.0000   1.0000   1.0000   1.0000   1.0000   1.0000   1.0000
     1.0000   1.0000   1.0000   1.0000   1.0000   1.0000   1.0000   1.0000
     1.0000   1.0000   1.0000   1.0000   1.0000   1.0000   1.0000   1.0000
     1.0000   1.0000   1.0000   1.0000   1.0000   1.0000   1.0000   1.0000
     1.0000   1.0000   1.0000   1.0000   1.0000   1.0000   1.0000   1.0000
     1.0000   1.0000   1.0000   1.0000   1.0000   1.0000   1.0000   1.0000
     1.0000   1.0000   1.0000   1.0000   1.0000   1.0000   1.0000   1.0000
     1.0000   1.0000   1.0000   1.0000   1.0000   1.0000   1.0000   1.0000
     1.0000   1.0000   1.0000   1.0000   1.0000   1.0000   1.0000   1.0000
     1.0000   1.0000   1.0000   1.0000   1.0000   1.0000   1.0000   1.0000
     1.0000   1.0000   1.0000   1.0000   1.0000   1.0000   1.0000   1.0000
     1.0000   1.0000   1.0000   1.0000   1.0000   1.0000   1.0000   1.0000
     1.0000   1.0000   1.0000   1.0000   1.0000   1.0000   1.0000   1.0000
     1.0000   1.0000   1.0000   1.0000   1.0000   1.0000   1.0000   1.0000
     1.0000   1.0000   1.0000   1.0000   1.0000   1.0000   1.0000   1.0000
     1.0000   1.0000   1.0000   1.0000   1.0000   1.0000   1.0000   1.0000
     1.0000   1.0000   1.0000   1.0000   1.0000   1.0000   1.0000   1.0000
     1.0000   1.0000   1.0000   1.0000   1.0000   1.0000   1.0000   1.0000
     1.0000   1.0000   1.0000   1.0000   1.0000   1.0000   1.0000   1.0000
     1.0000   1.0000   1.0000   1.0000   1.0000   1.0000   1.0000   1.0000
     1.0000   1.0000   1.0000   1.0000   1.0000   1.0000   1.0000   1.0000
     1.0000   1.0000   0.0000

          k =-0.4000 0.2309 0.0000 (112236 PWs)   bands (ev):

   -73.8143 -73.8104 -73.8073 -73.8054 -73.8026 -73.8023 -73.7989 -73.7967
   -73.7945 -73.7896 -73.7885 -73.7870 -73.7829 -73.7419 -73.7323 -73.7293
   -38.2009 -38.1983 -38.1849 -38.1797 -38.1730 -38.1574 -38.1552 -38.1391
   -38.1237 -38.1176 -38.0980 -38.0941 -38.0573 -38.0511 -38.0433 -38.0347
   -38.0244 -38.0205 -38.0078 -38.0075 -38.0057 -38.0037 -37.9998 -37.9968
   -37.9944 -37.9916 -37.9907 -37.9891 -37.9856 -37.9820 -37.9769 -37.9747
   -37.9678 -37.9605 -37.9578 -37.9518 -37.9453 -37.9425 -37.9400 -37.9368
   -37.9292 -37.9234 -37.9175 -37.9097 -37.9003 -37.8855 -37.8780 -37.8636
   -21.4701 -15.4130 -14.4322 -14.2299 -13.8658 -13.8556 -13.2458 -13.2406
   -13.0202 -12.9941 -12.9724 -12.9082 -12.8305 -12.7292 -12.7015 -12.6831
   -12.5307 -12.5047 -12.4588 -12.4507 -12.4285 -12.4231 -12.3842 -12.3613
   -12.3507 -12.2807 -12.2193 -12.1973 -12.1745 -12.1595 -12.1536 -12.1507
   -12.0548 -12.0387  -7.9158  -7.5176  -6.1667  -6.1247  -6.1027  -6.0848
    -6.0185  -5.8715  -5.8524  -5.8331  -5.7070  -5.5256  -5.5068  -5.4813
    -5.4502  -5.4425  -5.4346  -5.3858  -5.3765  -5.3134  -5.3058  -5.0759
    -5.0539  -5.0206  -5.0038  -4.7985  -4.5998  -4.5450  -4.4725  -4.4366
    -4.4088  -4.3688  -4.3488  -4.3051  -4.2412  -4.2179  -4.1924  -4.1572
    -4.1188  -4.1102  -4.0983  -4.0723  -4.0653  -4.0490  -4.0382  -3.6737
    -3.5633  -3.5155  -3.4697  -3.4508  -3.4207  -3.3911  -3.3527  -3.3136
    -3.2850  -3.2757  -3.2559  -3.2385  -3.2104  -3.1923  -3.1419  -3.1124
    -3.0633  -3.0325  -3.0065  -2.9455  -2.9263  -2.8944  -2.8201  -2.7600
    -2.7149  -2.6970  -2.6468  -2.6232  -2.5895  -2.5747  -2.5454  -2.4766
    -2.4242  -2.4185  -2.3888  -2.3264  -2.2750  -2.2472  -2.2389  -2.1612
    -2.1147  -2.0932  -2.0484  -2.0254  -2.0061  -1.9873  -1.9510  -1.9172
    -1.9035  -1.8905  -1.8802  -1.8625  -1.8541  -1.8460  -1.8346  -1.8162
    -1.7735  -1.7442  -1.7028  -1.6862  -1.6807  -1.6549  -1.6409  -1.6073
    -1.5808  -1.5487  -1.4921  -1.4639  -1.4420  -1.3483  -1.3198  -1.2906
    -1.2589  -1.2071  -1.1687  -1.1229  -1.1124  -1.0934  -1.0669  -0.9804
    -0.9532  -0.8699  -0.7283  -0.7120  -0.6340  -0.6168  -0.4967  -0.4487
    -0.4412  -0.4192  -0.3985  -0.3682  -0.2861  -0.0923   0.0073   0.0385
     0.1491   1.3750   1.6891

     occupation numbers 
     1.0000   1.0000   1.0000   1.0000   1.0000   1.0000   1.0000   1.0000
     1.0000   1.0000   1.0000   1.0000   1.0000   1.0000   1.0000   1.0000
     1.0000   1.0000   1.0000   1.0000   1.0000   1.0000   1.0000   1.0000
     1.0000   1.0000   1.0000   1.0000   1.0000   1.0000   1.0000   1.0000
     1.0000   1.0000   1.0000   1.0000   1.0000   1.0000   1.0000   1.0000
     1.0000   1.0000   1.0000   1.0000   1.0000   1.0000   1.0000   1.0000
     1.0000   1.0000   1.0000   1.0000   1.0000   1.0000   1.0000   1.0000
     1.0000   1.0000   1.0000   1.0000   1.0000   1.0000   1.0000   1.0000
     1.0000   1.0000   1.0000   1.0000   1.0000   1.0000   1.0000   1.0000
     1.0000   1.0000   1.0000   1.0000   1.0000   1.0000   1.0000   1.0000
     1.0000   1.0000   1.0000   1.0000   1.0000   1.0000   1.0000   1.0000
     1.0000   1.0000   1.0000   1.0000   1.0000   1.0000   1.0000   1.0000
     1.0000   1.0000   1.0000   1.0000   1.0000   1.0000   1.0000   1.0000
     1.0000   1.0000   1.0000   1.0000   1.0000   1.0000   1.0000   1.0000
     1.0000   1.0000   1.0000   1.0000   1.0000   1.0000   1.0000   1.0000
     1.0000   1.0000   1.0000   1.0000   1.0000   1.0000   1.0000   1.0000
     1.0000   1.0000   1.0000   1.0000   1.0000   1.0000   1.0000   1.0000
     1.0000   1.0000   1.0000   1.0000   1.0000   1.0000   1.0000   1.0000
     1.0000   1.0000   1.0000   1.0000   1.0000   1.0000   1.0000   1.0000
     1.0000   1.0000   1.0000   1.0000   1.0000   1.0000   1.0000   1.0000
     1.0000   1.0000   1.0000   1.0000   1.0000   1.0000   1.0000   1.0000
     1.0000   1.0000   1.0000   1.0000   1.0000   1.0000   1.0000   1.0000
     1.0000   1.0000   1.0000   1.0000   1.0000   1.0000   1.0000   1.0000
     1.0000   1.0000   1.0000   1.0000   1.0000   1.0000   1.0000   1.0000
     1.0000   1.0000   1.0000   1.0000   1.0000   1.0000   1.0000   1.0000
     1.0000   1.0000   1.0000   1.0000   1.0000   1.0000   1.0000   1.0000
     1.0000   1.0000   1.0000   1.0000   1.0000   1.0000   1.0000   1.0000
     1.0000   1.0000   1.0000   1.0000   1.0000   1.0000   1.0000   1.0000
     1.0000   1.0000   1.0000   1.0000   1.0000   1.0000   1.0000   1.0000
     1.0000   1.0000   1.0000   1.0000   1.0000   1.0000   1.0000   1.0000
     1.0000   1.0000   0.0000

          k = 0.4000 0.2309 0.0000 (112236 PWs)   bands (ev):

   -73.8142 -73.8106 -73.8072 -73.8054 -73.8028 -73.8018 -73.7994 -73.7967
   -73.7943 -73.7897 -73.7884 -73.7871 -73.7828 -73.7419 -73.7323 -73.7293
   -38.1996 -38.1991 -38.1854 -38.1811 -38.1714 -38.1567 -38.1555 -38.1399
   -38.1231 -38.1174 -38.0989 -38.0943 -38.0559 -38.0524 -38.0432 -38.0349
   -38.0249 -38.0188 -38.0083 -38.0074 -38.0062 -38.0039 -37.9999 -37.9973
   -37.9925 -37.9921 -37.9903 -37.9881 -37.9866 -37.9823 -37.9769 -37.9744
   -37.9695 -37.9599 -37.9581 -37.9513 -37.9443 -37.9427 -37.9403 -37.9358
   -37.9280 -37.9243 -37.9183 -37.9106 -37.8983 -37.8865 -37.8813 -37.8611
   -21.4701 -15.4130 -14.4321 -14.2301 -13.8653 -13.8560 -13.2454 -13.2418
   -13.0172 -12.9937 -12.9745 -12.9074 -12.8311 -12.7270 -12.7034 -12.6840
   -12.5384 -12.4969 -12.4629 -12.4480 -12.4275 -12.4231 -12.3848 -12.3599
   -12.3484 -12.2805 -12.2263 -12.1953 -12.1763 -12.1586 -12.1538 -12.1481
   -12.0520 -12.0413  -7.9158  -7.5176  -6.1665  -6.1155  -6.1063  -6.0834
    -6.0312  -5.8642  -5.8525  -5.8300  -5.7116  -5.5273  -5.5059  -5.4841
    -5.4455  -5.4443  -5.4364  -5.3854  -5.3783  -5.3110  -5.3046  -5.0687
    -5.0653  -5.0189  -5.0081  -4.7715  -4.6091  -4.5537  -4.4788  -4.4466
    -4.4150  -4.3680  -4.3450  -4.3014  -4.2356  -4.2222  -4.1881  -4.1545
    -4.1223  -4.1125  -4.0992  -4.0738  -4.0606  -4.0468  -4.0394  -3.6608
    -3.5574  -3.5165  -3.4586  -3.4449  -3.4246  -3.3950  -3.3550  -3.3218
    -3.2873  -3.2718  -3.2501  -3.2325  -3.2151  -3.1994  -3.1315  -3.1132
    -3.0721  -3.0530  -3.0131  -2.9460  -2.9245  -2.8988  -2.8282  -2.7607
    -2.7128  -2.6793  -2.6350  -2.6132  -2.6089  -2.5934  -2.5036  -2.4881
    -2.4495  -2.4252  -2.3669  -2.3265  -2.2693  -2.2537  -2.2384  -2.1418
    -2.1113  -2.0996  -2.0335  -2.0057  -1.9966  -1.9781  -1.9685  -1.9527
    -1.9261  -1.8956  -1.8812  -1.8607  -1.8479  -1.8424  -1.8338  -1.8113
    -1.7928  -1.7321  -1.7156  -1.6964  -1.6842  -1.6334  -1.6219  -1.6151
    -1.5915  -1.5445  -1.5020  -1.4893  -1.4075  -1.3561  -1.3032  -1.2842
    -1.2466  -1.2285  -1.1863  -1.1308  -1.1139  -1.0552  -1.0412  -0.9902
    -0.9662  -0.8774  -0.7245  -0.7184  -0.6335  -0.6230  -0.5046  -0.4522
    -0.4433  -0.4167  -0.4009  -0.3568  -0.2806  -0.0930   0.0093   0.0346
     0.1516   1.3588   1.7097

     occupation numbers 
     1.0000   1.0000   1.0000   1.0000   1.0000   1.0000   1.0000   1.0000
     1.0000   1.0000   1.0000   1.0000   1.0000   1.0000   1.0000   1.0000
     1.0000   1.0000   1.0000   1.0000   1.0000   1.0000   1.0000   1.0000
     1.0000   1.0000   1.0000   1.0000   1.0000   1.0000   1.0000   1.0000
     1.0000   1.0000   1.0000   1.0000   1.0000   1.0000   1.0000   1.0000
     1.0000   1.0000   1.0000   1.0000   1.0000   1.0000   1.0000   1.0000
     1.0000   1.0000   1.0000   1.0000   1.0000   1.0000   1.0000   1.0000
     1.0000   1.0000   1.0000   1.0000   1.0000   1.0000   1.0000   1.0000
     1.0000   1.0000   1.0000   1.0000   1.0000   1.0000   1.0000   1.0000
     1.0000   1.0000   1.0000   1.0000   1.0000   1.0000   1.0000   1.0000
     1.0000   1.0000   1.0000   1.0000   1.0000   1.0000   1.0000   1.0000
     1.0000   1.0000   1.0000   1.0000   1.0000   1.0000   1.0000   1.0000
     1.0000   1.0000   1.0000   1.0000   1.0000   1.0000   1.0000   1.0000
     1.0000   1.0000   1.0000   1.0000   1.0000   1.0000   1.0000   1.0000
     1.0000   1.0000   1.0000   1.0000   1.0000   1.0000   1.0000   1.0000
     1.0000   1.0000   1.0000   1.0000   1.0000   1.0000   1.0000   1.0000
     1.0000   1.0000   1.0000   1.0000   1.0000   1.0000   1.0000   1.0000
     1.0000   1.0000   1.0000   1.0000   1.0000   1.0000   1.0000   1.0000
     1.0000   1.0000   1.0000   1.0000   1.0000   1.0000   1.0000   1.0000
     1.0000   1.0000   1.0000   1.0000   1.0000   1.0000   1.0000   1.0000
     1.0000   1.0000   1.0000   1.0000   1.0000   1.0000   1.0000   1.0000
     1.0000   1.0000   1.0000   1.0000   1.0000   1.0000   1.0000   1.0000
     1.0000   1.0000   1.0000   1.0000   1.0000   1.0000   1.0000   1.0000
     1.0000   1.0000   1.0000   1.0000   1.0000   1.0000   1.0000   1.0000
     1.0000   1.0000   1.0000   1.0000   1.0000   1.0000   1.0000   1.0000
     1.0000   1.0000   1.0000   1.0000   1.0000   1.0000   1.0000   1.0000
     1.0000   1.0000   1.0000   1.0000   1.0000   1.0000   1.0000   1.0000
     1.0000   1.0000   1.0000   1.0000   1.0000   1.0000   1.0000   1.0000
     1.0000   1.0000   1.0000   1.0000   1.0000   1.0000   1.0000   1.0000
     1.0000   1.0000   1.0000   1.0000   1.0000   1.0000   1.0000   1.0000
     1.0000   1.0000   0.0000

          k =-0.2000 0.3464 0.0000 (112231 PWs)   bands (ev):

   -73.8143 -73.8103 -73.8075 -73.8052 -73.8031 -73.8020 -73.7988 -73.7966
   -73.7946 -73.7895 -73.7885 -73.7870 -73.7829 -73.7419 -73.7323 -73.7293
   -38.2059 -38.1973 -38.1947 -38.1727 -38.1676 -38.1595 -38.1491 -38.1424
   -38.1266 -38.1184 -38.1029 -38.0701 -38.0551 -38.0487 -38.0441 -38.0321
   -38.0278 -38.0226 -38.0173 -38.0162 -38.0111 -38.0050 -37.9993 -37.9970
   -37.9937 -37.9892 -37.9873 -37.9849 -37.9832 -37.9790 -37.9770 -37.9758
   -37.9699 -37.9680 -37.9578 -37.9525 -37.9496 -37.9473 -37.9379 -37.9346
   -37.9272 -37.9207 -37.9176 -37.9120 -37.8951 -37.8886 -37.8731 -37.8639
   -21.4701 -15.4130 -14.4719 -14.0983 -14.0581 -13.5706 -13.5538 -13.1703
   -13.1174 -13.0059 -12.9318 -12.8047 -12.7878 -12.7027 -12.6710 -12.6157
   -12.5819 -12.5749 -12.5668 -12.4519 -12.4240 -12.3906 -12.3768 -12.3078
   -12.2900 -12.2716 -12.2493 -12.2250 -12.2217 -12.1547 -12.1479 -12.1066
   -12.0945 -12.0341  -7.9158  -7.5176  -6.1854  -6.1685  -6.1328  -6.1175
    -6.0987  -5.7580  -5.7306  -5.7129  -5.6942  -5.6233  -5.5990  -5.5573
    -5.5037  -5.4727  -5.3519  -5.3262  -5.2956  -5.2622  -5.2377  -5.2156
    -5.0939  -4.9090  -4.8902  -4.7916  -4.7537  -4.5980  -4.5047  -4.4388
    -4.3911  -4.3403  -4.3304  -4.3046  -4.2778  -4.2560  -4.2409  -4.2221
    -4.1603  -4.1259  -4.1075  -4.0906  -4.0512  -3.7655  -3.7346  -3.7237
    -3.7043  -3.6867  -3.5995  -3.4999  -3.4146  -3.3763  -3.3651  -3.3008
    -3.2802  -3.2368  -3.2236  -3.1976  -3.1599  -3.1440  -3.1112  -3.0793
    -3.0526  -3.0017  -2.9562  -2.9388  -2.9238  -2.9190  -2.9086  -2.8945
    -2.7754  -2.7180  -2.6867  -2.6652  -2.5974  -2.5443  -2.5124  -2.4680
    -2.4522  -2.4007  -2.3803  -2.3562  -2.3128  -2.2077  -2.1900  -2.1459
    -2.1242  -2.1169  -2.0983  -2.0660  -2.0226  -1.9773  -1.9652  -1.9285
    -1.9026  -1.8903  -1.8591  -1.8422  -1.8163  -1.8093  -1.7871  -1.7625
    -1.7297  -1.7041  -1.6851  -1.6666  -1.6414  -1.6248  -1.5797  -1.5770
    -1.5550  -1.5438  -1.5186  -1.4933  -1.4262  -1.3892  -1.3780  -1.3382
    -1.2746  -1.2384  -1.1878  -1.1681  -1.1505  -1.1075  -1.0368  -0.9781
    -0.8711  -0.8271  -0.6820  -0.6652  -0.6289  -0.6188  -0.6034  -0.5339
    -0.5298  -0.4088  -0.3783  -0.2521  -0.1992  -0.1907  -0.1450   0.0804
     0.1638   1.3367   1.7181

     occupation numbers 
     1.0000   1.0000   1.0000   1.0000   1.0000   1.0000   1.0000   1.0000
     1.0000   1.0000   1.0000   1.0000   1.0000   1.0000   1.0000   1.0000
     1.0000   1.0000   1.0000   1.0000   1.0000   1.0000   1.0000   1.0000
     1.0000   1.0000   1.0000   1.0000   1.0000   1.0000   1.0000   1.0000
     1.0000   1.0000   1.0000   1.0000   1.0000   1.0000   1.0000   1.0000
     1.0000   1.0000   1.0000   1.0000   1.0000   1.0000   1.0000   1.0000
     1.0000   1.0000   1.0000   1.0000   1.0000   1.0000   1.0000   1.0000
     1.0000   1.0000   1.0000   1.0000   1.0000   1.0000   1.0000   1.0000
     1.0000   1.0000   1.0000   1.0000   1.0000   1.0000   1.0000   1.0000
     1.0000   1.0000   1.0000   1.0000   1.0000   1.0000   1.0000   1.0000
     1.0000   1.0000   1.0000   1.0000   1.0000   1.0000   1.0000   1.0000
     1.0000   1.0000   1.0000   1.0000   1.0000   1.0000   1.0000   1.0000
     1.0000   1.0000   1.0000   1.0000   1.0000   1.0000   1.0000   1.0000
     1.0000   1.0000   1.0000   1.0000   1.0000   1.0000   1.0000   1.0000
     1.0000   1.0000   1.0000   1.0000   1.0000   1.0000   1.0000   1.0000
     1.0000   1.0000   1.0000   1.0000   1.0000   1.0000   1.0000   1.0000
     1.0000   1.0000   1.0000   1.0000   1.0000   1.0000   1.0000   1.0000
     1.0000   1.0000   1.0000   1.0000   1.0000   1.0000   1.0000   1.0000
     1.0000   1.0000   1.0000   1.0000   1.0000   1.0000   1.0000   1.0000
     1.0000   1.0000   1.0000   1.0000   1.0000   1.0000   1.0000   1.0000
     1.0000   1.0000   1.0000   1.0000   1.0000   1.0000   1.0000   1.0000
     1.0000   1.0000   1.0000   1.0000   1.0000   1.0000   1.0000   1.0000
     1.0000   1.0000   1.0000   1.0000   1.0000   1.0000   1.0000   1.0000
     1.0000   1.0000   1.0000   1.0000   1.0000   1.0000   1.0000   1.0000
     1.0000   1.0000   1.0000   1.0000   1.0000   1.0000   1.0000   1.0000
     1.0000   1.0000   1.0000   1.0000   1.0000   1.0000   1.0000   1.0000
     1.0000   1.0000   1.0000   1.0000   1.0000   1.0000   1.0000   1.0000
     1.0000   1.0000   1.0000   1.0000   1.0000   1.0000   1.0000   1.0000
     1.0000   1.0000   1.0000   1.0000   1.0000   1.0000   1.0000   1.0000
     1.0000   1.0000   1.0000   1.0000   1.0000   1.0000   1.0000   1.0000
     1.0000   1.0000   0.0000

          k = 0.4000-0.0000 0.0000 (112231 PWs)   bands (ev):

   -73.8143 -73.8105 -73.8072 -73.8054 -73.8026 -73.8022 -73.7992 -73.7967
   -73.7943 -73.7896 -73.7884 -73.7871 -73.7829 -73.7419 -73.7323 -73.7293
   -38.2060 -38.1969 -38.1952 -38.1724 -38.1687 -38.1593 -38.1489 -38.1414
   -38.1253 -38.1169 -38.1064 -38.0711 -38.0540 -38.0483 -38.0440 -38.0330
   -38.0265 -38.0232 -38.0182 -38.0162 -38.0111 -38.0060 -37.9997 -37.9953
   -37.9931 -37.9895 -37.9870 -37.9856 -37.9826 -37.9800 -37.9769 -37.9760
   -37.9693 -37.9662 -37.9584 -37.9530 -37.9505 -37.9463 -37.9378 -37.9360
   -37.9254 -37.9207 -37.9175 -37.9104 -37.8965 -37.8900 -37.8740 -37.8623
   -21.4701 -15.4130 -14.4720 -14.0961 -14.0604 -13.5641 -13.5610 -13.1665
   -13.1196 -13.0096 -12.9263 -12.8018 -12.7907 -12.7068 -12.6786 -12.6002
   -12.5963 -12.5722 -12.5578 -12.4542 -12.4204 -12.4090 -12.3623 -12.3060
   -12.2904 -12.2684 -12.2514 -12.2336 -12.2187 -12.1554 -12.1452 -12.1050
   -12.0954 -12.0345  -7.9158  -7.5176  -6.1761  -6.1725  -6.1380  -6.1131
    -6.1047  -5.7506  -5.7357  -5.7170  -5.6819  -5.6307  -5.6045  -5.5561
    -5.5014  -5.4701  -5.3482  -5.3315  -5.2867  -5.2681  -5.2400  -5.2246
    -5.0932  -4.8964  -4.8835  -4.8051  -4.7530  -4.5613  -4.5285  -4.4537
    -4.4036  -4.3422  -4.3343  -4.3077  -4.2726  -4.2607  -4.2384  -4.2055
    -4.1715  -4.1145  -4.1062  -4.0869  -4.0507  -3.7559  -3.7292  -3.7226
    -3.7027  -3.6933  -3.6101  -3.4791  -3.4237  -3.3918  -3.3655  -3.3115
    -3.2767  -3.2402  -3.2277  -3.1973  -3.1693  -3.1391  -3.1190  -3.0755
    -3.0325  -2.9854  -2.9625  -2.9439  -2.9355  -2.9124  -2.8976  -2.8888
    -2.7630  -2.7341  -2.6890  -2.6389  -2.6101  -2.5654  -2.5261  -2.4618
    -2.4556  -2.4102  -2.3793  -2.3354  -2.3118  -2.2145  -2.1740  -2.1456
    -2.1221  -2.1177  -2.0960  -2.0837  -1.9952  -1.9780  -1.9646  -1.9316
    -1.9162  -1.8909  -1.8683  -1.8551  -1.8387  -1.8130  -1.7744  -1.7530
    -1.7264  -1.6985  -1.6818  -1.6653  -1.6442  -1.6175  -1.5867  -1.5671
    -1.5481  -1.5386  -1.5191  -1.4919  -1.4405  -1.4026  -1.3583  -1.3300
    -1.2773  -1.2526  -1.1934  -1.1717  -1.1450  -1.0966  -1.0376  -0.9774
    -0.8608  -0.8414  -0.6764  -0.6677  -0.6290  -0.6153  -0.6073  -0.5332
    -0.5286  -0.4270  -0.3717  -0.2448  -0.2000  -0.1859  -0.1480   0.0779
     0.1634   1.3669   1.6855

     occupation numbers 
     1.0000   1.0000   1.0000   1.0000   1.0000   1.0000   1.0000   1.0000
     1.0000   1.0000   1.0000   1.0000   1.0000   1.0000   1.0000   1.0000
     1.0000   1.0000   1.0000   1.0000   1.0000   1.0000   1.0000   1.0000
     1.0000   1.0000   1.0000   1.0000   1.0000   1.0000   1.0000   1.0000
     1.0000   1.0000   1.0000   1.0000   1.0000   1.0000   1.0000   1.0000
     1.0000   1.0000   1.0000   1.0000   1.0000   1.0000   1.0000   1.0000
     1.0000   1.0000   1.0000   1.0000   1.0000   1.0000   1.0000   1.0000
     1.0000   1.0000   1.0000   1.0000   1.0000   1.0000   1.0000   1.0000
     1.0000   1.0000   1.0000   1.0000   1.0000   1.0000   1.0000   1.0000
     1.0000   1.0000   1.0000   1.0000   1.0000   1.0000   1.0000   1.0000
     1.0000   1.0000   1.0000   1.0000   1.0000   1.0000   1.0000   1.0000
     1.0000   1.0000   1.0000   1.0000   1.0000   1.0000   1.0000   1.0000
     1.0000   1.0000   1.0000   1.0000   1.0000   1.0000   1.0000   1.0000
     1.0000   1.0000   1.0000   1.0000   1.0000   1.0000   1.0000   1.0000
     1.0000   1.0000   1.0000   1.0000   1.0000   1.0000   1.0000   1.0000
     1.0000   1.0000   1.0000   1.0000   1.0000   1.0000   1.0000   1.0000
     1.0000   1.0000   1.0000   1.0000   1.0000   1.0000   1.0000   1.0000
     1.0000   1.0000   1.0000   1.0000   1.0000   1.0000   1.0000   1.0000
     1.0000   1.0000   1.0000   1.0000   1.0000   1.0000   1.0000   1.0000
     1.0000   1.0000   1.0000   1.0000   1.0000   1.0000   1.0000   1.0000
     1.0000   1.0000   1.0000   1.0000   1.0000   1.0000   1.0000   1.0000
     1.0000   1.0000   1.0000   1.0000   1.0000   1.0000   1.0000   1.0000
     1.0000   1.0000   1.0000   1.0000   1.0000   1.0000   1.0000   1.0000
     1.0000   1.0000   1.0000   1.0000   1.0000   1.0000   1.0000   1.0000
     1.0000   1.0000   1.0000   1.0000   1.0000   1.0000   1.0000   1.0000
     1.0000   1.0000   1.0000   1.0000   1.0000   1.0000   1.0000   1.0000
     1.0000   1.0000   1.0000   1.0000   1.0000   1.0000   1.0000   1.0000
     1.0000   1.0000   1.0000   1.0000   1.0000   1.0000   1.0000   1.0000
     1.0000   1.0000   1.0000   1.0000   1.0000   1.0000   1.0000   1.0000
     1.0000   1.0000   1.0000   1.0000   1.0000   1.0000   1.0000   1.0000
     1.0000   1.0000   0.0000

          k =-0.4000 0.4619 0.0000 (112237 PWs)   bands (ev):

   -73.8142 -73.8105 -73.8075 -73.8053 -73.8028 -73.8021 -73.7989 -73.7967
   -73.7945 -73.7896 -73.7884 -73.7870 -73.7829 -73.7419 -73.7323 -73.7293
   -38.1963 -38.1902 -38.1804 -38.1778 -38.1702 -38.1663 -38.1583 -38.1434
   -38.1396 -38.1234 -38.0870 -38.0839 -38.0780 -38.0450 -38.0415 -38.0358
   -38.0286 -38.0248 -38.0161 -38.0079 -38.0054 -38.0006 -37.9985 -37.9964
   -37.9945 -37.9933 -37.9900 -37.9855 -37.9821 -37.9768 -37.9695 -37.9662
   -37.9607 -37.9559 -37.9531 -37.9514 -37.9498 -37.9430 -37.9385 -37.9367
   -37.9310 -37.9243 -37.9199 -37.9166 -37.9059 -37.8874 -37.8748 -37.8669
   -21.4701 -15.4130 -14.3338 -14.2877 -14.1127 -13.5931 -13.2944 -13.2916
   -12.9557 -12.9453 -12.8827 -12.8541 -12.8249 -12.7994 -12.7940 -12.6612
   -12.6321 -12.5935 -12.4909 -12.4811 -12.3845 -12.3722 -12.3445 -12.3230
   -12.3083 -12.2963 -12.2584 -12.2329 -12.2278 -12.1314 -12.1185 -12.1128
   -12.0783 -12.0150  -7.9158  -7.5176  -6.1632  -6.0454  -6.0122  -5.9655
    -5.9102  -5.8863  -5.8729  -5.8545  -5.8054  -5.7410  -5.6820  -5.6213
    -5.6059  -5.5379  -5.3541  -5.2785  -5.2430  -5.2125  -5.1968  -5.1643
    -5.1530  -4.8488  -4.8281  -4.7377  -4.6164  -4.5805  -4.5387  -4.5178
    -4.4848  -4.4195  -4.3776  -4.3196  -4.3024  -4.2380  -4.2232  -4.2037
    -4.1890  -4.1595  -4.1176  -4.0909  -3.9519  -3.9439  -3.7848  -3.6620
    -3.6110  -3.5832  -3.4219  -3.3859  -3.3504  -3.3177  -3.2986  -3.2748
    -3.2697  -3.2612  -3.2375  -3.2260  -3.2158  -3.2078  -3.1399  -3.1163
    -3.0907  -3.0739  -3.0539  -3.0352  -2.9810  -2.9185  -2.8371  -2.7968
    -2.7297  -2.7020  -2.6852  -2.6616  -2.6051  -2.5791  -2.4852  -2.4050
    -2.3889  -2.3201  -2.3160  -2.3095  -2.2590  -2.1800  -2.1656  -2.1488
    -2.1281  -2.0831  -2.0688  -2.0397  -2.0175  -1.9641  -1.9509  -1.9350
    -1.9222  -1.9086  -1.8851  -1.8711  -1.8579  -1.8471  -1.8400  -1.8326
    -1.8057  -1.7805  -1.7431  -1.7154  -1.6936  -1.6765  -1.6544  -1.6387
    -1.6129  -1.5715  -1.5192  -1.4939  -1.4741  -1.4522  -1.4027  -1.3009
    -1.2659  -1.2261  -1.1584  -1.1091  -1.0865  -1.0660  -1.0330  -0.9502
    -0.8086  -0.7807  -0.6946  -0.6839  -0.6500  -0.6369  -0.5938  -0.5744
    -0.5578  -0.3924  -0.2720  -0.2672  -0.1688  -0.1127  -0.0700   0.1216
     0.1949   1.3747   1.6998

     occupation numbers 
     1.0000   1.0000   1.0000   1.0000   1.0000   1.0000   1.0000   1.0000
     1.0000   1.0000   1.0000   1.0000   1.0000   1.0000   1.0000   1.0000
     1.0000   1.0000   1.0000   1.0000   1.0000   1.0000   1.0000   1.0000
     1.0000   1.0000   1.0000   1.0000   1.0000   1.0000   1.0000   1.0000
     1.0000   1.0000   1.0000   1.0000   1.0000   1.0000   1.0000   1.0000
     1.0000   1.0000   1.0000   1.0000   1.0000   1.0000   1.0000   1.0000
     1.0000   1.0000   1.0000   1.0000   1.0000   1.0000   1.0000   1.0000
     1.0000   1.0000   1.0000   1.0000   1.0000   1.0000   1.0000   1.0000
     1.0000   1.0000   1.0000   1.0000   1.0000   1.0000   1.0000   1.0000
     1.0000   1.0000   1.0000   1.0000   1.0000   1.0000   1.0000   1.0000
     1.0000   1.0000   1.0000   1.0000   1.0000   1.0000   1.0000   1.0000
     1.0000   1.0000   1.0000   1.0000   1.0000   1.0000   1.0000   1.0000
     1.0000   1.0000   1.0000   1.0000   1.0000   1.0000   1.0000   1.0000
     1.0000   1.0000   1.0000   1.0000   1.0000   1.0000   1.0000   1.0000
     1.0000   1.0000   1.0000   1.0000   1.0000   1.0000   1.0000   1.0000
     1.0000   1.0000   1.0000   1.0000   1.0000   1.0000   1.0000   1.0000
     1.0000   1.0000   1.0000   1.0000   1.0000   1.0000   1.0000   1.0000
     1.0000   1.0000   1.0000   1.0000   1.0000   1.0000   1.0000   1.0000
     1.0000   1.0000   1.0000   1.0000   1.0000   1.0000   1.0000   1.0000
     1.0000   1.0000   1.0000   1.0000   1.0000   1.0000   1.0000   1.0000
     1.0000   1.0000   1.0000   1.0000   1.0000   1.0000   1.0000   1.0000
     1.0000   1.0000   1.0000   1.0000   1.0000   1.0000   1.0000   1.0000
     1.0000   1.0000   1.0000   1.0000   1.0000   1.0000   1.0000   1.0000
     1.0000   1.0000   1.0000   1.0000   1.0000   1.0000   1.0000   1.0000
     1.0000   1.0000   1.0000   1.0000   1.0000   1.0000   1.0000   1.0000
     1.0000   1.0000   1.0000   1.0000   1.0000   1.0000   1.0000   1.0000
     1.0000   1.0000   1.0000   1.0000   1.0000   1.0000   1.0000   1.0000
     1.0000   1.0000   1.0000   1.0000   1.0000   1.0000   1.0000   1.0000
     1.0000   1.0000   1.0000   1.0000   1.0000   1.0000   1.0000   1.0000
     1.0000   1.0000   1.0000   1.0000   1.0000   1.0000   1.0000   1.0000
     1.0000   1.0000   0.0000

          k = 0.6000 0.1155 0.0000 (112237 PWs)   bands (ev):

   -73.8142 -73.8106 -73.8074 -73.8053 -73.8028 -73.8018 -73.7992 -73.7967
   -73.7943 -73.7897 -73.7884 -73.7871 -73.7829 -73.7419 -73.7323 -73.7293
   -38.1953 -38.1910 -38.1812 -38.1780 -38.1696 -38.1659 -38.1581 -38.1434
   -38.1401 -38.1231 -38.0870 -38.0844 -38.0785 -38.0437 -38.0416 -38.0360
   -38.0285 -38.0252 -38.0151 -38.0085 -38.0059 -38.0002 -37.9989 -37.9970
   -37.9946 -37.9920 -37.9899 -37.9859 -37.9822 -37.9768 -37.9696 -37.9656
   -37.9620 -37.9557 -37.9529 -37.9517 -37.9491 -37.9436 -37.9381 -37.9354
   -37.9300 -37.9247 -37.9199 -37.9179 -37.9054 -37.8883 -37.8770 -37.8645
   -21.4701 -15.4130 -14.3333 -14.2883 -14.1126 -13.5931 -13.3019 -13.2841
   -12.9622 -12.9385 -12.8778 -12.8579 -12.8250 -12.7995 -12.7949 -12.6642
   -12.6307 -12.5917 -12.5010 -12.4707 -12.3914 -12.3684 -12.3407 -12.3192
   -12.3085 -12.2983 -12.2618 -12.2333 -12.2287 -12.1293 -12.1192 -12.1131
   -12.0777 -12.0153  -7.9158  -7.5176  -6.1632  -6.0420  -6.0088  -5.9636
    -5.9208  -5.9030  -5.8737  -5.8315  -5.8042  -5.7460  -5.6842  -5.6189
    -5.6082  -5.5343  -5.3525  -5.2757  -5.2515  -5.2196  -5.1936  -5.1673
    -5.1443  -4.8510  -4.8348  -4.6876  -4.6407  -4.6026  -4.5455  -4.5089
    -4.4852  -4.4297  -4.3773  -4.3170  -4.2949  -4.2383  -4.2285  -4.1949
    -4.1861  -4.1635  -4.1171  -4.0928  -3.9537  -3.9430  -3.7816  -3.6599
    -3.6128  -3.5747  -3.4230  -3.3635  -3.3541  -3.3257  -3.2913  -3.2818
    -3.2787  -3.2546  -3.2395  -3.2283  -3.2164  -3.1962  -3.1705  -3.1360
    -3.0818  -3.0729  -3.0499  -3.0142  -2.9846  -2.9299  -2.8337  -2.7960
    -2.7349  -2.7128  -2.6907  -2.6357  -2.6171  -2.5424  -2.4960  -2.4504
    -2.3844  -2.3266  -2.3112  -2.2890  -2.2399  -2.1915  -2.1677  -2.1359
    -2.1125  -2.0933  -2.0709  -2.0308  -2.0063  -1.9733  -1.9579  -1.9452
    -1.9263  -1.8964  -1.8919  -1.8747  -1.8641  -1.8554  -1.8481  -1.8324
    -1.7989  -1.7837  -1.7340  -1.7221  -1.6884  -1.6812  -1.6486  -1.6296
    -1.6122  -1.5918  -1.5239  -1.5107  -1.4653  -1.4250  -1.3884  -1.3127
    -1.2743  -1.2185  -1.1519  -1.1310  -1.0908  -1.0456  -1.0094  -0.9699
    -0.8052  -0.7846  -0.6911  -0.6887  -0.6505  -0.6446  -0.5931  -0.5868
    -0.5437  -0.3938  -0.2747  -0.2609  -0.1665  -0.1160  -0.0693   0.1220
     0.1953   1.3650   1.7118

     occupation numbers 
     1.0000   1.0000   1.0000   1.0000   1.0000   1.0000   1.0000   1.0000
     1.0000   1.0000   1.0000   1.0000   1.0000   1.0000   1.0000   1.0000
     1.0000   1.0000   1.0000   1.0000   1.0000   1.0000   1.0000   1.0000
     1.0000   1.0000   1.0000   1.0000   1.0000   1.0000   1.0000   1.0000
     1.0000   1.0000   1.0000   1.0000   1.0000   1.0000   1.0000   1.0000
     1.0000   1.0000   1.0000   1.0000   1.0000   1.0000   1.0000   1.0000
     1.0000   1.0000   1.0000   1.0000   1.0000   1.0000   1.0000   1.0000
     1.0000   1.0000   1.0000   1.0000   1.0000   1.0000   1.0000   1.0000
     1.0000   1.0000   1.0000   1.0000   1.0000   1.0000   1.0000   1.0000
     1.0000   1.0000   1.0000   1.0000   1.0000   1.0000   1.0000   1.0000
     1.0000   1.0000   1.0000   1.0000   1.0000   1.0000   1.0000   1.0000
     1.0000   1.0000   1.0000   1.0000   1.0000   1.0000   1.0000   1.0000
     1.0000   1.0000   1.0000   1.0000   1.0000   1.0000   1.0000   1.0000
     1.0000   1.0000   1.0000   1.0000   1.0000   1.0000   1.0000   1.0000
     1.0000   1.0000   1.0000   1.0000   1.0000   1.0000   1.0000   1.0000
     1.0000   1.0000   1.0000   1.0000   1.0000   1.0000   1.0000   1.0000
     1.0000   1.0000   1.0000   1.0000   1.0000   1.0000   1.0000   1.0000
     1.0000   1.0000   1.0000   1.0000   1.0000   1.0000   1.0000   1.0000
     1.0000   1.0000   1.0000   1.0000   1.0000   1.0000   1.0000   1.0000
     1.0000   1.0000   1.0000   1.0000   1.0000   1.0000   1.0000   1.0000
     1.0000   1.0000   1.0000   1.0000   1.0000   1.0000   1.0000   1.0000
     1.0000   1.0000   1.0000   1.0000   1.0000   1.0000   1.0000   1.0000
     1.0000   1.0000   1.0000   1.0000   1.0000   1.0000   1.0000   1.0000
     1.0000   1.0000   1.0000   1.0000   1.0000   1.0000   1.0000   1.0000
     1.0000   1.0000   1.0000   1.0000   1.0000   1.0000   1.0000   1.0000
     1.0000   1.0000   1.0000   1.0000   1.0000   1.0000   1.0000   1.0000
     1.0000   1.0000   1.0000   1.0000   1.0000   1.0000   1.0000   1.0000
     1.0000   1.0000   1.0000   1.0000   1.0000   1.0000   1.0000   1.0000
     1.0000   1.0000   1.0000   1.0000   1.0000   1.0000   1.0000   1.0000
     1.0000   1.0000   1.0000   1.0000   1.0000   1.0000   1.0000   1.0000
     1.0000   1.0000   0.0000

     highest occupied, lowest unoccupied level (ev):     1.6175    1.6761

!    total energy              =  -16138.55548002 Ry
     total all-electron energy =   -595550.628685 Ry
     estimated scf accuracy    <          1.8E-11 Ry

     The total energy is the sum of the following terms:
     one-electron contribution =  -18311.63187110 Ry
     hartree contribution      =    9259.59533171 Ry
     xc contribution           =    -931.72994490 Ry
     ewald contribution        =    6415.20090482 Ry
     DFT-D3 Dispersion         =      -0.65558516 Ry
     one-center paw contrib.   =  -12569.33431538 Ry
      -> PAW hartree energy AE =      92.00276972 Ry
      -> PAW hartree energy PS =     -91.51071593 Ry
      -> PAW xc energy AE      =    -644.66490759 Ry
      -> PAW xc energy PS      =      38.62150896 Ry
      -> total E_H with PAW    =    9260.08738549 Ry
      -> total E_XC with PAW   =   -1537.77334352 Ry

     total magnetization       =     1.00 Bohr mag/cell
     absolute magnetization    =     1.12 Bohr mag/cell

     convergence has been achieved in  35 iterations

     negative rho (up, down):  4.795E-03 5.163E-03

     Forces acting on atoms (cartesian axes, Ry/au):

     atom    1 type  2   force =    -0.00000296   -0.00007861   -0.00014670
     atom    2 type  2   force =    -0.00019121    0.00001814    0.00013152
     atom    3 type  2   force =    -0.00025012   -0.00016341    0.00000415
     atom    4 type  2   force =     0.00028017    0.00027679    0.00004955
     atom    5 type  2   force =    -0.00001009   -0.00022503    0.00000144
     atom    6 type  2   force =    -0.00000982    0.00004290   -0.00000831
     atom    7 type  2   force =     0.00004876   -0.00002043    0.00008992
     atom    8 type  2   force =     0.00013827    0.00007225    0.00007012
     atom    9 type  2   force =    -0.00021699   -0.00007543    0.00005878
     atom   10 type  2   force =     0.00008470    0.00009539    0.00009265
     atom   11 type  2   force =    -0.00003530    0.00021430    0.00000565
     atom   12 type  2   force =    -0.00000724    0.00006981   -0.00013545
     atom   13 type  2   force =    -0.00013515    0.00015872    0.00008132
     atom   14 type  2   force =     0.00011459    0.00000547   -0.00000619
     atom   15 type  2   force =    -0.00001101   -0.00015857   -0.00007966
     atom   16 type  2   force =    -0.00023943   -0.00016049   -0.00004257
     atom   17 type  1   force =    -0.00008947    0.00017507   -0.00002101
     atom   18 type  1   force =    -0.00005864   -0.00018630   -0.00006664
     atom   19 type  1   force =    -0.00010917    0.00010925   -0.00003390
     atom   20 type  1   force =     0.00012597   -0.00002184   -0.00006866
     atom   21 type  1   force =    -0.00008603    0.00000688    0.00005337
     atom   22 type  1   force =    -0.00003368    0.00000759   -0.00034012
     atom   23 type  1   force =    -0.00006153    0.00001406    0.00004426
     atom   24 type  1   force =     0.00012083    0.00000165    0.00001570
     atom   25 type  1   force =    -0.00002028   -0.00003858    0.00001835
     atom   26 type  1   force =     0.00004948   -0.00007805   -0.00008428
     atom   27 type  1   force =     0.00009046    0.00007746   -0.00003953
     atom   28 type  1   force =    -0.00027680    0.00003222   -0.00036665
     atom   29 type  1   force =    -0.00002042   -0.00012634   -0.00012579
     atom   30 type  1   force =    -0.00007586   -0.00000613    0.00008055
     atom   31 type  1   force =    -0.00020501   -0.00006624   -0.00003848
     atom   32 type  1   force =     0.00025016    0.00007942   -0.00016843
     atom   33 type  1   force =     0.00002604    0.00005136   -0.00015846
     atom   34 type  1   force =     0.00000965    0.00006518    0.00004298
     atom   35 type  1   force =     0.00002216    0.00000033   -0.00003518
     atom   36 type  1   force =    -0.00003612   -0.00004480    0.00004621
     atom   37 type  1   force =    -0.00011299    0.00001687   -0.00012348
     atom   38 type  1   force =     0.00009225   -0.00015935    0.00000874
     atom   39 type  1   force =     0.00014528    0.00003141    0.00003536
     atom   40 type  1   force =     0.00011053   -0.00003078    0.00007038
     atom   41 type  1   force =    -0.00011717    0.00005164    0.00006574
     atom   42 type  1   force =     0.00004347    0.00005758    0.00000250
     atom   43 type  1   force =    -0.00025107    0.00000434    0.00014815
     atom   44 type  1   force =    -0.00007735    0.00009750   -0.00037002
     atom   45 type  1   force =    -0.00009866   -0.00004280    0.00005227
     atom   46 type  1   force =     0.00000872    0.00004027   -0.00015291
     atom   47 type  1   force =    -0.00004475   -0.00017305   -0.00015425
     atom   48 type  1   force =    -0.00002787    0.00004601    0.00015078
     atom   49 type  3   force =     0.00093101    0.00003645   -0.00020347
     atom   50 type  3   force =    -0.00028886   -0.00079780    0.00055534
     atom   51 type  3   force =    -0.00037600   -0.00011470   -0.00012549
     atom   52 type  3   force =     0.00043589    0.00033812    0.00053919
     atom   53 type  3   force =    -0.00040953    0.00038817    0.00029458
     atom   54 type  4   force =    -0.00088993   -0.00433107    0.00022089
     atom   55 type  5   force =     0.00223930    0.00428970   -0.00536932
     atom   56 type  6   force =    -0.00173215    0.00057162   -0.00010640
     atom   57 type  6   force =    -0.00042396   -0.00120897    0.00513503
     atom   58 type  6   force =     0.00166489    0.00076485    0.00040587
     The non-local contrib.  to forces
     atom    1 type  2   force =    -0.00047559    0.00023839   -0.00009543
     atom    2 type  2   force =     0.00035542   -0.00014842   -0.00019609
     atom    3 type  2   force =    -0.00390505   -0.00386078    0.00604164
     atom    4 type  2   force =    -0.00236745   -0.00005106    0.00309548
     atom    5 type  2   force =    -0.00054811    0.00926608    0.00835826
     atom    6 type  2   force =     0.00405551   -0.00044477    0.01270357
     atom    7 type  2   force =     0.00360138   -0.00282153    0.00571884
     atom    8 type  2   force =     0.00048043    0.00022004    0.00051677
     atom    9 type  2   force =     0.00018558    0.00103529    0.00331668
     atom   10 type  2   force =    -0.00362728    0.00166206    0.01381836
     atom   11 type  2   force =    -0.00040286   -0.00030994    0.01550901
     atom   12 type  2   force =     0.00589016   -0.00340790    0.00757054
     atom   13 type  2   force =    -0.00013360    0.00028853   -0.00031700
     atom   14 type  2   force =     0.00074767    0.00162445    0.00307852
     atom   15 type  2   force =    -0.00071487   -0.00210027    0.00704381
     atom   16 type  2   force =    -0.00286045   -0.00023699    0.00573480
     atom   17 type  1   force =     0.00083832    0.00126395   -0.27572176
     atom   18 type  1   force =     0.00428447    0.00239989   -0.27658489
     atom   19 type  1   force =     0.00094834    0.00009728   -0.27534822
     atom   20 type  1   force =    -0.00088129   -0.00064129   -0.27641351
     atom   21 type  1   force =    -0.00026981    0.00141288   -0.27546185
     atom   22 type  1   force =     0.01187679    0.02358169   -0.15676099
     atom   23 type  1   force =    -0.00167125   -0.00215310   -0.18675146
     atom   24 type  1   force =     0.00274208   -0.00128601   -0.27540313
     atom   25 type  1   force =     0.00010995   -0.00086818   -0.27674886
     atom   26 type  1   force =     0.00285487    0.00951076   -0.25648634
     atom   27 type  1   force =     0.01817357    0.00618952   -0.22553409
     atom   28 type  1   force =     0.01936813   -0.01740855   -0.19307696
     atom   29 type  1   force =     0.00088898   -0.00184618   -0.27492154
     atom   30 type  1   force =    -0.00195687    0.00125172   -0.27604625
     atom   31 type  1   force =    -0.02392049   -0.01160838   -0.21280396
     atom   32 type  1   force =    -0.00974741   -0.00785237   -0.24420438
     atom   33 type  1   force =    -0.00022915    0.00030886    0.27623140
     atom   34 type  1   force =     0.00171802    0.00243210    0.27673699
     atom   35 type  1   force =     0.00154104   -0.00049028    0.27628466
     atom   36 type  1   force =    -0.00083100   -0.00082657    0.27581669
     atom   37 type  1   force =     0.00033253    0.00197186    0.27562107
     atom   38 type  1   force =     0.00296070    0.00258554    0.27716664
     atom   39 type  1   force =     0.00248668    0.00066765    0.27703531
     atom   40 type  1   force =     0.00205105   -0.00164275    0.27530712
     atom   41 type  1   force =     0.00022071    0.00048209    0.27665362
     atom   42 type  1   force =    -0.00264391    0.00246735    0.27560522
     atom   43 type  1   force =    -0.00192510   -0.00055552    0.27975631
     atom   44 type  1   force =     0.00088942   -0.00429591    0.27701654
     atom   45 type  1   force =    -0.00063596   -0.00172548    0.27610515
     atom   46 type  1   force =    -0.00124717   -0.00047847    0.27628256
     atom   47 type  1   force =    -0.00341894   -0.00009048    0.27527152
     atom   48 type  1   force =    -0.00234770   -0.00163674    0.27540946
     atom   49 type  3   force =    -0.18420701    0.03119206   -0.06053851
     atom   50 type  3   force =    -0.00844011   -0.13026186   -0.07488104
     atom   51 type  3   force =     0.19397919   -0.01610101   -0.09607554
     atom   52 type  3   force =     0.02023682    0.14043975   -0.09324308
     atom   53 type  3   force =     0.02062708    0.02836713    0.14831181
     atom   54 type  4   force =    -0.86066148   -0.28250509    0.93152608
     atom   55 type  5   force =     1.86860887    0.61300756   -1.49852838
     atom   56 type  6   force =    -0.00687248   -0.07200103   -0.06508123
     atom   57 type  6   force =     0.01141232   -0.01654482    0.09742752
     atom   58 type  6   force =    -0.02949645    0.08352891   -0.04091825
     The ionic contribution  to forces
     atom    1 type  2   force =    -0.93970123   -0.19596223   -8.51293789
     atom    2 type  2   force =    -0.97130462   -1.15657983   -8.88032044
     atom    3 type  2   force =     1.92239822    0.65036643   -9.43954935
     atom    4 type  2   force =     1.76649119    1.72421553   -9.24170646
     atom    5 type  2   force =    -0.75997849   -3.39426094  -10.32629760
     atom    6 type  2   force =    -3.93394283   -3.11101906  -14.38198478
     atom    7 type  2   force =    -3.78888443    1.11597169  -12.06248987
     atom    8 type  2   force =    -0.45909841    0.22211998   -8.34385911
     atom    9 type  2   force =     1.12868866   -2.55093252  -10.29931310
     atom   10 type  2   force =     1.18916322   -3.57150287  -19.43203120
     atom   11 type  2   force =    -2.00149381    2.17509953  -20.50146339
     atom   12 type  2   force =    -1.90152734    2.98526482  -10.56583640
     atom   13 type  2   force =     0.52947080    0.57598730   -8.41987714
     atom   14 type  2   force =     3.83228640   -2.05728213  -11.86163905
     atom   15 type  2   force =     3.84696584    1.90236030  -17.31802658
     atom   16 type  2   force =     0.57118127    4.70714309  -12.98701089
     atom   17 type  1   force =    -0.14021754   -0.66204506   32.26004296
     atom   18 type  1   force =    -2.24155854   -1.69620703   31.29234697
     atom   19 type  1   force =    -1.12770109    0.05323711   31.69872029
     atom   20 type  1   force =     1.01176378    0.86366258   32.41898830
     atom   21 type  1   force =     0.17440723   -1.94650592   32.03427903
     atom   22 type  1   force =    -2.23750233   -5.30449674   25.62061915
     atom   23 type  1   force =    -4.76112845    0.06400903   24.69113849
     atom   24 type  1   force =    -2.11281016    1.73099188   31.40588932
     atom   25 type  1   force =    -0.02595562    0.43181651   32.25612518
     atom   26 type  1   force =     2.91789778   -4.06816689   28.41094202
     atom   27 type  1   force =     1.27420410   -0.00784767   20.49399817
     atom   28 type  1   force =    -2.26307101    5.24383065   26.48624569
     atom   29 type  1   force =     0.01915856    1.75599575   32.08032317
     atom   30 type  1   force =     1.12851067   -0.96854468   32.14814987
     atom   31 type  1   force =     4.85879742    0.33680639   28.22803415
     atom   32 type  1   force =     3.17814986    3.98367289   28.83946465
     atom   33 type  1   force =    -0.05129198   -0.12682892  -39.08014489
     atom   34 type  1   force =    -0.56954450   -0.42779192  -39.19381846
     atom   35 type  1   force =    -0.28916634   -0.04243777  -39.24752278
     atom   36 type  1   force =     0.27307030    0.22236221  -39.08994312
     atom   37 type  1   force =    -0.01831501   -0.48739524  -39.20276198
     atom   38 type  1   force =    -0.41726749   -0.93178890  -40.31580120
     atom   39 type  1   force =    -0.90997920   -0.05686048  -40.68650703
     atom   40 type  1   force =    -0.52216449    0.40397406  -39.34391287
     atom   41 type  1   force =     0.05825278    0.12820404  -39.16751053
     atom   42 type  1   force =     0.64047982   -0.72202045  -40.20946350
     atom   43 type  1   force =     0.29415359    0.05147615  -41.17795647
     atom   44 type  1   force =    -0.25870927    0.97337673  -40.32975642
     atom   45 type  1   force =     0.01542159    0.50310592  -39.10192882
     atom   46 type  1   force =     0.32784138   -0.23270755  -39.01143856
     atom   47 type  1   force =     0.87995448   -0.02478452  -39.93817121
     atom   48 type  1   force =     0.55125633    0.76654851  -40.07736474
     atom   49 type  3   force =   -21.27025741    3.69510875   58.90310348
     atom   50 type  3   force =    -1.57694691  -20.67976649   58.07924531
     atom   51 type  3   force =    21.71730567   -2.58499422   61.19779661
     atom   52 type  3   force =     2.75976683   20.98098399   58.84849999
     atom   53 type  3   force =     7.91053633    2.08943707   63.37861541
     atom   54 type  4   force =     4.37729682    0.12378733   20.57317642
     atom   55 type  5   force =   -13.28407632   -3.12887217   24.81311943
     atom   56 type  6   force =     0.53282174    2.65756831    5.38246714
     atom   57 type  6   force =    -2.24282299    0.23679532    1.38496639
     atom   58 type  6   force =     1.38872515   -3.21767766    4.82204820
     The local contribution  to forces
     atom    1 type  2   force =     0.93977518    0.19610703    8.51286618
     atom    2 type  2   force =     0.97080181    1.15622259    8.88039973
     atom    3 type  2   force =    -1.91908330   -0.64731250    9.43427663
     atom    4 type  2   force =    -1.76424116   -1.72376611    9.23897605
     atom    5 type  2   force =     0.76012126    3.38483402   10.31756638
     atom    6 type  2   force =     3.92914941    3.11003003   14.36688376
     atom    7 type  2   force =     3.78398518   -1.11284704   12.05515561
     atom    8 type  2   force =     0.45870329   -0.22236382    8.34380840
     atom    9 type  2   force =    -1.12884514    2.54933805   10.29554704
     atom   10 type  2   force =    -1.18532532    3.57035964   19.41531294
     atom   11 type  2   force =     2.00260848   -2.17439591   20.48106534
     atom   12 type  2   force =     1.89584266   -2.98164537   10.55787746
     atom   13 type  2   force =    -0.52924568   -0.57582686    8.42000834
     atom   14 type  2   force =    -3.83140223    2.05542555   11.85643663
     atom   15 type  2   force =    -3.84569691   -1.90021856   17.30635706
     atom   16 type  2   force =    -0.56866648   -4.70543952   12.97894820
     atom   17 type  1   force =     0.13925943    0.66071924  -31.98572607
     atom   18 type  1   force =     2.23657377    1.69312273  -31.01766402
     atom   19 type  1   force =     1.12635068   -0.05316253  -31.42503343
     atom   20 type  1   force =    -1.01039439   -0.86273866  -32.14404346
     atom   21 type  1   force =    -0.17411972    1.94448912  -31.76022690
     atom   22 type  1   force =     2.22551947    5.28018936  -25.46370342
     atom   23 type  1   force =     4.76134857   -0.06190017  -24.50402580
     atom   24 type  1   force =     2.10949031   -1.72914470  -31.13225938
     atom   25 type  1   force =     0.02571718   -0.43084552  -31.98074519
     atom   26 type  1   force =    -2.92087597    4.05906495  -28.15448660
     atom   27 type  1   force =    -1.29092335    0.00136549  -20.26687532
     atom   28 type  1   force =     2.24394880   -5.22576875  -26.29339737
     atom   29 type  1   force =    -0.01999641   -1.75376205  -31.80695752
     atom   30 type  1   force =    -1.12627476    0.96700173  -31.87348477
     atom   31 type  1   force =    -4.83514367   -0.32569768  -28.01477958
     atom   32 type  1   force =    -3.16891751   -3.97536404  -28.59561858
     atom   33 type  1   force =     0.05151498    0.12656145   38.80473022
     atom   34 type  1   force =     0.56784071    0.42547738   38.91812725
     atom   35 type  1   force =     0.28765423    0.04289117   38.97216868
     atom   36 type  1   force =    -0.27230566   -0.22161550   38.81515036
     atom   37 type  1   force =     0.01788113    0.48552276   38.92797800
     atom   38 type  1   force =     0.41438602    0.92902400   40.03941998
     atom   39 type  1   force =     0.90758769    0.05621141   40.41027968
     atom   40 type  1   force =     0.52031703   -0.40238621   39.06962033
     atom   41 type  1   force =    -0.05855170   -0.12860271   38.89191071
     atom   42 type  1   force =    -0.63776077    0.71962000   39.93467165
     atom   43 type  1   force =    -0.29249200   -0.05091460   40.89912532
     atom   44 type  1   force =     0.25775223   -0.96897957   40.05316826
     atom   45 type  1   force =    -0.01490167   -0.50143151   38.82686433
     atom   46 type  1   force =    -0.32662554    0.23320434   38.73600852
     atom   47 type  1   force =    -0.87661776    0.02466659   39.66354024
     atom   48 type  1   force =    -0.54893135   -0.76484842   39.80288281
     atom   49 type  3   force =    21.45200434   -3.72505043  -58.83179991
     atom   50 type  3   force =     1.58895859   20.80893183  -57.99461571
     atom   51 type  3   force =   -21.90841439    2.59954301  -61.09473889
     atom   52 type  3   force =    -2.77684110  -21.11891958  -58.74636217
     atom   53 type  3   force =    -7.93007483   -2.11646963  -63.52102540
     atom   54 type  4   force =    -3.53542019    0.14964046  -21.49145810
     atom   55 type  5   force =    11.43636223    2.52558755  -23.33078997
     atom   56 type  6   force =    -0.52774011   -2.58513096   -5.31770345
     atom   57 type  6   force =     2.23119868   -0.22131816   -1.47733789
     atom   58 type  6   force =    -1.35767512    3.13513123   -4.78086084
     The core correction contribution to forces
     atom    1 type  2   force =     0.00025952   -0.00048966   -0.00037523
     atom    2 type  2   force =    -0.00015588    0.00035603   -0.00024290
     atom    3 type  2   force =     0.00079656    0.00078208   -0.00149998
     atom    4 type  2   force =     0.00075041    0.00026017   -0.00095119
     atom    5 type  2   force =     0.00021019   -0.00077918   -0.00060681
     atom    6 type  2   force =    -0.00028747    0.00077041   -0.00009480
     atom    7 type  2   force =     0.00051027   -0.00013735    0.00031892
     atom    8 type  2   force =    -0.00002373    0.00012205   -0.00061775
     atom    9 type  2   force =     0.00000893   -0.00005567   -0.00027188
     atom   10 type  2   force =    -0.00007222   -0.00142514    0.00039455
     atom   11 type  2   force =    -0.00121388    0.00051030    0.00110319
     atom   12 type  2   force =    -0.00068059    0.00050191   -0.00079330
     atom   13 type  2   force =    -0.00018231   -0.00017935   -0.00006076
     atom   14 type  2   force =    -0.00063542   -0.00026290    0.00047251
     atom   15 type  2   force =     0.00047414    0.00032345    0.00113525
     atom   16 type  2   force =     0.00025940   -0.00056089    0.00045784
     atom   17 type  1   force =    -0.00005237   -0.00000704    0.00196483
     atom   18 type  1   force =    -0.00015876   -0.00008368    0.00203964
     atom   19 type  1   force =    -0.00004830   -0.00005485    0.00197256
     atom   20 type  1   force =    -0.00000400    0.00000146    0.00199032
     atom   21 type  1   force =    -0.00003852   -0.00003559    0.00197256
     atom   22 type  1   force =    -0.00009465   -0.00041948   -0.00040140
     atom   23 type  1   force =     0.00004703    0.00006947   -0.00004057
     atom   24 type  1   force =    -0.00006729    0.00004266    0.00198192
     atom   25 type  1   force =     0.00005168    0.00002268    0.00198625
     atom   26 type  1   force =    -0.00002113   -0.00024166    0.00142932
     atom   27 type  1   force =    -0.00045999   -0.00005888    0.00111673
     atom   28 type  1   force =    -0.00030263    0.00037714    0.00020004
     atom   29 type  1   force =    -0.00002116    0.00009998    0.00197940
     atom   30 type  1   force =     0.00007962   -0.00003678    0.00200946
     atom   31 type  1   force =     0.00052012    0.00026193    0.00063801
     atom   32 type  1   force =     0.00016345    0.00019569    0.00123005
     atom   33 type  1   force =     0.00001674   -0.00000370   -0.00193212
     atom   34 type  1   force =    -0.00003149   -0.00005378   -0.00198913
     atom   35 type  1   force =     0.00000257    0.00003597   -0.00193391
     atom   36 type  1   force =     0.00001924    0.00002512   -0.00191732
     atom   37 type  1   force =     0.00000513   -0.00004340   -0.00192647
     atom   38 type  1   force =     0.00001017    0.00001097   -0.00197478
     atom   39 type  1   force =     0.00002947    0.00002705   -0.00198059
     atom   40 type  1   force =    -0.00005808    0.00000900   -0.00192228
     atom   41 type  1   force =    -0.00003623   -0.00001287   -0.00194791
     atom   42 type  1   force =    -0.00002437   -0.00003866   -0.00193352
     atom   43 type  1   force =     0.00000268   -0.00001129   -0.00220902
     atom   44 type  1   force =    -0.00002587    0.00001932   -0.00198803
     atom   45 type  1   force =     0.00001193    0.00001603   -0.00195968
     atom   46 type  1   force =     0.00003334    0.00000922   -0.00196701
     atom   47 type  1   force =     0.00004962    0.00003148   -0.00190588
     atom   48 type  1   force =     0.00002351    0.00000557   -0.00189415
     atom   49 type  3   force =     0.00425125   -0.00133106   -0.00311253
     atom   50 type  3   force =    -0.00144888    0.00370199   -0.00371574
     atom   51 type  3   force =    -0.00463796    0.00092768   -0.00153851
     atom   52 type  3   force =    -0.00175155   -0.00488840   -0.00188505
     atom   53 type  3   force =    -0.00266868   -0.00112786   -0.00365337
     atom   54 type  4   force =     0.01779041    0.00466919   -0.01227969
     atom   55 type  5   force =    -0.01836106   -0.00548634    0.01181863
     atom   56 type  6   force =     0.00000000    0.00000000    0.00000000
     atom   57 type  6   force =     0.00000000    0.00000000    0.00000000
     atom   58 type  6   force =     0.00000000    0.00000000    0.00000000
     The Hubbard contrib.    to forces
     atom    1 type  2   force =     0.00000000    0.00000000    0.00000000
     atom    2 type  2   force =     0.00000000    0.00000000    0.00000000
     atom    3 type  2   force =     0.00000000    0.00000000    0.00000000
     atom    4 type  2   force =     0.00000000    0.00000000    0.00000000
     atom    5 type  2   force =     0.00000000    0.00000000    0.00000000
     atom    6 type  2   force =     0.00000000    0.00000000    0.00000000
     atom    7 type  2   force =     0.00000000    0.00000000    0.00000000
     atom    8 type  2   force =     0.00000000    0.00000000    0.00000000
     atom    9 type  2   force =     0.00000000    0.00000000    0.00000000
     atom   10 type  2   force =     0.00000000    0.00000000    0.00000000
     atom   11 type  2   force =     0.00000000    0.00000000    0.00000000
     atom   12 type  2   force =     0.00000000    0.00000000    0.00000000
     atom   13 type  2   force =     0.00000000    0.00000000    0.00000000
     atom   14 type  2   force =     0.00000000    0.00000000    0.00000000
     atom   15 type  2   force =     0.00000000    0.00000000    0.00000000
     atom   16 type  2   force =     0.00000000    0.00000000    0.00000000
     atom   17 type  1   force =     0.00000000    0.00000000    0.00000000
     atom   18 type  1   force =     0.00000000    0.00000000    0.00000000
     atom   19 type  1   force =     0.00000000    0.00000000    0.00000000
     atom   20 type  1   force =     0.00000000    0.00000000    0.00000000
     atom   21 type  1   force =     0.00000000    0.00000000    0.00000000
     atom   22 type  1   force =     0.00000000    0.00000000    0.00000000
     atom   23 type  1   force =     0.00000000    0.00000000    0.00000000
     atom   24 type  1   force =     0.00000000    0.00000000    0.00000000
     atom   25 type  1   force =     0.00000000    0.00000000    0.00000000
     atom   26 type  1   force =     0.00000000    0.00000000    0.00000000
     atom   27 type  1   force =     0.00000000    0.00000000    0.00000000
     atom   28 type  1   force =     0.00000000    0.00000000    0.00000000
     atom   29 type  1   force =     0.00000000    0.00000000    0.00000000
     atom   30 type  1   force =     0.00000000    0.00000000    0.00000000
     atom   31 type  1   force =     0.00000000    0.00000000    0.00000000
     atom   32 type  1   force =     0.00000000    0.00000000    0.00000000
     atom   33 type  1   force =     0.00000000    0.00000000    0.00000000
     atom   34 type  1   force =     0.00000000    0.00000000    0.00000000
     atom   35 type  1   force =     0.00000000    0.00000000    0.00000000
     atom   36 type  1   force =     0.00000000    0.00000000    0.00000000
     atom   37 type  1   force =     0.00000000    0.00000000    0.00000000
     atom   38 type  1   force =     0.00000000    0.00000000    0.00000000
     atom   39 type  1   force =     0.00000000    0.00000000    0.00000000
     atom   40 type  1   force =     0.00000000    0.00000000    0.00000000
     atom   41 type  1   force =     0.00000000    0.00000000    0.00000000
     atom   42 type  1   force =     0.00000000    0.00000000    0.00000000
     atom   43 type  1   force =     0.00000000    0.00000000    0.00000000
     atom   44 type  1   force =     0.00000000    0.00000000    0.00000000
     atom   45 type  1   force =     0.00000000    0.00000000    0.00000000
     atom   46 type  1   force =     0.00000000    0.00000000    0.00000000
     atom   47 type  1   force =     0.00000000    0.00000000    0.00000000
     atom   48 type  1   force =     0.00000000    0.00000000    0.00000000
     atom   49 type  3   force =     0.00000000    0.00000000    0.00000000
     atom   50 type  3   force =     0.00000000    0.00000000    0.00000000
     atom   51 type  3   force =     0.00000000    0.00000000    0.00000000
     atom   52 type  3   force =     0.00000000    0.00000000    0.00000000
     atom   53 type  3   force =     0.00000000    0.00000000    0.00000000
     atom   54 type  4   force =     0.00000000    0.00000000    0.00000000
     atom   55 type  5   force =     0.00000000    0.00000000    0.00000000
     atom   56 type  6   force =     0.00000000    0.00000000    0.00000000
     atom   57 type  6   force =     0.00000000    0.00000000    0.00000000
     atom   58 type  6   force =     0.00000000    0.00000000    0.00000000
     The SCF correction term to forces
     atom    1 type  2   force =    -0.00000132   -0.00000261   -0.00000127
     atom    2 type  2   force =    -0.00000070   -0.00000078   -0.00000157
     atom    3 type  2   force =     0.00000102    0.00000272   -0.00000112
     atom    4 type  2   force =    -0.00000001    0.00000029   -0.00000137
     atom    5 type  2   force =     0.00000034   -0.00000321   -0.00000129
     atom    6 type  2   force =    -0.00000096   -0.00000084   -0.00000075
     atom    7 type  2   force =    -0.00000083    0.00000465   -0.00000139
     atom    8 type  2   force =     0.00000200   -0.00000031   -0.00000197
     atom    9 type  2   force =     0.00000134   -0.00000386   -0.00000129
     atom   10 type  2   force =     0.00000130   -0.00000107   -0.00000008
     atom   11 type  2   force =    -0.00000026    0.00000397    0.00000040
     atom   12 type  2   force =    -0.00000125    0.00000174   -0.00000147
     atom   13 type  2   force =    -0.00000114   -0.00000264   -0.00000107
     atom   14 type  2   force =     0.00000038   -0.00000184   -0.00000088
     atom   15 type  2   force =     0.00000089    0.00000283   -0.00000014
     atom   16 type  2   force =    -0.00000070    0.00000194   -0.00000090
     atom   17 type  1   force =    -0.00000025   -0.00000095   -0.00000023
     atom   18 type  1   force =    -0.00000047   -0.00000057    0.00000053
     atom   19 type  1   force =     0.00000033    0.00000066   -0.00000005
     atom   20 type  1   force =     0.00000029    0.00000083   -0.00000089
     atom   21 type  1   force =     0.00000055   -0.00000120   -0.00000065
     atom   22 type  1   force =     0.00000029   -0.00000039    0.00000102
     atom   23 type  1   force =    -0.00000071    0.00000095    0.00000103
     atom   24 type  1   force =     0.00000044    0.00000100   -0.00000179
     atom   25 type  1   force =     0.00000026   -0.00000129   -0.00000134
     atom   26 type  1   force =     0.00000028   -0.00000048    0.00000050
     atom   27 type  1   force =     0.00000059    0.00000037    0.00000124
     atom   28 type  1   force =    -0.00000048    0.00000173   -0.00000043
     atom   29 type  1   force =    -0.00000055   -0.00000085   -0.00000064
     atom   30 type  1   force =    -0.00000007   -0.00000088   -0.00000000
     atom   31 type  1   force =    -0.00000021    0.00000033    0.00000069
     atom   32 type  1   force =    -0.00000024    0.00000078   -0.00000039
     atom   33 type  1   force =    -0.00000014   -0.00000106   -0.00000020
     atom   34 type  1   force =    -0.00000066   -0.00000062   -0.00000087
     atom   35 type  1   force =     0.00000031    0.00000073   -0.00000035
     atom   36 type  1   force =     0.00000051    0.00000097    0.00000041
     atom   37 type  1   force =     0.00000057   -0.00000149    0.00000020
     atom   38 type  1   force =     0.00000016   -0.00000080   -0.00000103
     atom   39 type  1   force =    -0.00000112    0.00000092   -0.00000104
     atom   40 type  1   force =     0.00000016    0.00000118    0.00000128
     atom   41 type  1   force =     0.00000019   -0.00000134    0.00000090
     atom   42 type  1   force =     0.00000043   -0.00000087   -0.00000048
     atom   43 type  1   force =     0.00000059    0.00000042   -0.00000096
     atom   44 type  1   force =    -0.00000068    0.00000218    0.00000035
     atom   45 type  1   force =    -0.00000062   -0.00000070    0.00000022
     atom   46 type  1   force =     0.00000007   -0.00000098   -0.00000034
     atom   47 type  1   force =     0.00000019    0.00000040   -0.00000061
     atom   48 type  1   force =     0.00000005    0.00000101    0.00000028
     atom   49 type  3   force =     0.00000087    0.00000049    0.00000264
     atom   50 type  3   force =     0.00000042    0.00000065    0.00000225
     atom   51 type  3   force =    -0.00000043    0.00000022    0.00000276
     atom   52 type  3   force =    -0.00000010   -0.00000024    0.00000161
     atom   53 type  3   force =     0.00000026    0.00000004   -0.00000007
     atom   54 type  4   force =    -0.00000006    0.00000009   -0.00000042
     atom   55 type  5   force =     0.00000012    0.00000017   -0.00000040
     atom   56 type  6   force =    -0.00000001   -0.00000000   -0.00000007
     atom   57 type  6   force =     0.00000006    0.00000002    0.00000003
     atom   58 type  6   force =    -0.00000000    0.00000003   -0.00000006

     DFT-D3 dispersion contribution to forces:
     atom    1 type  2   force =     0.00014031    0.00003168    0.00039726
     atom    2 type  2   force =     0.00011260    0.00016976    0.00049313
     atom    3 type  2   force =    -0.00045774   -0.00014013    0.00073665
     atom    4 type  2   force =    -0.00035297   -0.00038083    0.00063736
     atom    5 type  2   force =     0.00018456    0.00071942    0.00098283
     atom    6 type  2   force =     0.00101636    0.00070834    0.00248501
     atom    7 type  2   force =     0.00083704   -0.00018964    0.00138813
     atom    8 type  2   force =     0.00007453   -0.00002447    0.00022410
     atom    9 type  2   force =    -0.00025652    0.00054450    0.00078166
     atom   10 type  2   force =    -0.00005516    0.00100398    0.00259840
     atom   11 type  2   force =     0.00046686   -0.00069244    0.00379143
     atom   12 type  2   force =     0.00046896   -0.00064419    0.00104805
     atom   13 type  2   force =    -0.00004338   -0.00010704    0.00032928
     atom   14 type  2   force =    -0.00088236    0.00050355    0.00164641
     atom   15 type  2   force =    -0.00104027   -0.00052511    0.00341125
     atom   16 type  2   force =    -0.00015262   -0.00106691    0.00182871
     atom   17 type  1   force =     0.00008279    0.00024615   -0.00058041
     atom   18 type  1   force =     0.00080073    0.00058356   -0.00020454
     atom   19 type  1   force =     0.00034070   -0.00000721   -0.00034473
     atom   20 type  1   force =    -0.00035859   -0.00030555   -0.00058909
     atom   21 type  1   force =    -0.00006592    0.00064880   -0.00050849
     atom   22 type  1   force =     0.00016659    0.00115436   -0.00009417
     atom   23 type  1   force =     0.00134311   -0.00001091   -0.00027711
     atom   24 type  1   force =     0.00076529   -0.00060197   -0.00019093
     atom   25 type  1   force =     0.00005612   -0.00016157   -0.00059737
     atom   26 type  1   force =     0.00019349   -0.00024353   -0.00148286
     atom   27 type  1   force =    -0.00090463    0.00042984   -0.00274593
     atom   28 type  1   force =    -0.00021976   -0.00099879   -0.00033730
     atom   29 type  1   force =    -0.00005001   -0.00061178   -0.00054835
     atom   30 type  1   force =    -0.00043461    0.00032398   -0.00054744
     atom   31 type  1   force =    -0.00045834    0.00017238   -0.00112746
     atom   32 type  1   force =     0.00060184   -0.00057232   -0.00103946
     atom   33 type  1   force =     0.00001542    0.00001594    0.00095744
     atom   34 type  1   force =     0.00002741    0.00000324    0.00098752
     atom   35 type  1   force =    -0.00000981    0.00000172    0.00096885
     atom   36 type  1   force =     0.00001032    0.00001019    0.00093951
     atom   37 type  1   force =    -0.00001751   -0.00003640    0.00096603
     atom   38 type  1   force =     0.00000253    0.00001106    0.00119945
     atom   39 type  1   force =     0.00002160   -0.00001393    0.00120935
     atom   40 type  1   force =    -0.00003531    0.00001516    0.00097713
     atom   41 type  1   force =    -0.00000308   -0.00001634    0.00095927
     atom   42 type  1   force =    -0.00000789    0.00003142    0.00112346
     atom   43 type  1   force =     0.00000901    0.00001039    0.00143329
     atom   44 type  1   force =     0.00001666   -0.00002404    0.00118960
     atom   45 type  1   force =     0.00000591   -0.00000586    0.00097140
     atom   46 type  1   force =     0.00000648    0.00001492    0.00096223
     atom   47 type  1   force =    -0.00001251    0.00000469    0.00111201
     atom   48 type  1   force =    -0.00002887   -0.00002272    0.00111744
     atom   49 type  3   force =    -0.00086118    0.00011785   -0.00785832
     atom   50 type  3   force =    -0.00241212   -0.00340271   -0.00547940
     atom   51 type  3   force =     0.00139176    0.00051083   -0.00557160
     atom   52 type  3   force =    -0.00097518    0.00272382   -0.00647178
     atom   53 type  3   force =     0.00117014    0.00018264   -0.00195348
     atom   54 type  4   force =     0.00010441    0.00007816   -0.00074307
     atom   55 type  5   force =    -0.00029469    0.00005413   -0.00098830
     atom   56 type  6   force =     0.00005854    0.00013652    0.00021154
     atom   57 type  6   force =    -0.00021220   -0.00014013    0.00007931
     atom   58 type  6   force =     0.00011115   -0.00021645    0.00013714

     Total force =     0.010574     Total SCF correction =     0.000015

     DFT-D3 dispersion Force =     0.017432


     Computing stress (Cartesian axis) and pressure


     negative rho (up, down):  4.795E-03 5.163E-03
          total   stress  (Ry/bohr**3)                   (kbar)     P=       -1.53
  -0.00001062  -0.00000127   0.00000059           -1.56       -0.19        0.09
  -0.00000127  -0.00000954   0.00000020           -0.19       -1.40        0.03
   0.00000059   0.00000020  -0.00001111            0.09        0.03       -1.63

     kinetic stress (kbar)   7256.33     -1.50     -9.33
                               -1.50   7272.65     -0.06
                               -9.33     -0.06   7301.52

     local   stress (kbar)-135458.96    -69.45    518.60
                              -69.45-134010.25    223.26
                              518.60    223.26 134101.27

     nonloc. stress (kbar)  -1419.16     -0.13      0.31
                               -0.13  -1420.41      0.34
                                0.31      0.34  -1427.24

     hartree stress (kbar)  68216.22     31.90   -248.90
                               31.90  67562.13   -104.29
                             -248.90   -104.29 -63301.60

     exc-cor stress (kbar)   2000.77      0.01     -0.00
                                0.01   2000.36     -0.05
                               -0.00     -0.05   2000.31

     corecor stress (kbar)  -3626.55      0.04      0.05
                                0.04  -3626.82      0.01
                                0.05      0.01  -3627.24

     ewald   stress (kbar)  63034.04     38.91   -260.61
                               38.91  62225.17   -119.18
                             -260.61   -119.18 -75046.11

     hubbard stress (kbar)      0.00      0.00      0.00
                                0.00      0.00      0.00
                                0.00      0.00      0.00

     DFT-D   stress (kbar)     -4.26      0.02     -0.04
                                0.02     -4.22      0.01
                               -0.04      0.01     -2.55

     XDM     stress (kbar)      0.00      0.00      0.00
                                0.00      0.00      0.00
                                0.00      0.00      0.00

     dft-nl  stress (kbar)      0.00      0.00      0.00
                                0.00      0.00      0.00
                                0.00      0.00      0.00

     TS-vdW  stress (kbar)      0.00      0.00      0.00
                                0.00      0.00      0.00
                                0.00      0.00      0.00

     MDB     stress (kbar)      0.00      0.00      0.00
                                0.00      0.00      0.00
                                0.00      0.00      0.00

     3D-RISM stress (kbar)      0.00      0.00      0.00
                                0.00      0.00      0.00
                                0.00      0.00      0.00


     Writing all to output data dir ./Ag-WS2-H2NOH.save/ :
     XML data file, charge density, pseudopotentials, collected wavefunctions

     init_run     :    160.88s CPU    164.40s WALL (       1 calls)
     electrons    :  12107.81s CPU  12351.44s WALL (       1 calls)
     forces       :     42.93s CPU     44.44s WALL (       1 calls)
     force_dftd3  :      0.13s CPU      0.15s WALL (       1 calls)
     stress       :    154.98s CPU    159.45s WALL (       1 calls)
     stres_dftd3  :      0.13s CPU      0.16s WALL (       1 calls)

     Called by init_run:
     wfcinit      :    153.11s CPU    156.01s WALL (       1 calls)
     wfcinit:atom :      0.65s CPU      0.66s WALL (      26 calls)
     wfcinit:wfcr :    148.88s CPU    151.64s WALL (      26 calls)
     potinit      :      2.63s CPU      2.77s WALL (       1 calls)
     hinit0       :      1.44s CPU      1.53s WALL (       1 calls)

     Called by electrons:
     c_bands      :  10515.49s CPU  10708.74s WALL (      36 calls)
     sum_band     :   1474.69s CPU   1511.48s WALL (      36 calls)
     v_of_rho     :     19.28s CPU     20.44s WALL (      36 calls)
     v_h          :      0.96s CPU      1.09s WALL (      36 calls)
     v_xc         :     19.36s CPU     20.46s WALL (      38 calls)
     newd         :     56.32s CPU     67.65s WALL (      36 calls)
     PAW_pot      :     37.19s CPU     37.69s WALL (      36 calls)
     mix_rho      :      5.09s CPU      5.41s WALL (      36 calls)
     energy_dftd3 :      0.05s CPU      0.05s WALL (       1 calls)

     Called by c_bands:
     init_us_2    :    128.80s CPU    132.41s WALL (    1950 calls)
     cegterg      :  10353.19s CPU  10542.92s WALL (     936 calls)

     Called by sum_band:
     sum_band:wei :      0.01s CPU      0.01s WALL (      36 calls)
     sum_band:loo :   1368.52s CPU   1391.50s WALL (      36 calls)
     sum_band:buf :     11.25s CPU     11.51s WALL (     936 calls)
     sum_band:ini :     61.12s CPU     62.79s WALL (     936 calls)
     sum_band:cal :    293.68s CPU    302.40s WALL (     936 calls)
     sum_band:bec :      3.69s CPU      3.77s WALL (     936 calls)
     addusdens    :    102.66s CPU    116.29s WALL (      36 calls)
                                        0.00s GPU  (      36 calls)
     addusd:skk   :      1.63s CPU      1.76s WALL (     216 calls)
                                        0.00s GPU  (     216 calls)

     Called by *egterg:
     cdiaghg      :    584.95s CPU    606.37s WALL (    7043 calls)
     cegterg:over :    570.11s CPU    585.53s WALL (    6133 calls)
     cegterg:upda :    276.61s CPU    281.72s WALL (    6133 calls)
     cegterg:last :    514.40s CPU    523.79s WALL (    2015 calls)
     cdiaghg:chol :     49.24s CPU     49.70s WALL (    7043 calls)
     cdiaghg:inve :      8.33s CPU      8.42s WALL (    7043 calls)
     cdiaghg:para :    166.46s CPU    178.12s WALL (   14086 calls)
     h_psi        :   7641.14s CPU   7761.11s WALL (    7095 calls)
     s_psi        :    728.55s CPU    737.26s WALL (    7095 calls)
     g_psi        :     10.93s CPU     11.32s WALL (    6133 calls)

     Called by h_psi:
     h_psi:calbec :    965.95s CPU    993.40s WALL (    7095 calls)
     vloc_psi     :   5902.23s CPU   5982.78s WALL (    7095 calls)
     add_vuspsi   :    743.44s CPU    753.31s WALL (    7095 calls)

     General routines
     calbec       :   1399.93s CPU   1440.15s WALL (    8473 calls)
     fft          :     20.22s CPU     21.86s WALL (     940 calls)
     ffts         :      1.75s CPU      1.87s WALL (     144 calls)
     fftw         :   6307.82s CPU   6382.01s WALL ( 1424326 calls)
     interpolate  :      2.81s CPU      2.98s WALL (      72 calls)

     Parallel routines

     PAW routines
     PAW_pot      :     37.19s CPU     37.69s WALL (      36 calls)

     PWSCF        :  12476.53s CPU  12765.75s WALL


   This run was terminated on:   9:11: 4   1Aug2026            

=------------------------------------------------------------------------------=
   JOB DONE.
=------------------------------------------------------------------------------=
