
     Program PWSCF v.7.4.1 starts on 31Jul2026 at 18:31:50 

     This program is part of the open-source Quantum ESPRESSO suite
     for quantum simulation of materials; please cite
         "P. Giannozzi et al., J. Phys.:Condens. Matter 21 395502 (2009);
         "P. Giannozzi et al., J. Phys.:Condens. Matter 29 465901 (2017);
         "P. Giannozzi et al., J. Chem. Phys. 152 154105 (2020);
          URL http://www.quantum-espresso.org", 
     in publications or presentations arising from this work. More details at
     http://www.quantum-espresso.org/quote

     Parallel version (MPI & OpenMP), running on      64 processor cores
     Number of MPI processes:                64
     Threads/MPI process:                     1

     MPI processes distributed on     1 nodes
     97136 MiB available memory on the printing compute node when the environment starts

     Reading input from disp_003_atom54_+1y.in

     Current dimensions of program PWSCF are:
     Max number of different atomic species (ntypx) = 10
     Max number of k-points (npk) =  40000
     Max angular momentum in pseudopotentials (lmaxx) =  4
     file S.pbe-n-kjpaw_psl.1.0.0.UPF: wavefunction(s)  3S 3P renormalized
     file W.pbe-spn-kjpaw_psl.1.0.0.UPF: wavefunction(s)  6S 5P 5D renormalized
     file Ag.pbe-n-kjpaw_psl.1.0.0.UPF: wavefunction(s)  5S 5P renormalized
     file N.pbe-n-kjpaw_psl.1.0.0.UPF: wavefunction(s)  2S renormalized
     file O.pbe-n-kjpaw_psl.1.0.0.UPF: wavefunction(s)  2S 2P renormalized
     file H.pbe-kjpaw_psl.1.0.0.UPF: wavefunction(s)  1S renormalized
     Message from routine setup:
     the system is metallic, specify occupations

     R & G space division:  proc/nbgrp/npool/nimage =      64
     Subspace diagonalization in iterative solution of the eigenvalue problem:
     one sub-group per band group will be used
     ELPA distributed-memory algorithm (size of sub-group:  2*  2 procs)


     Parallelization info
     --------------------
     sticks:   dense  smooth     PW     G-vecs:    dense   smooth      PW
     Min         247     123     32                39673    14017    1874
     Max         248     124     33                39680    14030    1885
     Sum       15841    7909   2065              2539249   897387  120111

     Using Slab Decomposition



     bravais-lattice index     =            0
     lattice parameter (alat)  =      23.9624  a.u.
     unit-cell volume          =   18794.0729 (a.u.)^3
     number of atoms/cell      =           58
     number of atomic types    =            6
     number of electrons       =       485.00 (up: 243.00, down: 242.00)
     number of Kohn-Sham states=          243
     kinetic-energy cutoff     =      50.0000  Ry
     charge density cutoff     =     400.0000  Ry
     scf convergence threshold =      1.0E-10
     mixing beta               =       0.4000
     number of iterations used =            8  plain     mixing
     Exchange-correlation= SLA  PW   PBX  PBC
                           (   1   4   3   4   0   0   0)

     celldm(1)=  23.962422  celldm(2)=   0.000000  celldm(3)=   0.000000
     celldm(4)=   0.000000  celldm(5)=   0.000000  celldm(6)=   0.000000

     crystal axes: (cart. coord. in units of alat)
               a(1) = (   1.000000   0.000000   0.000000 )  
               a(2) = (  -0.500000   0.866025   0.000000 )  
               a(3) = (   0.000000   0.000000   1.577241 )  

     reciprocal axes: (cart. coord. in units 2 pi/alat)
               b(1) = (  1.000000  0.577350 -0.000000 )  
               b(2) = (  0.000000  1.154701  0.000000 )  
               b(3) = (  0.000000 -0.000000  0.634018 )  


     PseudoPot. # 1 for S  read from file:
     /share/work_r640/fmigm008/pseudo/S.pbe-n-kjpaw_psl.1.0.0.UPF
     MD5 check sum: fb45dfebcf3e72a4e1bd4a866ec2e262
     Pseudo is Projector augmented-wave + core cor, Zval =  6.0
     Generated using &quot;atomic&quot; code by A. Dal Corso  v.6.3
     Shape of augmentation charge: PSQ
     Using radial grid of 1151 points,  6 beta functions with: 
                l(1) =   0
                l(2) =   0
                l(3) =   1
                l(4) =   1
                l(5) =   2
                l(6) =   2
     Q(r) pseudized with 0 coefficients 


     PseudoPot. # 2 for W  read from file:
     /share/work_r640/fmigm008/pseudo/W.pbe-spn-kjpaw_psl.1.0.0.UPF
     MD5 check sum: 03c3df5b60893f488392c7401945500a
     Pseudo is Projector augmented-wave + core cor, Zval = 14.0
     Generated using &quot;atomic&quot; code by A. Dal Corso  v.6.2.2
     Shape of augmentation charge: PSQ
     Using radial grid of 1273 points,  6 beta functions with: 
                l(1) =   0
                l(2) =   0
                l(3) =   1
                l(4) =   1
                l(5) =   2
                l(6) =   2
     Q(r) pseudized with 0 coefficients 


     PseudoPot. # 3 for Ag read from file:
     /share/work_r640/fmigm008/pseudo/Ag.pbe-n-kjpaw_psl.1.0.0.UPF
     MD5 check sum: 51099775af2a3182a6a1caffb86952a3
     Pseudo is Projector augmented-wave + core cor, Zval = 11.0
     Generated using &quot;atomic&quot; code by A. Dal Corso  v.6.2.2
     Shape of augmentation charge: PSQ
     Using radial grid of 1237 points,  6 beta functions with: 
                l(1) =   0
                l(2) =   0
                l(3) =   1
                l(4) =   1
                l(5) =   2
                l(6) =   2
     Q(r) pseudized with 0 coefficients 


     PseudoPot. # 4 for N  read from file:
     /share/work_r640/fmigm008/pseudo/N.pbe-n-kjpaw_psl.1.0.0.UPF
     MD5 check sum: 14c48229446f9f2d411169a3abcbc3fa
     Pseudo is Projector augmented-wave + core cor, Zval =  5.0
     Generated using &quot;atomic&quot; code by A. Dal Corso  v.6.3
     Shape of augmentation charge: PSQ
     Using radial grid of 1085 points,  4 beta functions with: 
                l(1) =   0
                l(2) =   0
                l(3) =   1
                l(4) =   1
     Q(r) pseudized with 0 coefficients 


     PseudoPot. # 5 for O  read from file:
     /share/work_r640/fmigm008/pseudo/O.pbe-n-kjpaw_psl.1.0.0.UPF
     MD5 check sum: e99d9cef9b487d1ca56f5b95ecd0fd7a
     Pseudo is Projector augmented-wave + core cor, Zval =  6.0
     Generated using &quot;atomic&quot; code by A. Dal Corso  v.6.3
     Shape of augmentation charge: PSQ
     Using radial grid of 1095 points,  4 beta functions with: 
                l(1) =   0
                l(2) =   0
                l(3) =   1
                l(4) =   1
     Q(r) pseudized with 0 coefficients 


     PseudoPot. # 6 for H  read from file:
     /share/work_r640/fmigm008/pseudo/H.pbe-kjpaw_psl.1.0.0.UPF
     MD5 check sum: d81a744832360e4a8af0b0b5b123bc2a
     Pseudo is Projector augmented-wave, Zval =  1.0
     Generated using &quot;atomic&quot; code by A. Dal Corso  v.6.3MaX
     Shape of augmentation charge: PSQ
     Using radial grid of  929 points,  2 beta functions with: 
                l(1) =   0
                l(2) =   0
     Q(r) pseudized with 0 coefficients 


     atomic species   valence    mass     pseudopotential
     S                 6.00    32.06500     S ( 1.00)
     W                14.00   183.84000     W ( 1.00)
     Ag               11.00   107.87000     Ag( 1.00)
     N                 5.00    14.00700     N ( 1.00)
     O                 6.00    15.99900     O ( 1.00)
     H                 1.00     1.00800     H ( 1.00)

     Starting magnetic structure 
     atomic species   magnetization
     S               0.000
     W               0.000
     Ag              0.000
     N               0.000
     O               0.000
     H               0.000

     No symmetry found


                                    s                        frac. trans.

      isym =  1     identity                                     

 cryst.   s( 1) = (     1          0          0      )
                  (     0          1          0      )
                  (     0          0          1      )

 cart.    s( 1) = (  1.0000000  0.0000000  0.0000000 )
                  (  0.0000000  1.0000000  0.0000000 )
                  (  0.0000000  0.0000000  1.0000000 )


   Cartesian axes

     site n.     atom                  positions (alat units)
         1        W      tau(   1) = (  -0.0028587   0.1395947   0.2444812  )
         2        W      tau(   2) = (  -0.1282026   0.3564836   0.2443568  )
         3        W      tau(   3) = (  -0.2537731   0.5727289   0.2442261  )
         4        W      tau(   4) = (  -0.3783723   0.7888166   0.2441498  )
         5        W      tau(   5) = (   0.2469096   0.1395426   0.2440120  )
         6        W      tau(   6) = (   0.1225026   0.3570726   0.2432304  )
         7        W      tau(   7) = (  -0.0034888   0.5727502   0.2429844  )
         8        W      tau(   8) = (  -0.1283671   0.7891505   0.2439766  )
         9        W      tau(   9) = (   0.4969194   0.1397378   0.2430413  )
        10        W      tau(  10) = (   0.3721499   0.3552416   0.2405337  )
        11        W      tau(  11) = (   0.2452295   0.5727639   0.2402480  )
        12        W      tau(  12) = (   0.1220165   0.7890246   0.2436243  )
        13        W      tau(  13) = (   0.7467445   0.1394449   0.2440642  )
        14        W      tau(  14) = (   0.6211264   0.3563823   0.2436826  )
        15        W      tau(  15) = (   0.4971469   0.5732720   0.2421413  )
        16        W      tau(  16) = (   0.3721785   0.7886524   0.2428338  )
        17        S      tau(  17) = (   0.1219502   0.0672380   0.3684592  )
        18        S      tau(  18) = (  -0.0024014   0.2846735   0.3681910  )
        19        S      tau(  19) = (  -0.1281525   0.5008469   0.3682441  )
        20        S      tau(  20) = (  -0.2533258   0.7170167   0.3685687  )
        21        S      tau(  21) = (   0.3722606   0.0676427   0.3679766  )
        22        S      tau(  22) = (   0.2484890   0.2849851   0.3676532  )
        23        S      tau(  23) = (   0.1218721   0.5017515   0.3660861  )
        24        S      tau(  24) = (  -0.0030403   0.7167922   0.3679041  )
        25        S      tau(  25) = (   0.6215745   0.0674060   0.3678624  )
        26        S      tau(  26) = (   0.4959803   0.2843589   0.3667029  )
        27        S      tau(  27) = (   0.3710177   0.5007270   0.3638206  )
        28        S      tau(  28) = (   0.2481984   0.7153351   0.3669892  )
        29        S      tau(  29) = (   0.8717811   0.0668114   0.3679626  )
        30        S      tau(  30) = (   0.7463862   0.2840842   0.3681041  )
        31        S      tau(  31) = (   0.6195449   0.5004430   0.3687043  )
        32        S      tau(  32) = (   0.4956231   0.7159829   0.3681683  )
        33        S      tau(  33) = (   0.1218639   0.0672424   0.1203644  )
        34        S      tau(  34) = (  -0.0031686   0.2839920   0.1203246  )
        35        S      tau(  35) = (  -0.1290559   0.5005458   0.1199474  )
        36        S      tau(  36) = (  -0.2533637   0.7168463   0.1201865  )
        37        S      tau(  37) = (   0.3715067   0.0672515   0.1197328  )
        38        S      tau(  38) = (   0.2459712   0.2831895   0.1185177  )
        39        S      tau(  39) = (   0.1200987   0.4999851   0.1172124  )
        40        S      tau(  40) = (  -0.0034124   0.7174366   0.1195727  )
        41        S      tau(  41) = (   0.6220409   0.0671938   0.1195919  )
        42        S      tau(  42) = (   0.4978914   0.2834015   0.1177695  )
        43        S      tau(  43) = (   0.3720771   0.5008174   0.1169455  )
        44        S      tau(  44) = (   0.2466393   0.7180153   0.1180007  )
        45        S      tau(  45) = (   0.8722199   0.0680125   0.1199081  )
        46        S      tau(  46) = (   0.7469729   0.2840633   0.1202901  )
        47        S      tau(  47) = (   0.6222799   0.5003741   0.1191499  )
        48        S      tau(  48) = (   0.4972527   0.7176301   0.1185580  )
        49        Ag     tau(  49) = (   0.1547683   0.5150674   0.5753024  )
        50        Ag     tau(  50) = (   0.3069329   0.3595674   0.5464056  )
        51        Ag     tau(  51) = (   0.5024756   0.4743393   0.5615070  )
        52        Ag     tau(  52) = (   0.3399570   0.6321033   0.5430870  )
        53        Ag     tau(  53) = (   0.3428646   0.4953663   0.7084671  )
        54        N      tau(  54) = (   0.2596825   0.4664510   0.8674395  )
        55        O      tau(  55) = (   0.1477385   0.4509631   0.8500100  )
        56        H      tau(  56) = (   0.2650389   0.5234661   0.9229976  )
        57        H      tau(  57) = (   0.1408570   0.4629232   0.7729758  )
        58        H      tau(  58) = (   0.2837088   0.3964009   0.9032094  )

     --------------------------------------------
     DFT-D3 Dispersion Correction (3-body terms):
     --------------------------------------------
       Reference C6 values for interpolation: 

         atom   Coordination number   C6
         H          0.912             6.05
         H          0.000            15.18
         N          0.000            50.54
         N          0.994            44.25
         N          2.014            39.35
         N          2.990            31.16
         O          0.000            31.01
         O          0.993            25.63
         O          1.989            20.74
         S          0.000           268.01
         S          0.995           261.99
         S          1.990           251.62
         Ag         0.000           853.49
         Ag         0.968           537.23
         W          0.000          1628.72
         W          1.929          1086.81
         W         10.915           796.19

       Values used:

         atom   Coordination number  R0_AB[au]  C6      C8
         W          9.805            3.766    796.19 128250.55
         W          9.806            3.766    796.19 128250.55
         W          9.854            3.766    796.19 128250.55
         W          9.866            3.766    796.19 128250.55
         W          9.842            3.766    796.19 128250.55
         W          9.851            3.766    796.19 128250.55
         W          9.870            3.766    796.19 128250.55
         W          9.833            3.766    796.19 128250.55
         W          9.854            3.766    796.19 128250.55
         W          9.880            3.766    796.19 128250.55
         W          9.879            3.766    796.19 128250.55
         W          9.846            3.766    796.19 128250.55
         W          9.811            3.766    796.19 128250.55
         W          9.849            3.766    796.19 128250.55
         W          9.870            3.766    796.19 128250.55
         W          9.855            3.766    796.19 128250.55
         S          3.670            3.128    251.62  12327.25
         S          3.672            3.128    251.62  12327.25
         S          3.679            3.128    251.62  12327.25
         S          3.675            3.128    251.62  12327.25
         S          3.690            3.128    251.62  12327.25
         S          4.579            3.128    251.62  12327.25
         S          4.512            3.128    251.62  12327.25
         S          3.693            3.128    251.62  12327.25
         S          3.676            3.128    251.62  12327.25
         S          3.843            3.128    251.62  12327.25
         S          4.976            3.128    251.62  12327.25
         S          4.443            3.128    251.62  12327.25
         S          3.677            3.128    251.62  12327.25
         S          3.672            3.128    251.62  12327.25
         S          4.198            3.128    251.62  12327.25
         S          3.918            3.128    251.62  12327.25
         S          3.700            3.128    251.62  12327.25
         S          3.699            3.128    251.62  12327.25
         S          3.697            3.128    251.62  12327.25
         S          3.697            3.128    251.62  12327.25
         S          3.689            3.128    251.62  12327.25
         S          3.673            3.128    251.62  12327.25
         S          3.669            3.128    251.62  12327.25
         S          3.689            3.128    251.62  12327.25
         S          3.693            3.128    251.62  12327.25
         S          3.672            3.128    251.62  12327.25
         S          3.662            3.128    251.62  12327.25
         S          3.672            3.128    251.62  12327.25
         S          3.693            3.128    251.62  12327.25
         S          3.697            3.128    251.62  12327.25
         S          3.686            3.128    251.62  12327.25
         S          3.680            3.128    251.62  12327.25
         Ag         3.221            3.147    537.23  47741.54
         Ag         3.973            3.147    537.23  47741.54
         Ag         3.317            3.147    537.23  47741.54
         Ag         4.158            3.147    537.23  47741.54
         Ag         4.127            3.147    537.23  47741.54
         N          3.754            2.478     31.16    687.50
         O          2.000            2.345     20.82    420.13
         H          1.007            2.062      6.18     74.65
         H          1.030            2.062      6.16     74.42
         H          1.005            2.062      6.18     74.67

         Molecular C6 ( Ry / a.u.^6 ) =   1190032.05


   Crystallographic axes

     site n.     atom                  positions (cryst. coord.)
         1        W      tau(   1) = (  0.0777364  0.1611901  0.1550056  )
         2        W      tau(   2) = (  0.0776133  0.4116318  0.1549267  )
         3        W      tau(   3) = (  0.0768921  0.6613303  0.1548438  )
         4        W      tau(   4) = (  0.0770512  0.9108469  0.1547955  )
         5        W      tau(   5) = (  0.3274746  0.1611299  0.1547081  )
         6        W      tau(   6) = (  0.3286586  0.4123119  0.1542125  )
         7        W      tau(   7) = (  0.3271886  0.6613549  0.1540566  )
         8        W      tau(   8) = (  0.3272492  0.9112326  0.1546856  )
         9        W      tau(   9) = (  0.5775970  0.1613553  0.1540926  )
        10        W      tau(  10) = (  0.5772488  0.4101977  0.1525028  )
        11        W      tau(  11) = (  0.5759149  0.6613708  0.1523217  )
        12        W      tau(  12) = (  0.5775601  0.9110871  0.1544623  )
        13        W      tau(  13) = (  0.8272530  0.1610171  0.1547412  )
        14        W      tau(  14) = (  0.8268839  0.4115149  0.1544993  )
        15        W      tau(  15) = (  0.8281256  0.6619575  0.1535220  )
        16        W      tau(  16) = (  0.8275072  0.9106573  0.1539611  )
        17        S      tau(  17) = (  0.1607701  0.0776397  0.2336099  )
        18        S      tau(  18) = (  0.1619549  0.3287126  0.2334399  )
        19        S      tau(  19) = (  0.1610116  0.5783281  0.2334735  )
        20        S      tau(  20) = (  0.1606439  0.8279395  0.2336794  )
        21        S      tau(  21) = (  0.4113141  0.0781070  0.2333040  )
        22        S      tau(  22) = (  0.4130252  0.3290725  0.2330989  )
        23        S      tau(  23) = (  0.4115585  0.5793727  0.2321053  )
        24        S      tau(  24) = (  0.4107998  0.8276803  0.2332579  )
        25        S      tau(  25) = (  0.6604913  0.0778337  0.2332315  )
        26        S      tau(  26) = (  0.6601550  0.3283494  0.2324963  )
        27        S      tau(  27) = (  0.6601125  0.5781897  0.2306689  )
        28        S      tau(  28) = (  0.6611973  0.8259978  0.2326779  )
        29        S      tau(  29) = (  0.9103547  0.0771472  0.2332950  )
        30        S      tau(  30) = (  0.9104023  0.3280322  0.2333848  )
        31        S      tau(  31) = (  0.9084758  0.5778618  0.2337653  )
        32        S      tau(  32) = (  0.9089960  0.8267459  0.2334255  )
        33        S      tau(  33) = (  0.1606863  0.0776448  0.0763132  )
        34        S      tau(  34) = (  0.1607942  0.3279257  0.0762880  )
        35        S      tau(  35) = (  0.1599344  0.5779805  0.0760488  )
        36        S      tau(  36) = (  0.1605077  0.8277428  0.0762004  )
        37        S      tau(  37) = (  0.4103343  0.0776554  0.0759128  )
        38        S      tau(  38) = (  0.4094707  0.3269991  0.0751424  )
        39        S      tau(  39) = (  0.4087652  0.5773330  0.0743148  )
        40        S      tau(  40) = (  0.4107999  0.8284245  0.0758113  )
        41        S      tau(  41) = (  0.6608352  0.0775887  0.0758235  )
        42        S      tau(  42) = (  0.6615133  0.3272438  0.0746680  )
        43        S      tau(  43) = (  0.6612241  0.5782941  0.0741456  )
        44        S      tau(  44) = (  0.6611856  0.8290927  0.0748146  )
        45        S      tau(  45) = (  0.9114869  0.0785340  0.0760239  )
        46        S      tau(  46) = (  0.9109769  0.3280081  0.0762661  )
        47        S      tau(  47) = (  0.9111710  0.5777822  0.0755432  )
        48        S      tau(  48) = (  0.9115766  0.8286478  0.0751680  )
        49        Ag     tau(  49) = (  0.4521427  0.5947486  0.3647523  )
        50        Ag     tau(  50) = (  0.5145293  0.4151927  0.3464312  )
        51        Ag     tau(  51) = (  0.7763355  0.5477198  0.3560058  )
        52        Ag     tau(  52) = (  0.7049020  0.7298900  0.3443271  )
        53        Ag     tau(  53) = (  0.6288645  0.5719998  0.4491812  )
        54        N      tau(  54) = (  0.5289881  0.5386112  0.5499726  )
        55        O      tau(  55) = (  0.4081021  0.5207274  0.5389220  )
        56        H      tau(  56) = (  0.5672622  0.6044466  0.5851974  )
        57        H      tau(  57) = (  0.4081259  0.5345377  0.4900809  )
        58        H      tau(  58) = (  0.5125710  0.4577243  0.5726514  )

     number of k points=    13
                       cart. coord. in units 2pi/alat
        k(    1) = (   0.0000000   0.0000000   0.0000000), wk =   0.0400000
        k(    2) = (   0.0000000   0.2309401   0.0000000), wk =   0.0800000
        k(    3) = (   0.0000000   0.4618802   0.0000000), wk =   0.0800000
        k(    4) = (   0.2000000   0.3464102   0.0000000), wk =   0.0800000
        k(    5) = (   0.2000000   0.5773503   0.0000000), wk =   0.0800000
        k(    6) = (  -0.2000000   0.1154701   0.0000000), wk =   0.0800000
        k(    7) = (   0.2000000   0.1154701   0.0000000), wk =   0.0800000
        k(    8) = (  -0.4000000   0.2309401   0.0000000), wk =   0.0800000
        k(    9) = (   0.4000000   0.2309401   0.0000000), wk =   0.0800000
        k(   10) = (  -0.2000000   0.3464102   0.0000000), wk =   0.0800000
        k(   11) = (   0.4000000  -0.0000000   0.0000000), wk =   0.0800000
        k(   12) = (  -0.4000000   0.4618802   0.0000000), wk =   0.0800000
        k(   13) = (   0.6000000   0.1154701   0.0000000), wk =   0.0800000

                       cryst. coord.
        k(    1) = (   0.0000000   0.0000000   0.0000000), wk =   0.0400000
        k(    2) = (   0.0000000   0.2000000   0.0000000), wk =   0.0800000
        k(    3) = (   0.0000000   0.4000000   0.0000000), wk =   0.0800000
        k(    4) = (   0.2000000   0.2000000   0.0000000), wk =   0.0800000
        k(    5) = (   0.2000000   0.4000000   0.0000000), wk =   0.0800000
        k(    6) = (  -0.2000000   0.2000000   0.0000000), wk =   0.0800000
        k(    7) = (   0.2000000   0.0000000   0.0000000), wk =   0.0800000
        k(    8) = (  -0.4000000   0.4000000   0.0000000), wk =   0.0800000
        k(    9) = (   0.4000000   0.0000000   0.0000000), wk =   0.0800000
        k(   10) = (  -0.2000000   0.4000000   0.0000000), wk =   0.0800000
        k(   11) = (   0.4000000  -0.2000000   0.0000000), wk =   0.0800000
        k(   12) = (  -0.4000000   0.6000000   0.0000000), wk =   0.0800000
        k(   13) = (   0.6000000  -0.2000000   0.0000000), wk =   0.0800000

     Dense  grid:  2539249 G-vectors     FFT dimensions: ( 160, 160, 243)

     Smooth grid:   897387 G-vectors     FFT dimensions: ( 108, 108, 180)

     Dynamical RAM for                 wfc:       6.50 MB

     Dynamical RAM for     wfc (w. buffer):     175.50 MB

     Dynamical RAM for           str. fact:       3.63 MB

     Dynamical RAM for           local pot:       0.00 MB

     Dynamical RAM for          nlocal pot:      26.11 MB

     Dynamical RAM for                qrad:       9.63 MB

     Dynamical RAM for          rho,v,vnew:       8.32 MB

     Dynamical RAM for               rhoin:       2.77 MB

     Dynamical RAM for            rho*nmix:      19.38 MB

     Dynamical RAM for           G-vectors:       2.38 MB

     Dynamical RAM for          h,s,v(r/c):       2.70 MB

     Dynamical RAM for          <psi|beta>:       3.62 MB

     Dynamical RAM for                 psi:      13.00 MB

     Dynamical RAM for                hpsi:      13.00 MB

     Dynamical RAM for                spsi:      13.00 MB

     Dynamical RAM for      wfcinit/wfcrot:      14.35 MB

     Dynamical RAM for           addusdens:     132.60 MB

     Dynamical RAM for          addusforce:     170.39 MB

     Dynamical RAM for         addusstress:     122.61 MB

     Estimated static dynamical RAM per process >     237.27 MB

     Estimated max dynamical RAM per process >     427.03 MB

     Estimated total dynamical RAM >      26.69 GB
     Generating pointlists ...
     new r_m :   0.0782 (alat units)  1.8731 (a.u.) for type    1
     new r_m :   0.0782 (alat units)  1.8731 (a.u.) for type    2
     new r_m :   0.0750 (alat units)  1.7964 (a.u.) for type    3
     new r_m :   0.0329 (alat units)  0.7887 (a.u.) for type    4
     new r_m :   0.0323 (alat units)  0.7736 (a.u.) for type    5
     new r_m :   0.0323 (alat units)  0.7736 (a.u.) for type    6

     Initial potential from superposition of free atoms

     starting charge     484.9880, renormalised to     485.0000

     negative rho (up, down):  1.010E-03 1.010E-03
     Starting wfcs are  392 randomized atomic wfcs
     Checking if some PAW data can be deallocated... 
       PAW data deallocated on   32 nodes for type:  1
       PAW data deallocated on   42 nodes for type:  2
       PAW data deallocated on   59 nodes for type:  3
       PAW data deallocated on   63 nodes for type:  4
       PAW data deallocated on   63 nodes for type:  5
       PAW data deallocated on   61 nodes for type:  6

     total cpu time spent up to now is      189.9 secs

     per-process dynamical memory:   308.7 Mb

     Self-consistent Calculation

     iteration #  1     ecut=    50.00 Ry     beta= 0.40
     Davidson diagonalization with overlap

---- Real-time Memory Report at c_bands before calling an iterative solver
           368 MiB given to the printing process from OS
           301 MiB allocation reported by mallinfo(arena+hblkhd)
         78677 MiB available memory on the node where the printing process lives
------------------
     ethr =  1.00E-02,  avg # of iterations =  2.0

     Threshold (ethr) on eigenvalues was too large:
     Diagonalizing with lowered threshold

     Davidson diagonalization with overlap

---- Real-time Memory Report at c_bands before calling an iterative solver
           472 MiB given to the printing process from OS
           304 MiB allocation reported by mallinfo(arena+hblkhd)
         77281 MiB available memory on the node where the printing process lives
------------------
     ethr =  4.33E-04,  avg # of iterations =  4.8

     negative rho (up, down):  1.028E-02 6.721E-03

     total cpu time spent up to now is      943.3 secs

     total energy              =  -16138.22483038 Ry
     estimated scf accuracy    <       2.43952817 Ry

     total magnetization       =     1.00 Bohr mag/cell
     absolute magnetization    =     4.14 Bohr mag/cell

     iteration #  2     ecut=    50.00 Ry     beta= 0.40
     Davidson diagonalization with overlap

---- Real-time Memory Report at c_bands before calling an iterative solver
           479 MiB given to the printing process from OS
           311 MiB allocation reported by mallinfo(arena+hblkhd)
         75205 MiB available memory on the node where the printing process lives
------------------
     ethr =  5.03E-04,  avg # of iterations =  7.4

     negative rho (up, down):  3.220E-02 2.305E-02

     total cpu time spent up to now is     1343.7 secs

     total energy              =  -16138.44605552 Ry
     estimated scf accuracy    <       0.41164240 Ry

     total magnetization       =     1.00 Bohr mag/cell
     absolute magnetization    =     3.05 Bohr mag/cell

     iteration #  3     ecut=    50.00 Ry     beta= 0.40
     Davidson diagonalization with overlap

---- Real-time Memory Report at c_bands before calling an iterative solver
           482 MiB given to the printing process from OS
           313 MiB allocation reported by mallinfo(arena+hblkhd)
         75163 MiB available memory on the node where the printing process lives
------------------
     ethr =  8.49E-05,  avg # of iterations =  8.5

     negative rho (up, down):  3.683E-02 2.752E-02

     total cpu time spent up to now is     1757.3 secs

     total energy              =  -16138.51362788 Ry
     estimated scf accuracy    <       0.22172080 Ry

     total magnetization       =     1.00 Bohr mag/cell
     absolute magnetization    =     2.37 Bohr mag/cell

     iteration #  4     ecut=    50.00 Ry     beta= 0.40
     Davidson diagonalization with overlap

---- Real-time Memory Report at c_bands before calling an iterative solver
           483 MiB given to the printing process from OS
           314 MiB allocation reported by mallinfo(arena+hblkhd)
         74273 MiB available memory on the node where the printing process lives
------------------
     ethr =  4.57E-05,  avg # of iterations =  9.8

     negative rho (up, down):  3.080E-02 2.395E-02

     total cpu time spent up to now is     2139.6 secs

     total energy              =  -16138.54417299 Ry
     estimated scf accuracy    <       0.05171058 Ry

     total magnetization       =     1.00 Bohr mag/cell
     absolute magnetization    =     1.98 Bohr mag/cell

     iteration #  5     ecut=    50.00 Ry     beta= 0.40
     Davidson diagonalization with overlap

---- Real-time Memory Report at c_bands before calling an iterative solver
           513 MiB given to the printing process from OS
           346 MiB allocation reported by mallinfo(arena+hblkhd)
         74585 MiB available memory on the node where the printing process lives
------------------
     ethr =  1.07E-05,  avg # of iterations =  7.2

     negative rho (up, down):  2.110E-02 1.675E-02

     total cpu time spent up to now is     2535.6 secs

     total energy              =  -16138.54927013 Ry
     estimated scf accuracy    <       0.03165469 Ry

     total magnetization       =     1.00 Bohr mag/cell
     absolute magnetization    =     1.71 Bohr mag/cell

     iteration #  6     ecut=    50.00 Ry     beta= 0.40
     Davidson diagonalization with overlap

---- Real-time Memory Report at c_bands before calling an iterative solver
           517 MiB given to the printing process from OS
           348 MiB allocation reported by mallinfo(arena+hblkhd)
         73825 MiB available memory on the node where the printing process lives
------------------
     ethr =  6.53E-06,  avg # of iterations =  7.3

     negative rho (up, down):  1.382E-02 1.144E-02

     total cpu time spent up to now is     2896.7 secs

     total energy              =  -16138.55243668 Ry
     estimated scf accuracy    <       0.01655711 Ry

     total magnetization       =     1.00 Bohr mag/cell
     absolute magnetization    =     1.49 Bohr mag/cell

     iteration #  7     ecut=    50.00 Ry     beta= 0.40
     Davidson diagonalization with overlap

---- Real-time Memory Report at c_bands before calling an iterative solver
           517 MiB given to the printing process from OS
           350 MiB allocation reported by mallinfo(arena+hblkhd)
         74021 MiB available memory on the node where the printing process lives
------------------
     ethr =  3.41E-06,  avg # of iterations =  5.6

     negative rho (up, down):  1.996E-02 2.051E-02

     total cpu time spent up to now is     3255.4 secs

     total energy              =  -16138.55105665 Ry
     estimated scf accuracy    <       0.00828929 Ry

     total magnetization       =     1.00 Bohr mag/cell
     absolute magnetization    =     1.34 Bohr mag/cell

     iteration #  8     ecut=    50.00 Ry     beta= 0.40
     Davidson diagonalization with overlap

---- Real-time Memory Report at c_bands before calling an iterative solver
           519 MiB given to the printing process from OS
           350 MiB allocation reported by mallinfo(arena+hblkhd)
         74115 MiB available memory on the node where the printing process lives
------------------
     ethr =  1.71E-06,  avg # of iterations =  7.7

     negative rho (up, down):  2.098E-02 2.213E-02

     total cpu time spent up to now is     3592.7 secs

     total energy              =  -16138.55071677 Ry
     estimated scf accuracy    <       0.00217202 Ry

     total magnetization       =     1.00 Bohr mag/cell
     absolute magnetization    =     1.22 Bohr mag/cell

     iteration #  9     ecut=    50.00 Ry     beta= 0.40
     Davidson diagonalization with overlap

---- Real-time Memory Report at c_bands before calling an iterative solver
           519 MiB given to the printing process from OS
           351 MiB allocation reported by mallinfo(arena+hblkhd)
         77269 MiB available memory on the node where the printing process lives
------------------
     ethr =  4.48E-07,  avg # of iterations =  7.7

     negative rho (up, down):  1.520E-02 1.614E-02

     total cpu time spent up to now is     3991.7 secs

     total energy              =  -16138.55262382 Ry
     estimated scf accuracy    <       0.00050268 Ry

     total magnetization       =     1.00 Bohr mag/cell
     absolute magnetization    =     1.17 Bohr mag/cell

     iteration # 10     ecut=    50.00 Ry     beta= 0.40
     Davidson diagonalization with overlap

---- Real-time Memory Report at c_bands before calling an iterative solver
           520 MiB given to the printing process from OS
           352 MiB allocation reported by mallinfo(arena+hblkhd)
         75889 MiB available memory on the node where the printing process lives
------------------
     ethr =  1.04E-07,  avg # of iterations =  7.6

     negative rho (up, down):  1.097E-02 1.174E-02

     total cpu time spent up to now is     4397.6 secs

     total energy              =  -16138.55369621 Ry
     estimated scf accuracy    <       0.00015979 Ry

     total magnetization       =     1.00 Bohr mag/cell
     absolute magnetization    =     1.15 Bohr mag/cell

     iteration # 11     ecut=    50.00 Ry     beta= 0.40
     Davidson diagonalization with overlap

---- Real-time Memory Report at c_bands before calling an iterative solver
           522 MiB given to the printing process from OS
           354 MiB allocation reported by mallinfo(arena+hblkhd)
         76969 MiB available memory on the node where the printing process lives
------------------
     ethr =  3.29E-08,  avg # of iterations =  8.0

     negative rho (up, down):  7.860E-03 8.451E-03

     total cpu time spent up to now is     4844.8 secs

     total energy              =  -16138.55430670 Ry
     estimated scf accuracy    <       0.00009051 Ry

     total magnetization       =     1.00 Bohr mag/cell
     absolute magnetization    =     1.14 Bohr mag/cell

     iteration # 12     ecut=    50.00 Ry     beta= 0.40
     Davidson diagonalization with overlap

---- Real-time Memory Report at c_bands before calling an iterative solver
           523 MiB given to the printing process from OS
           354 MiB allocation reported by mallinfo(arena+hblkhd)
         76889 MiB available memory on the node where the printing process lives
------------------
     ethr =  1.87E-08,  avg # of iterations =  6.6

     negative rho (up, down):  6.017E-03 6.478E-03

     total cpu time spent up to now is     5251.4 secs

     total energy              =  -16138.55456782 Ry
     estimated scf accuracy    <       0.00003044 Ry

     total magnetization       =     1.00 Bohr mag/cell
     absolute magnetization    =     1.13 Bohr mag/cell

     iteration # 13     ecut=    50.00 Ry     beta= 0.40
     Davidson diagonalization with overlap

---- Real-time Memory Report at c_bands before calling an iterative solver
           523 MiB given to the printing process from OS
           354 MiB allocation reported by mallinfo(arena+hblkhd)
         74681 MiB available memory on the node where the printing process lives
------------------
     ethr =  6.28E-09,  avg # of iterations =  7.0

     negative rho (up, down):  5.217E-03 5.622E-03

     total cpu time spent up to now is     5664.0 secs

     total energy              =  -16138.55465902 Ry
     estimated scf accuracy    <       0.00001334 Ry

     total magnetization       =     1.00 Bohr mag/cell
     absolute magnetization    =     1.12 Bohr mag/cell

     iteration # 14     ecut=    50.00 Ry     beta= 0.40
     Davidson diagonalization with overlap

---- Real-time Memory Report at c_bands before calling an iterative solver
           523 MiB given to the printing process from OS
           354 MiB allocation reported by mallinfo(arena+hblkhd)
         74173 MiB available memory on the node where the printing process lives
------------------
     ethr =  2.75E-09,  avg # of iterations =  2.3

     negative rho (up, down):  4.889E-03 5.270E-03

     total cpu time spent up to now is     5996.7 secs

     total energy              =  -16138.55469566 Ry
     estimated scf accuracy    <       0.00000927 Ry

     total magnetization       =     1.00 Bohr mag/cell
     absolute magnetization    =     1.12 Bohr mag/cell

     iteration # 15     ecut=    50.00 Ry     beta= 0.40
     Davidson diagonalization with overlap

---- Real-time Memory Report at c_bands before calling an iterative solver
           523 MiB given to the printing process from OS
           354 MiB allocation reported by mallinfo(arena+hblkhd)
         73990 MiB available memory on the node where the printing process lives
------------------
     ethr =  1.91E-09,  avg # of iterations =  2.0

     negative rho (up, down):  4.819E-03 5.195E-03

     total cpu time spent up to now is     6298.2 secs

     total energy              =  -16138.55470489 Ry
     estimated scf accuracy    <       0.00000784 Ry

     total magnetization       =     1.00 Bohr mag/cell
     absolute magnetization    =     1.12 Bohr mag/cell

     iteration # 16     ecut=    50.00 Ry     beta= 0.40
     Davidson diagonalization with overlap

---- Real-time Memory Report at c_bands before calling an iterative solver
           523 MiB given to the printing process from OS
           354 MiB allocation reported by mallinfo(arena+hblkhd)
         74172 MiB available memory on the node where the printing process lives
------------------
     ethr =  1.62E-09,  avg # of iterations =  1.5

     negative rho (up, down):  5.808E-03 6.233E-03

     total cpu time spent up to now is     6588.7 secs

     total energy              =  -16138.55460356 Ry
     estimated scf accuracy    <       0.00000664 Ry

     total magnetization       =     1.00 Bohr mag/cell
     absolute magnetization    =     1.12 Bohr mag/cell

     iteration # 17     ecut=    50.00 Ry     beta= 0.40
     Davidson diagonalization with overlap

---- Real-time Memory Report at c_bands before calling an iterative solver
           523 MiB given to the printing process from OS
           354 MiB allocation reported by mallinfo(arena+hblkhd)
         73894 MiB available memory on the node where the printing process lives
------------------
     ethr =  1.37E-09,  avg # of iterations =  8.1

     negative rho (up, down):  5.140E-03 5.533E-03

     total cpu time spent up to now is     7001.9 secs

     total energy              =  -16138.55466854 Ry
     estimated scf accuracy    <       0.00001590 Ry

     total magnetization       =     1.00 Bohr mag/cell
     absolute magnetization    =     1.12 Bohr mag/cell

     iteration # 18     ecut=    50.00 Ry     beta= 0.40
     Davidson diagonalization with overlap

---- Real-time Memory Report at c_bands before calling an iterative solver
           523 MiB given to the printing process from OS
           354 MiB allocation reported by mallinfo(arena+hblkhd)
         74090 MiB available memory on the node where the printing process lives
------------------
     ethr =  1.37E-09,  avg # of iterations =  7.9

     negative rho (up, down):  4.859E-03 5.234E-03

     total cpu time spent up to now is     7431.5 secs

     total energy              =  -16138.55469934 Ry
     estimated scf accuracy    <       0.00000438 Ry

     total magnetization       =     1.00 Bohr mag/cell
     absolute magnetization    =     1.12 Bohr mag/cell

     iteration # 19     ecut=    50.00 Ry     beta= 0.40
     Davidson diagonalization with overlap

---- Real-time Memory Report at c_bands before calling an iterative solver
           523 MiB given to the printing process from OS
           354 MiB allocation reported by mallinfo(arena+hblkhd)
         74060 MiB available memory on the node where the printing process lives
------------------
     ethr =  9.03E-10,  avg # of iterations =  2.0

     negative rho (up, down):  4.810E-03 5.178E-03

     total cpu time spent up to now is     7756.0 secs

     total energy              =  -16138.55470488 Ry
     estimated scf accuracy    <       0.00000233 Ry

     total magnetization       =     1.00 Bohr mag/cell
     absolute magnetization    =     1.12 Bohr mag/cell

     iteration # 20     ecut=    50.00 Ry     beta= 0.40
     Davidson diagonalization with overlap

---- Real-time Memory Report at c_bands before calling an iterative solver
           523 MiB given to the printing process from OS
           354 MiB allocation reported by mallinfo(arena+hblkhd)
         74017 MiB available memory on the node where the printing process lives
------------------
     ethr =  4.81E-10,  avg # of iterations =  7.5

     negative rho (up, down):  4.803E-03 5.170E-03

     total cpu time spent up to now is     8186.7 secs

     total energy              =  -16138.55470598 Ry
     estimated scf accuracy    <       0.00000158 Ry

     total magnetization       =     1.00 Bohr mag/cell
     absolute magnetization    =     1.12 Bohr mag/cell

     iteration # 21     ecut=    50.00 Ry     beta= 0.40
     Davidson diagonalization with overlap

---- Real-time Memory Report at c_bands before calling an iterative solver
           523 MiB given to the printing process from OS
           354 MiB allocation reported by mallinfo(arena+hblkhd)
         73914 MiB available memory on the node where the printing process lives
------------------
     ethr =  3.26E-10,  avg # of iterations =  3.3

     negative rho (up, down):  4.800E-03 5.167E-03

     total cpu time spent up to now is     8513.5 secs

     total energy              =  -16138.55470641 Ry
     estimated scf accuracy    <       0.00000100 Ry

     total magnetization       =     1.00 Bohr mag/cell
     absolute magnetization    =     1.12 Bohr mag/cell

     iteration # 22     ecut=    50.00 Ry     beta= 0.40
     Davidson diagonalization with overlap

---- Real-time Memory Report at c_bands before calling an iterative solver
           523 MiB given to the printing process from OS
           354 MiB allocation reported by mallinfo(arena+hblkhd)
         67435 MiB available memory on the node where the printing process lives
------------------
     ethr =  2.07E-10,  avg # of iterations =  2.5

     negative rho (up, down):  4.799E-03 5.166E-03

     total cpu time spent up to now is     8820.8 secs

     total energy              =  -16138.55470629 Ry
     estimated scf accuracy    <       0.00000054 Ry

     total magnetization       =     1.00 Bohr mag/cell
     absolute magnetization    =     1.12 Bohr mag/cell

     iteration # 23     ecut=    50.00 Ry     beta= 0.40
     Davidson diagonalization with overlap

---- Real-time Memory Report at c_bands before calling an iterative solver
           523 MiB given to the printing process from OS
           354 MiB allocation reported by mallinfo(arena+hblkhd)
         73912 MiB available memory on the node where the printing process lives
------------------
     ethr =  1.11E-10,  avg # of iterations = 10.7

     negative rho (up, down):  4.799E-03 5.164E-03

     total cpu time spent up to now is     9295.9 secs

     total energy              =  -16138.55470650 Ry
     estimated scf accuracy    <       0.00000083 Ry

     total magnetization       =     1.00 Bohr mag/cell
     absolute magnetization    =     1.12 Bohr mag/cell

     iteration # 24     ecut=    50.00 Ry     beta= 0.40
     Davidson diagonalization with overlap

---- Real-time Memory Report at c_bands before calling an iterative solver
           523 MiB given to the printing process from OS
           354 MiB allocation reported by mallinfo(arena+hblkhd)
         73878 MiB available memory on the node where the printing process lives
------------------
     ethr =  1.11E-10,  avg # of iterations =  2.0

     negative rho (up, down):  4.798E-03 5.164E-03

     total cpu time spent up to now is     9605.7 secs

     total energy              =  -16138.55470642 Ry
     estimated scf accuracy    <       0.00000043 Ry

     total magnetization       =     1.00 Bohr mag/cell
     absolute magnetization    =     1.12 Bohr mag/cell

     iteration # 25     ecut=    50.00 Ry     beta= 0.40
     Davidson diagonalization with overlap

---- Real-time Memory Report at c_bands before calling an iterative solver
           523 MiB given to the printing process from OS
           354 MiB allocation reported by mallinfo(arena+hblkhd)
         73773 MiB available memory on the node where the printing process lives
------------------
     ethr =  8.76E-11,  avg # of iterations =  7.3

     negative rho (up, down):  4.797E-03 5.164E-03

     total cpu time spent up to now is    10028.7 secs

     total energy              =  -16138.55470651 Ry
     estimated scf accuracy    <       0.00000011 Ry

     total magnetization       =     1.00 Bohr mag/cell
     absolute magnetization    =     1.12 Bohr mag/cell

     iteration # 26     ecut=    50.00 Ry     beta= 0.40
     Davidson diagonalization with overlap

---- Real-time Memory Report at c_bands before calling an iterative solver
           523 MiB given to the printing process from OS
           354 MiB allocation reported by mallinfo(arena+hblkhd)
         73703 MiB available memory on the node where the printing process lives
------------------
     ethr =  2.31E-11,  avg # of iterations =  2.0

     negative rho (up, down):  4.797E-03 5.163E-03

     total cpu time spent up to now is    10335.6 secs

     total energy              =  -16138.55470649 Ry
     estimated scf accuracy    <       0.00000007 Ry

     total magnetization       =     1.00 Bohr mag/cell
     absolute magnetization    =     1.12 Bohr mag/cell

     iteration # 27     ecut=    50.00 Ry     beta= 0.40
     Davidson diagonalization with overlap

---- Real-time Memory Report at c_bands before calling an iterative solver
           523 MiB given to the printing process from OS
           354 MiB allocation reported by mallinfo(arena+hblkhd)
         73868 MiB available memory on the node where the printing process lives
------------------
     ethr =  1.40E-11,  avg # of iterations =  7.8

     negative rho (up, down):  4.796E-03 5.163E-03

     total cpu time spent up to now is    10779.5 secs

     total energy              =  -16138.55470651 Ry
     estimated scf accuracy    <       0.00000004 Ry

     total magnetization       =     1.00 Bohr mag/cell
     absolute magnetization    =     1.12 Bohr mag/cell

     iteration # 28     ecut=    50.00 Ry     beta= 0.40
     Davidson diagonalization with overlap

---- Real-time Memory Report at c_bands before calling an iterative solver
           523 MiB given to the printing process from OS
           354 MiB allocation reported by mallinfo(arena+hblkhd)
         73938 MiB available memory on the node where the printing process lives
------------------
     ethr =  8.62E-12,  avg # of iterations =  2.5

     negative rho (up, down):  4.796E-03 5.163E-03

     total cpu time spent up to now is    11084.6 secs

     total energy              =  -16138.55470651 Ry
     estimated scf accuracy    <       0.00000002 Ry

     total magnetization       =     1.00 Bohr mag/cell
     absolute magnetization    =     1.12 Bohr mag/cell

     iteration # 29     ecut=    50.00 Ry     beta= 0.40
     Davidson diagonalization with overlap

---- Real-time Memory Report at c_bands before calling an iterative solver
           529 MiB given to the printing process from OS
           354 MiB allocation reported by mallinfo(arena+hblkhd)
         73696 MiB available memory on the node where the printing process lives
------------------
     ethr =  3.80E-12,  avg # of iterations =  7.9

     negative rho (up, down):  4.796E-03 5.163E-03

     total cpu time spent up to now is    11526.0 secs

     total energy              =  -16138.55470651 Ry
     estimated scf accuracy    <       0.00000001 Ry

     total magnetization       =     1.00 Bohr mag/cell
     absolute magnetization    =     1.12 Bohr mag/cell

     iteration # 30     ecut=    50.00 Ry     beta= 0.40
     Davidson diagonalization with overlap

---- Real-time Memory Report at c_bands before calling an iterative solver
           530 MiB given to the printing process from OS
           354 MiB allocation reported by mallinfo(arena+hblkhd)
         73837 MiB available memory on the node where the printing process lives
------------------
     ethr =  2.71E-12,  avg # of iterations =  3.3

     negative rho (up, down):  4.796E-03 5.163E-03

     total cpu time spent up to now is    11842.4 secs

     total energy              =  -16138.55470651 Ry
     estimated scf accuracy    <          3.4E-09 Ry

     total magnetization       =     1.00 Bohr mag/cell
     absolute magnetization    =     1.12 Bohr mag/cell

     iteration # 31     ecut=    50.00 Ry     beta= 0.40
     Davidson diagonalization with overlap

---- Real-time Memory Report at c_bands before calling an iterative solver
           530 MiB given to the printing process from OS
           354 MiB allocation reported by mallinfo(arena+hblkhd)
         73838 MiB available memory on the node where the printing process lives
------------------
     ethr =  7.05E-13,  avg # of iterations =  7.8

     negative rho (up, down):  4.796E-03 5.163E-03

     total cpu time spent up to now is    12281.7 secs

     total energy              =  -16138.55470651 Ry
     estimated scf accuracy    <          2.6E-09 Ry

     total magnetization       =     1.00 Bohr mag/cell
     absolute magnetization    =     1.12 Bohr mag/cell

     iteration # 32     ecut=    50.00 Ry     beta= 0.40
     Davidson diagonalization with overlap

---- Real-time Memory Report at c_bands before calling an iterative solver
           530 MiB given to the printing process from OS
           354 MiB allocation reported by mallinfo(arena+hblkhd)
         73639 MiB available memory on the node where the printing process lives
------------------
     ethr =  5.31E-13,  avg # of iterations =  1.5

     negative rho (up, down):  4.796E-03 5.163E-03

     total cpu time spent up to now is    12568.8 secs

     total energy              =  -16138.55470651 Ry
     estimated scf accuracy    <          3.3E-09 Ry

     total magnetization       =     1.00 Bohr mag/cell
     absolute magnetization    =     1.12 Bohr mag/cell

     iteration # 33     ecut=    50.00 Ry     beta= 0.40
     Davidson diagonalization with overlap

---- Real-time Memory Report at c_bands before calling an iterative solver
           530 MiB given to the printing process from OS
           354 MiB allocation reported by mallinfo(arena+hblkhd)
         73712 MiB available memory on the node where the printing process lives
------------------
     ethr =  5.31E-13,  avg # of iterations =  2.0

     negative rho (up, down):  4.796E-03 5.163E-03

     total cpu time spent up to now is    12872.0 secs

     total energy              =  -16138.55470651 Ry
     estimated scf accuracy    <          1.7E-09 Ry

     total magnetization       =     1.00 Bohr mag/cell
     absolute magnetization    =     1.12 Bohr mag/cell

     iteration # 34     ecut=    50.00 Ry     beta= 0.40
     Davidson diagonalization with overlap

---- Real-time Memory Report at c_bands before calling an iterative solver
           530 MiB given to the printing process from OS
           354 MiB allocation reported by mallinfo(arena+hblkhd)
         73791 MiB available memory on the node where the printing process lives
------------------
     ethr =  3.48E-13,  avg # of iterations =  7.0

     negative rho (up, down):  4.796E-03 5.163E-03

     Magnetic moment per site  (integrated on atomic sphere of radius R)
     atom   1 (R=0.078)  charge= 10.3731  magn=  0.0015
     atom   2 (R=0.078)  charge= 10.3731  magn=  0.0080
     atom   3 (R=0.078)  charge= 10.3740  magn= -0.0007
     atom   4 (R=0.078)  charge= 10.3743  magn=  0.0148
     atom   5 (R=0.078)  charge= 10.3763  magn=  0.0110
     atom   6 (R=0.078)  charge= 10.3757  magn=  0.0063
     atom   7 (R=0.078)  charge= 10.3783  magn=  0.0051
     atom   8 (R=0.078)  charge= 10.3749  magn=  0.0108
     atom   9 (R=0.078)  charge= 10.3753  magn=  0.0033
     atom  10 (R=0.078)  charge= 10.3820  magn=  0.0365
     atom  11 (R=0.078)  charge= 10.3836  magn=  0.0167
     atom  12 (R=0.078)  charge= 10.3743  magn=  0.0165
     atom  13 (R=0.078)  charge= 10.3731  magn=  0.0029
     atom  14 (R=0.078)  charge= 10.3740  magn= -0.0006
     atom  15 (R=0.078)  charge= 10.3816  magn=  0.0171
     atom  16 (R=0.078)  charge= 10.3760  magn=  0.0042
     atom  17 (R=0.078)  charge=  4.1591  magn=  0.0027
     atom  18 (R=0.078)  charge=  4.1558  magn=  0.0017
     atom  19 (R=0.078)  charge=  4.1586  magn= -0.0000
     atom  20 (R=0.078)  charge=  4.1590  magn=  0.0028
     atom  21 (R=0.078)  charge=  4.1594  magn=  0.0024
     atom  22 (R=0.078)  charge=  4.1750  magn=  0.0122
     atom  23 (R=0.078)  charge=  4.1787  magn=  0.0050
     atom  24 (R=0.078)  charge=  4.1586  magn=  0.0036
     atom  25 (R=0.078)  charge=  4.1591  magn=  0.0022
     atom  26 (R=0.078)  charge=  4.1626  magn=  0.0026
     atom  27 (R=0.078)  charge=  4.1805  magn=  0.0068
     atom  28 (R=0.078)  charge=  4.1668  magn=  0.0125
     atom  29 (R=0.078)  charge=  4.1578  magn=  0.0030
     atom  30 (R=0.078)  charge=  4.1574  magn=  0.0007
     atom  31 (R=0.078)  charge=  4.1566  magn=  0.0017
     atom  32 (R=0.078)  charge=  4.1575  magn=  0.0062
     atom  33 (R=0.078)  charge=  4.1610  magn=  0.0008
     atom  34 (R=0.078)  charge=  4.1591  magn=  0.0008
     atom  35 (R=0.078)  charge=  4.1606  magn= -0.0002
     atom  36 (R=0.078)  charge=  4.1609  magn=  0.0001
     atom  37 (R=0.078)  charge=  4.1601  magn=  0.0005
     atom  38 (R=0.078)  charge=  4.1589  magn=  0.0036
     atom  39 (R=0.078)  charge=  4.1568  magn=  0.0010
     atom  40 (R=0.078)  charge=  4.1595  magn= -0.0001
     atom  41 (R=0.078)  charge=  4.1602  magn=  0.0005
     atom  42 (R=0.078)  charge=  4.1579  magn=  0.0018
     atom  43 (R=0.078)  charge=  4.1526  magn=  0.0025
     atom  44 (R=0.078)  charge=  4.1584  magn=  0.0032
     atom  45 (R=0.078)  charge=  4.1594  magn=  0.0015
     atom  46 (R=0.078)  charge=  4.1597  magn=  0.0002
     atom  47 (R=0.078)  charge=  4.1603  magn=  0.0006
     atom  48 (R=0.078)  charge=  4.1598  magn=  0.0022
     atom  49 (R=0.075)  charge=  8.3673  magn=  0.0118
     atom  50 (R=0.075)  charge=  8.3636  magn=  0.0307
     atom  51 (R=0.075)  charge=  8.3671  magn=  0.0134
     atom  52 (R=0.075)  charge=  8.3640  magn=  0.0329
     atom  53 (R=0.075)  charge=  8.3529  magn=  0.0184
     atom  54 (R=0.033)  charge=  1.2810  magn= -0.0002
     atom  55 (R=0.032)  charge=  2.0227  magn=  0.0004
     atom  56 (R=0.032)  charge=  0.4283  magn=  0.0002
     atom  57 (R=0.032)  charge=  0.4030  magn=  0.0000
     atom  58 (R=0.032)  charge=  0.4053  magn=  0.0001

     total cpu time spent up to now is    13262.4 secs

     End of self-consistent calculation

 ------ SPIN UP ------------


          k = 0.0000 0.0000 0.0000 (112117 PWs)   bands (ev):

   -73.8171 -73.8136 -73.8107 -73.8082 -73.8062 -73.8054 -73.8027 -73.8007
   -73.7959 -73.7940 -73.7913 -73.7891 -73.7873 -73.7546 -73.7498 -73.7403
   -38.2251 -38.2202 -38.2190 -38.1641 -38.1633 -38.1584 -38.1580 -38.1516
   -38.1438 -38.0600 -38.0571 -38.0545 -38.0539 -38.0487 -38.0468 -38.0449
   -38.0314 -38.0297 -38.0271 -38.0265 -38.0227 -38.0220 -38.0197 -38.0176
   -38.0170 -38.0141 -38.0125 -38.0047 -37.9958 -37.9927 -37.9915 -37.9885
   -37.9869 -37.9827 -37.9690 -37.9588 -37.9575 -37.9546 -37.9520 -37.9466
   -37.9255 -37.9186 -37.9141 -37.9135 -37.9097 -37.9048 -37.8705 -37.8672
   -21.4872 -15.4280 -14.5991 -13.7125 -13.6992 -13.6752 -13.6448 -13.6316
   -13.6214 -12.9837 -12.7141 -12.6784 -12.6561 -12.6403 -12.6039 -12.5821
   -12.5407 -12.5079 -12.4739 -12.4576 -12.4464 -12.4443 -12.4230 -12.4217
   -12.4169 -12.2244 -12.2023 -12.1912 -12.1754 -12.1584 -12.1545 -12.1508
   -12.1477 -12.1451  -7.9167  -7.5303  -6.3440  -6.3284  -6.3103  -6.2856
    -6.1670  -5.6163  -5.5749  -5.5529  -5.5346  -5.5295  -5.4957  -5.4471
    -5.4163  -5.3936  -5.3159  -5.2858  -5.2637  -5.1079  -5.0957  -5.0665
    -5.0615  -5.0570  -5.0559  -5.0014  -5.0000  -4.9911  -4.5265  -4.4436
    -4.4042  -4.3494  -4.2963  -4.2865  -4.2705  -4.2494  -4.2352  -4.1851
    -4.0830  -4.0130  -3.9810  -3.9649  -3.9388  -3.7980  -3.7629  -3.7609
    -3.7063  -3.6805  -3.6770  -3.6207  -3.5183  -3.4771  -3.4098  -3.4055
    -3.3764  -3.3685  -3.3024  -3.2283  -3.1997  -3.1854  -3.1666  -3.1456
    -3.1359  -3.1282  -3.1140  -3.1106  -3.0650  -2.9641  -2.8238  -2.7768
    -2.7256  -2.6809  -2.6513  -2.5943  -2.5860  -2.5277  -2.5182  -2.4685
    -2.4635  -2.4373  -2.4353  -2.4297  -2.4051  -2.3447  -2.2960  -2.2125
    -2.1380  -2.0884  -1.9834  -1.9801  -1.9569  -1.9355  -1.8725  -1.8405
    -1.8176  -1.7853  -1.7715  -1.7679  -1.7546  -1.7542  -1.7458  -1.7427
    -1.7402  -1.7117  -1.7007  -1.6698  -1.6623  -1.6479  -1.6382  -1.6124
    -1.5843  -1.5343  -1.5264  -1.5088  -1.4558  -1.4205  -1.3759  -1.3594
    -1.3137  -1.2800  -1.2048  -1.1008  -1.0636  -1.0322  -1.0169  -0.9985
    -0.7315  -0.6959  -0.6918  -0.6894  -0.6801  -0.6762  -0.6511  -0.6479
    -0.6318  -0.3988  -0.3902  -0.3788  -0.3637  -0.3513  -0.3431  -0.3248
     0.1956   1.2541   1.5334

     occupation numbers 
     1.0000   1.0000   1.0000   1.0000   1.0000   1.0000   1.0000   1.0000
     1.0000   1.0000   1.0000   1.0000   1.0000   1.0000   1.0000   1.0000
     1.0000   1.0000   1.0000   1.0000   1.0000   1.0000   1.0000   1.0000
     1.0000   1.0000   1.0000   1.0000   1.0000   1.0000   1.0000   1.0000
     1.0000   1.0000   1.0000   1.0000   1.0000   1.0000   1.0000   1.0000
     1.0000   1.0000   1.0000   1.0000   1.0000   1.0000   1.0000   1.0000
     1.0000   1.0000   1.0000   1.0000   1.0000   1.0000   1.0000   1.0000
     1.0000   1.0000   1.0000   1.0000   1.0000   1.0000   1.0000   1.0000
     1.0000   1.0000   1.0000   1.0000   1.0000   1.0000   1.0000   1.0000
     1.0000   1.0000   1.0000   1.0000   1.0000   1.0000   1.0000   1.0000
     1.0000   1.0000   1.0000   1.0000   1.0000   1.0000   1.0000   1.0000
     1.0000   1.0000   1.0000   1.0000   1.0000   1.0000   1.0000   1.0000
     1.0000   1.0000   1.0000   1.0000   1.0000   1.0000   1.0000   1.0000
     1.0000   1.0000   1.0000   1.0000   1.0000   1.0000   1.0000   1.0000
     1.0000   1.0000   1.0000   1.0000   1.0000   1.0000   1.0000   1.0000
     1.0000   1.0000   1.0000   1.0000   1.0000   1.0000   1.0000   1.0000
     1.0000   1.0000   1.0000   1.0000   1.0000   1.0000   1.0000   1.0000
     1.0000   1.0000   1.0000   1.0000   1.0000   1.0000   1.0000   1.0000
     1.0000   1.0000   1.0000   1.0000   1.0000   1.0000   1.0000   1.0000
     1.0000   1.0000   1.0000   1.0000   1.0000   1.0000   1.0000   1.0000
     1.0000   1.0000   1.0000   1.0000   1.0000   1.0000   1.0000   1.0000
     1.0000   1.0000   1.0000   1.0000   1.0000   1.0000   1.0000   1.0000
     1.0000   1.0000   1.0000   1.0000   1.0000   1.0000   1.0000   1.0000
     1.0000   1.0000   1.0000   1.0000   1.0000   1.0000   1.0000   1.0000
     1.0000   1.0000   1.0000   1.0000   1.0000   1.0000   1.0000   1.0000
     1.0000   1.0000   1.0000   1.0000   1.0000   1.0000   1.0000   1.0000
     1.0000   1.0000   1.0000   1.0000   1.0000   1.0000   1.0000   1.0000
     1.0000   1.0000   1.0000   1.0000   1.0000   1.0000   1.0000   1.0000
     1.0000   1.0000   1.0000   1.0000   1.0000   1.0000   1.0000   1.0000
     1.0000   1.0000   1.0000   1.0000   1.0000   1.0000   1.0000   1.0000
     1.0000   1.0000   1.0000

          k = 0.0000 0.2309 0.0000 (112171 PWs)   bands (ev):

   -73.8170 -73.8139 -73.8107 -73.8084 -73.8060 -73.8053 -73.8027 -73.8007
   -73.7960 -73.7940 -73.7912 -73.7892 -73.7873 -73.7546 -73.7498 -73.7403
   -38.2198 -38.2149 -38.2127 -38.1705 -38.1659 -38.1625 -38.1556 -38.1481
   -38.1411 -38.1038 -38.0791 -38.0770 -38.0530 -38.0493 -38.0458 -38.0329
   -38.0295 -38.0267 -38.0244 -38.0218 -38.0186 -38.0165 -38.0136 -38.0118
   -38.0047 -37.9993 -37.9975 -37.9961 -37.9942 -37.9923 -37.9888 -37.9874
   -37.9860 -37.9826 -37.9693 -37.9621 -37.9599 -37.9550 -37.9520 -37.9467
   -37.9327 -37.9231 -37.9221 -37.9117 -37.9085 -37.9012 -37.8779 -37.8687
   -21.4872 -15.4280 -14.5575 -13.9779 -13.8031 -13.7860 -13.4950 -13.4620
   -13.3253 -12.9678 -12.8076 -12.7360 -12.6982 -12.6883 -12.6557 -12.5883
   -12.5557 -12.5437 -12.4951 -12.4775 -12.4577 -12.4379 -12.4241 -12.3176
   -12.2858 -12.2640 -12.2448 -12.2148 -12.1860 -12.1751 -12.1687 -12.1532
   -12.0959 -12.0807  -7.9167  -7.5303  -6.2826  -6.2711  -6.2394  -6.2374
    -6.1651  -5.6716  -5.6484  -5.6312  -5.5607  -5.5196  -5.4903  -5.4722
    -5.4312  -5.4191  -5.3970  -5.3221  -5.3179  -5.2885  -5.2714  -5.0744
    -5.0673  -5.0192  -5.0032  -4.9573  -4.7406  -4.7353  -4.5929  -4.4864
    -4.4549  -4.3873  -4.3241  -4.2899  -4.2113  -4.1624  -4.1480  -4.1217
    -4.1009  -4.0640  -4.0447  -4.0024  -3.9862  -3.9139  -3.9108  -3.9023
    -3.6794  -3.5777  -3.5445  -3.5112  -3.4705  -3.4458  -3.4398  -3.3854
    -3.3653  -3.3175  -3.2989  -3.2820  -3.2772  -3.2109  -3.1962  -3.1506
    -3.1049  -2.9982  -2.9668  -2.9363  -2.8604  -2.7984  -2.7780  -2.7503
    -2.7264  -2.7195  -2.7007  -2.6881  -2.6606  -2.6381  -2.6117  -2.5463
    -2.5257  -2.5080  -2.4791  -2.4472  -2.3649  -2.3178  -2.2064  -2.1666
    -2.1273  -2.0902  -2.0201  -2.0057  -1.9867  -1.9701  -1.9389  -1.9123
    -1.8928  -1.8650  -1.8546  -1.8202  -1.7932  -1.7657  -1.7478  -1.7346
    -1.7244  -1.7050  -1.6906  -1.6685  -1.6520  -1.6111  -1.5874  -1.5540
    -1.5376  -1.4967  -1.4859  -1.4629  -1.4351  -1.3743  -1.3388  -1.3287
    -1.2985  -1.2829  -1.2485  -1.2288  -1.1668  -1.0736  -1.0513  -1.0310
    -0.8986  -0.7815  -0.7639  -0.7514  -0.5742  -0.5661  -0.5543  -0.5359
    -0.5229  -0.5130  -0.4145  -0.3786  -0.3671  -0.2680  -0.1719  -0.1469
     0.1766   1.2605   1.5648

     occupation numbers 
     1.0000   1.0000   1.0000   1.0000   1.0000   1.0000   1.0000   1.0000
     1.0000   1.0000   1.0000   1.0000   1.0000   1.0000   1.0000   1.0000
     1.0000   1.0000   1.0000   1.0000   1.0000   1.0000   1.0000   1.0000
     1.0000   1.0000   1.0000   1.0000   1.0000   1.0000   1.0000   1.0000
     1.0000   1.0000   1.0000   1.0000   1.0000   1.0000   1.0000   1.0000
     1.0000   1.0000   1.0000   1.0000   1.0000   1.0000   1.0000   1.0000
     1.0000   1.0000   1.0000   1.0000   1.0000   1.0000   1.0000   1.0000
     1.0000   1.0000   1.0000   1.0000   1.0000   1.0000   1.0000   1.0000
     1.0000   1.0000   1.0000   1.0000   1.0000   1.0000   1.0000   1.0000
     1.0000   1.0000   1.0000   1.0000   1.0000   1.0000   1.0000   1.0000
     1.0000   1.0000   1.0000   1.0000   1.0000   1.0000   1.0000   1.0000
     1.0000   1.0000   1.0000   1.0000   1.0000   1.0000   1.0000   1.0000
     1.0000   1.0000   1.0000   1.0000   1.0000   1.0000   1.0000   1.0000
     1.0000   1.0000   1.0000   1.0000   1.0000   1.0000   1.0000   1.0000
     1.0000   1.0000   1.0000   1.0000   1.0000   1.0000   1.0000   1.0000
     1.0000   1.0000   1.0000   1.0000   1.0000   1.0000   1.0000   1.0000
     1.0000   1.0000   1.0000   1.0000   1.0000   1.0000   1.0000   1.0000
     1.0000   1.0000   1.0000   1.0000   1.0000   1.0000   1.0000   1.0000
     1.0000   1.0000   1.0000   1.0000   1.0000   1.0000   1.0000   1.0000
     1.0000   1.0000   1.0000   1.0000   1.0000   1.0000   1.0000   1.0000
     1.0000   1.0000   1.0000   1.0000   1.0000   1.0000   1.0000   1.0000
     1.0000   1.0000   1.0000   1.0000   1.0000   1.0000   1.0000   1.0000
     1.0000   1.0000   1.0000   1.0000   1.0000   1.0000   1.0000   1.0000
     1.0000   1.0000   1.0000   1.0000   1.0000   1.0000   1.0000   1.0000
     1.0000   1.0000   1.0000   1.0000   1.0000   1.0000   1.0000   1.0000
     1.0000   1.0000   1.0000   1.0000   1.0000   1.0000   1.0000   1.0000
     1.0000   1.0000   1.0000   1.0000   1.0000   1.0000   1.0000   1.0000
     1.0000   1.0000   1.0000   1.0000   1.0000   1.0000   1.0000   1.0000
     1.0000   1.0000   1.0000   1.0000   1.0000   1.0000   1.0000   1.0000
     1.0000   1.0000   1.0000   1.0000   1.0000   1.0000   1.0000   1.0000
     1.0000   1.0000   1.0000

          k = 0.0000 0.4619 0.0000 (112236 PWs)   bands (ev):

   -73.8167 -73.8142 -73.8108 -73.8085 -73.8058 -73.8052 -73.8027 -73.8006
   -73.7963 -73.7940 -73.7910 -73.7894 -73.7873 -73.7546 -73.7498 -73.7403
   -38.2067 -38.2041 -38.1907 -38.1881 -38.1761 -38.1665 -38.1601 -38.1472
   -38.1312 -38.1264 -38.1058 -38.1013 -38.0640 -38.0587 -38.0475 -38.0386
   -38.0316 -38.0207 -38.0171 -38.0128 -38.0095 -38.0069 -38.0031 -38.0008
   -37.9988 -37.9975 -37.9970 -37.9913 -37.9886 -37.9858 -37.9825 -37.9789
   -37.9738 -37.9704 -37.9671 -37.9657 -37.9533 -37.9517 -37.9496 -37.9479
   -37.9432 -37.9365 -37.9318 -37.9162 -37.9113 -37.8954 -37.8938 -37.8716
   -21.4872 -15.4280 -14.4359 -14.2345 -13.8729 -13.8541 -13.2660 -13.2307
   -13.0211 -13.0001 -12.9709 -12.9181 -12.8336 -12.7316 -12.7052 -12.6895
   -12.5223 -12.5151 -12.4636 -12.4504 -12.4375 -12.4252 -12.3830 -12.3697
   -12.3511 -12.2848 -12.2170 -12.2023 -12.1778 -12.1595 -12.1576 -12.1533
   -12.0567 -12.0399  -7.9167  -7.5303  -6.1786  -6.1274  -6.1145  -6.0925
    -6.0280  -5.8740  -5.8617  -5.8392  -5.7154  -5.5356  -5.5009  -5.4895
    -5.4613  -5.4468  -5.4384  -5.3946  -5.3749  -5.3272  -5.3027  -5.0677
    -5.0644  -5.0316  -5.0101  -4.8120  -4.6335  -4.5305  -4.4877  -4.4415
    -4.3954  -4.3765  -4.3504  -4.3148  -4.2463  -4.2331  -4.1927  -4.1617
    -4.1307  -4.1200  -4.1041  -4.0780  -4.0665  -4.0531  -4.0436  -3.7027
    -3.5774  -3.5129  -3.4836  -3.4453  -3.4229  -3.3936  -3.3729  -3.3121
    -3.2986  -3.2834  -3.2645  -3.2417  -3.2224  -3.1903  -3.1652  -3.1089
    -3.0679  -3.0622  -3.0114  -2.9735  -2.9551  -2.9172  -2.8657  -2.7816
    -2.7542  -2.7097  -2.6703  -2.6412  -2.6129  -2.5747  -2.5458  -2.4988
    -2.4530  -2.4342  -2.4000  -2.3210  -2.2815  -2.2566  -2.2436  -2.1884
    -2.1295  -2.1021  -2.0480  -2.0215  -2.0119  -2.0017  -1.9846  -1.9558
    -1.9342  -1.9103  -1.8817  -1.8751  -1.8573  -1.8450  -1.8408  -1.8288
    -1.7757  -1.7680  -1.7254  -1.7186  -1.6985  -1.6714  -1.6354  -1.6219
    -1.5956  -1.5561  -1.5353  -1.5061  -1.4355  -1.3916  -1.3036  -1.2913
    -1.2397  -1.2050  -1.1924  -1.1508  -1.1212  -1.0994  -1.0507  -1.0144
    -0.9794  -0.8963  -0.7352  -0.7239  -0.6425  -0.6262  -0.4968  -0.4587
    -0.4451  -0.4348  -0.3994  -0.3819  -0.3151  -0.0957   0.0006   0.0237
     0.1270   1.2703   1.6172

     occupation numbers 
     1.0000   1.0000   1.0000   1.0000   1.0000   1.0000   1.0000   1.0000
     1.0000   1.0000   1.0000   1.0000   1.0000   1.0000   1.0000   1.0000
     1.0000   1.0000   1.0000   1.0000   1.0000   1.0000   1.0000   1.0000
     1.0000   1.0000   1.0000   1.0000   1.0000   1.0000   1.0000   1.0000
     1.0000   1.0000   1.0000   1.0000   1.0000   1.0000   1.0000   1.0000
     1.0000   1.0000   1.0000   1.0000   1.0000   1.0000   1.0000   1.0000
     1.0000   1.0000   1.0000   1.0000   1.0000   1.0000   1.0000   1.0000
     1.0000   1.0000   1.0000   1.0000   1.0000   1.0000   1.0000   1.0000
     1.0000   1.0000   1.0000   1.0000   1.0000   1.0000   1.0000   1.0000
     1.0000   1.0000   1.0000   1.0000   1.0000   1.0000   1.0000   1.0000
     1.0000   1.0000   1.0000   1.0000   1.0000   1.0000   1.0000   1.0000
     1.0000   1.0000   1.0000   1.0000   1.0000   1.0000   1.0000   1.0000
     1.0000   1.0000   1.0000   1.0000   1.0000   1.0000   1.0000   1.0000
     1.0000   1.0000   1.0000   1.0000   1.0000   1.0000   1.0000   1.0000
     1.0000   1.0000   1.0000   1.0000   1.0000   1.0000   1.0000   1.0000
     1.0000   1.0000   1.0000   1.0000   1.0000   1.0000   1.0000   1.0000
     1.0000   1.0000   1.0000   1.0000   1.0000   1.0000   1.0000   1.0000
     1.0000   1.0000   1.0000   1.0000   1.0000   1.0000   1.0000   1.0000
     1.0000   1.0000   1.0000   1.0000   1.0000   1.0000   1.0000   1.0000
     1.0000   1.0000   1.0000   1.0000   1.0000   1.0000   1.0000   1.0000
     1.0000   1.0000   1.0000   1.0000   1.0000   1.0000   1.0000   1.0000
     1.0000   1.0000   1.0000   1.0000   1.0000   1.0000   1.0000   1.0000
     1.0000   1.0000   1.0000   1.0000   1.0000   1.0000   1.0000   1.0000
     1.0000   1.0000   1.0000   1.0000   1.0000   1.0000   1.0000   1.0000
     1.0000   1.0000   1.0000   1.0000   1.0000   1.0000   1.0000   1.0000
     1.0000   1.0000   1.0000   1.0000   1.0000   1.0000   1.0000   1.0000
     1.0000   1.0000   1.0000   1.0000   1.0000   1.0000   1.0000   1.0000
     1.0000   1.0000   1.0000   1.0000   1.0000   1.0000   1.0000   1.0000
     1.0000   1.0000   1.0000   1.0000   1.0000   1.0000   1.0000   1.0000
     1.0000   1.0000   1.0000   1.0000   1.0000   1.0000   1.0000   1.0000
     1.0000   1.0000   1.0000

          k = 0.2000 0.3464 0.0000 (112231 PWs)   bands (ev):

   -73.8167 -73.8143 -73.8107 -73.8084 -73.8059 -73.8051 -73.8029 -73.8007
   -73.7960 -73.7942 -73.7910 -73.7894 -73.7873 -73.7546 -73.7498 -73.7403
   -38.2121 -38.2034 -38.2001 -38.1793 -38.1763 -38.1645 -38.1558 -38.1483
   -38.1324 -38.1239 -38.1166 -38.0777 -38.0598 -38.0561 -38.0477 -38.0374
   -38.0323 -38.0292 -38.0254 -38.0198 -38.0161 -38.0096 -38.0032 -38.0003
   -37.9955 -37.9928 -37.9911 -37.9893 -37.9870 -37.9843 -37.9828 -37.9815
   -37.9764 -37.9728 -37.9693 -37.9660 -37.9592 -37.9552 -37.9521 -37.9474
   -37.9413 -37.9321 -37.9263 -37.9212 -37.9052 -37.9001 -37.8868 -37.8723
   -21.4872 -15.4280 -14.4758 -14.1041 -14.0594 -13.5676 -13.5648 -13.1754
   -13.1190 -13.0101 -12.9360 -12.8106 -12.7902 -12.7111 -12.6720 -12.6061
   -12.5956 -12.5770 -12.5721 -12.4582 -12.4252 -12.3918 -12.3774 -12.3138
   -12.2906 -12.2736 -12.2526 -12.2329 -12.2210 -12.1553 -12.1508 -12.1083
   -12.0957 -12.0361  -7.9167  -7.5303  -6.1877  -6.1758  -6.1477  -6.1284
    -6.1058  -5.7670  -5.7380  -5.7217  -5.6821  -5.6448  -5.6025  -5.5672
    -5.5059  -5.4744  -5.3562  -5.3352  -5.2849  -5.2766  -5.2440  -5.2294
    -5.0960  -4.9061  -4.8906  -4.8166  -4.7518  -4.6073  -4.4921  -4.4713
    -4.3989  -4.3678  -4.3386  -4.3052  -4.2767  -4.2638  -4.2356  -4.2275
    -4.1738  -4.1234  -4.1082  -4.0928  -4.0562  -3.7681  -3.7374  -3.7273
    -3.7195  -3.6947  -3.6185  -3.4988  -3.4325  -3.4026  -3.3536  -3.3237
    -3.3004  -3.2472  -3.2271  -3.2076  -3.1704  -3.1516  -3.1090  -3.0923
    -3.0429  -3.0162  -2.9914  -2.9525  -2.9448  -2.9268  -2.9170  -2.9013
    -2.8206  -2.7465  -2.7243  -2.6552  -2.6372  -2.5655  -2.5261  -2.4806
    -2.4673  -2.4400  -2.3881  -2.3642  -2.3171  -2.2230  -2.1862  -2.1658
    -2.1324  -2.1261  -2.0985  -2.0900  -2.0197  -2.0001  -1.9824  -1.9525
    -1.9295  -1.9070  -1.8842  -1.8584  -1.8388  -1.8296  -1.8008  -1.7512
    -1.7375  -1.7201  -1.7122  -1.6802  -1.6724  -1.6241  -1.5968  -1.5759
    -1.5673  -1.5425  -1.5385  -1.5094  -1.4290  -1.3943  -1.3818  -1.3667
    -1.2929  -1.2270  -1.2087  -1.1869  -1.1576  -1.1182  -1.0371  -1.0202
    -0.8758  -0.8491  -0.6825  -0.6730  -0.6395  -0.6321  -0.6167  -0.5424
    -0.5336  -0.4400  -0.3768  -0.2563  -0.2119  -0.2007  -0.1600   0.0708
     0.1397   1.2832   1.5894

     occupation numbers 
     1.0000   1.0000   1.0000   1.0000   1.0000   1.0000   1.0000   1.0000
     1.0000   1.0000   1.0000   1.0000   1.0000   1.0000   1.0000   1.0000
     1.0000   1.0000   1.0000   1.0000   1.0000   1.0000   1.0000   1.0000
     1.0000   1.0000   1.0000   1.0000   1.0000   1.0000   1.0000   1.0000
     1.0000   1.0000   1.0000   1.0000   1.0000   1.0000   1.0000   1.0000
     1.0000   1.0000   1.0000   1.0000   1.0000   1.0000   1.0000   1.0000
     1.0000   1.0000   1.0000   1.0000   1.0000   1.0000   1.0000   1.0000
     1.0000   1.0000   1.0000   1.0000   1.0000   1.0000   1.0000   1.0000
     1.0000   1.0000   1.0000   1.0000   1.0000   1.0000   1.0000   1.0000
     1.0000   1.0000   1.0000   1.0000   1.0000   1.0000   1.0000   1.0000
     1.0000   1.0000   1.0000   1.0000   1.0000   1.0000   1.0000   1.0000
     1.0000   1.0000   1.0000   1.0000   1.0000   1.0000   1.0000   1.0000
     1.0000   1.0000   1.0000   1.0000   1.0000   1.0000   1.0000   1.0000
     1.0000   1.0000   1.0000   1.0000   1.0000   1.0000   1.0000   1.0000
     1.0000   1.0000   1.0000   1.0000   1.0000   1.0000   1.0000   1.0000
     1.0000   1.0000   1.0000   1.0000   1.0000   1.0000   1.0000   1.0000
     1.0000   1.0000   1.0000   1.0000   1.0000   1.0000   1.0000   1.0000
     1.0000   1.0000   1.0000   1.0000   1.0000   1.0000   1.0000   1.0000
     1.0000   1.0000   1.0000   1.0000   1.0000   1.0000   1.0000   1.0000
     1.0000   1.0000   1.0000   1.0000   1.0000   1.0000   1.0000   1.0000
     1.0000   1.0000   1.0000   1.0000   1.0000   1.0000   1.0000   1.0000
     1.0000   1.0000   1.0000   1.0000   1.0000   1.0000   1.0000   1.0000
     1.0000   1.0000   1.0000   1.0000   1.0000   1.0000   1.0000   1.0000
     1.0000   1.0000   1.0000   1.0000   1.0000   1.0000   1.0000   1.0000
     1.0000   1.0000   1.0000   1.0000   1.0000   1.0000   1.0000   1.0000
     1.0000   1.0000   1.0000   1.0000   1.0000   1.0000   1.0000   1.0000
     1.0000   1.0000   1.0000   1.0000   1.0000   1.0000   1.0000   1.0000
     1.0000   1.0000   1.0000   1.0000   1.0000   1.0000   1.0000   1.0000
     1.0000   1.0000   1.0000   1.0000   1.0000   1.0000   1.0000   1.0000
     1.0000   1.0000   1.0000   1.0000   1.0000   1.0000   1.0000   1.0000
     1.0000   1.0000   1.0000

          k = 0.2000 0.5774 0.0000 (112237 PWs)   bands (ev):

   -73.8166 -73.8144 -73.8108 -73.8086 -73.8058 -73.8050 -73.8029 -73.8006
   -73.7961 -73.7941 -73.7910 -73.7894 -73.7873 -73.7546 -73.7498 -73.7403
   -38.2010 -38.1971 -38.1869 -38.1836 -38.1768 -38.1713 -38.1655 -38.1507
   -38.1474 -38.1330 -38.0928 -38.0913 -38.0872 -38.0511 -38.0456 -38.0401
   -38.0340 -38.0307 -38.0177 -38.0174 -38.0076 -38.0051 -38.0028 -38.0011
   -38.0000 -37.9973 -37.9923 -37.9886 -37.9859 -37.9823 -37.9752 -37.9708
   -37.9695 -37.9668 -37.9619 -37.9592 -37.9565 -37.9532 -37.9505 -37.9462
   -37.9427 -37.9379 -37.9320 -37.9292 -37.9177 -37.8976 -37.8886 -37.8753
   -21.4872 -15.4280 -14.3368 -14.2933 -14.1151 -13.5960 -13.3023 -13.2940
   -12.9547 -12.9490 -12.8890 -12.8539 -12.8423 -12.8025 -12.7932 -12.6587
   -12.6314 -12.6035 -12.4926 -12.4847 -12.3845 -12.3728 -12.3592 -12.3239
   -12.3100 -12.2973 -12.2592 -12.2337 -12.2326 -12.1310 -12.1209 -12.1187
   -12.0790 -12.0166  -7.9167  -7.5303  -6.1746  -6.0586  -6.0099  -5.9868
    -5.9219  -5.8967  -5.8765  -5.8505  -5.8098  -5.7440  -5.6876  -5.6247
    -5.6135  -5.5414  -5.3641  -5.2672  -5.2556  -5.2199  -5.2048  -5.1714
    -5.1554  -4.8568  -4.8325  -4.7542  -4.6345  -4.5791  -4.5486  -4.5219
    -4.4752  -4.4189  -4.3995  -4.3198  -4.3125  -4.2397  -4.2332  -4.2133
    -4.1895  -4.1657  -4.1228  -4.0958  -3.9542  -3.9505  -3.7941  -3.6645
    -3.6550  -3.5694  -3.4425  -3.3942  -3.3630  -3.3300  -3.3109  -3.2868
    -3.2734  -3.2626  -3.2453  -3.2350  -3.2163  -3.2020  -3.1442  -3.1257
    -3.1025  -3.0809  -3.0628  -3.0361  -3.0083  -2.9598  -2.8797  -2.8318
    -2.7547  -2.7314  -2.6990  -2.6729  -2.6340  -2.5616  -2.5198  -2.4585
    -2.4004  -2.3346  -2.3209  -2.3090  -2.2558  -2.2073  -2.1802  -2.1365
    -2.1218  -2.1116  -2.0811  -2.0624  -2.0183  -1.9879  -1.9676  -1.9566
    -1.9392  -1.9188  -1.8980  -1.8814  -1.8706  -1.8570  -1.8441  -1.8359
    -1.8244  -1.7831  -1.7643  -1.7383  -1.7083  -1.6880  -1.6816  -1.6517
    -1.6192  -1.5734  -1.5620  -1.5091  -1.4792  -1.4669  -1.4148  -1.3342
    -1.2865  -1.1965  -1.1615  -1.1447  -1.0972  -1.0816  -1.0108  -1.0019
    -0.8144  -0.8000  -0.7027  -0.6918  -0.6607  -0.6461  -0.5933  -0.5838
    -0.5668  -0.4162  -0.2795  -0.2708  -0.1895  -0.1258  -0.0673   0.0897
     0.1877   1.2923   1.6057

     occupation numbers 
     1.0000   1.0000   1.0000   1.0000   1.0000   1.0000   1.0000   1.0000
     1.0000   1.0000   1.0000   1.0000   1.0000   1.0000   1.0000   1.0000
     1.0000   1.0000   1.0000   1.0000   1.0000   1.0000   1.0000   1.0000
     1.0000   1.0000   1.0000   1.0000   1.0000   1.0000   1.0000   1.0000
     1.0000   1.0000   1.0000   1.0000   1.0000   1.0000   1.0000   1.0000
     1.0000   1.0000   1.0000   1.0000   1.0000   1.0000   1.0000   1.0000
     1.0000   1.0000   1.0000   1.0000   1.0000   1.0000   1.0000   1.0000
     1.0000   1.0000   1.0000   1.0000   1.0000   1.0000   1.0000   1.0000
     1.0000   1.0000   1.0000   1.0000   1.0000   1.0000   1.0000   1.0000
     1.0000   1.0000   1.0000   1.0000   1.0000   1.0000   1.0000   1.0000
     1.0000   1.0000   1.0000   1.0000   1.0000   1.0000   1.0000   1.0000
     1.0000   1.0000   1.0000   1.0000   1.0000   1.0000   1.0000   1.0000
     1.0000   1.0000   1.0000   1.0000   1.0000   1.0000   1.0000   1.0000
     1.0000   1.0000   1.0000   1.0000   1.0000   1.0000   1.0000   1.0000
     1.0000   1.0000   1.0000   1.0000   1.0000   1.0000   1.0000   1.0000
     1.0000   1.0000   1.0000   1.0000   1.0000   1.0000   1.0000   1.0000
     1.0000   1.0000   1.0000   1.0000   1.0000   1.0000   1.0000   1.0000
     1.0000   1.0000   1.0000   1.0000   1.0000   1.0000   1.0000   1.0000
     1.0000   1.0000   1.0000   1.0000   1.0000   1.0000   1.0000   1.0000
     1.0000   1.0000   1.0000   1.0000   1.0000   1.0000   1.0000   1.0000
     1.0000   1.0000   1.0000   1.0000   1.0000   1.0000   1.0000   1.0000
     1.0000   1.0000   1.0000   1.0000   1.0000   1.0000   1.0000   1.0000
     1.0000   1.0000   1.0000   1.0000   1.0000   1.0000   1.0000   1.0000
     1.0000   1.0000   1.0000   1.0000   1.0000   1.0000   1.0000   1.0000
     1.0000   1.0000   1.0000   1.0000   1.0000   1.0000   1.0000   1.0000
     1.0000   1.0000   1.0000   1.0000   1.0000   1.0000   1.0000   1.0000
     1.0000   1.0000   1.0000   1.0000   1.0000   1.0000   1.0000   1.0000
     1.0000   1.0000   1.0000   1.0000   1.0000   1.0000   1.0000   1.0000
     1.0000   1.0000   1.0000   1.0000   1.0000   1.0000   1.0000   1.0000
     1.0000   1.0000   1.0000   1.0000   1.0000   1.0000   1.0000   1.0000
     1.0000   1.0000   1.0000

          k =-0.2000 0.1155 0.0000 (112171 PWs)   bands (ev):

   -73.8170 -73.8138 -73.8107 -73.8086 -73.8060 -73.8051 -73.8028 -73.8007
   -73.7959 -73.7941 -73.7913 -73.7892 -73.7873 -73.7546 -73.7498 -73.7403
   -38.2199 -38.2151 -38.2123 -38.1691 -38.1653 -38.1641 -38.1591 -38.1465
   -38.1399 -38.1032 -38.0804 -38.0762 -38.0514 -38.0488 -38.0448 -38.0345
   -38.0284 -38.0279 -38.0253 -38.0240 -38.0169 -38.0161 -38.0139 -38.0125
   -38.0043 -38.0009 -37.9978 -37.9964 -37.9936 -37.9920 -37.9884 -37.9866
   -37.9858 -37.9825 -37.9693 -37.9625 -37.9600 -37.9544 -37.9520 -37.9467
   -37.9330 -37.9249 -37.9210 -37.9108 -37.9087 -37.9006 -37.8750 -37.8718
   -21.4872 -15.4280 -14.5576 -13.9767 -13.8032 -13.7887 -13.4799 -13.4752
   -13.3259 -12.9682 -12.7927 -12.7600 -12.6926 -12.6828 -12.6581 -12.5880
   -12.5657 -12.5223 -12.4984 -12.4795 -12.4706 -12.4331 -12.4224 -12.3087
   -12.2953 -12.2623 -12.2449 -12.2141 -12.1873 -12.1763 -12.1684 -12.1511
   -12.0956 -12.0815  -7.9167  -7.5303  -6.2866  -6.2658  -6.2454  -6.2326
    -6.1651  -5.6800  -5.6406  -5.6263  -5.5505  -5.5328  -5.4936  -5.4700
    -5.4398  -5.4212  -5.3851  -5.3293  -5.3118  -5.2835  -5.2776  -5.0831
    -5.0639  -5.0169  -5.0007  -4.9526  -4.7415  -4.7364  -4.5747  -4.5165
    -4.4516  -4.3736  -4.3414  -4.2816  -4.2096  -4.1633  -4.1487  -4.1239
    -4.1010  -4.0674  -4.0414  -3.9974  -3.9851  -3.9165  -3.9067  -3.8981
    -3.6746  -3.5922  -3.5385  -3.5048  -3.4799  -3.4625  -3.4464  -3.3766
    -3.3675  -3.3223  -3.2967  -3.2804  -3.2667  -3.2076  -3.1961  -3.1562
    -3.1042  -2.9878  -2.9665  -2.9315  -2.8354  -2.8061  -2.7784  -2.7516
    -2.7335  -2.7162  -2.7001  -2.6920  -2.6778  -2.6548  -2.6090  -2.5487
    -2.5226  -2.4871  -2.4713  -2.4515  -2.3712  -2.3148  -2.1996  -2.1773
    -2.1380  -2.0913  -2.0234  -2.0073  -1.9812  -1.9678  -1.9463  -1.9093
    -1.8869  -1.8678  -1.8433  -1.8230  -1.8074  -1.7754  -1.7442  -1.7293
    -1.7119  -1.7013  -1.6866  -1.6683  -1.6555  -1.6102  -1.5781  -1.5573
    -1.5300  -1.5072  -1.4970  -1.4373  -1.4280  -1.3748  -1.3532  -1.3318
    -1.3150  -1.2777  -1.2582  -1.2265  -1.1645  -1.0826  -1.0484  -1.0206
    -0.9015  -0.7774  -0.7605  -0.7420  -0.5874  -0.5704  -0.5541  -0.5347
    -0.5201  -0.5117  -0.4164  -0.3844  -0.3603  -0.2660  -0.1736  -0.1467
     0.1754   1.2823   1.5409

     occupation numbers 
     1.0000   1.0000   1.0000   1.0000   1.0000   1.0000   1.0000   1.0000
     1.0000   1.0000   1.0000   1.0000   1.0000   1.0000   1.0000   1.0000
     1.0000   1.0000   1.0000   1.0000   1.0000   1.0000   1.0000   1.0000
     1.0000   1.0000   1.0000   1.0000   1.0000   1.0000   1.0000   1.0000
     1.0000   1.0000   1.0000   1.0000   1.0000   1.0000   1.0000   1.0000
     1.0000   1.0000   1.0000   1.0000   1.0000   1.0000   1.0000   1.0000
     1.0000   1.0000   1.0000   1.0000   1.0000   1.0000   1.0000   1.0000
     1.0000   1.0000   1.0000   1.0000   1.0000   1.0000   1.0000   1.0000
     1.0000   1.0000   1.0000   1.0000   1.0000   1.0000   1.0000   1.0000
     1.0000   1.0000   1.0000   1.0000   1.0000   1.0000   1.0000   1.0000
     1.0000   1.0000   1.0000   1.0000   1.0000   1.0000   1.0000   1.0000
     1.0000   1.0000   1.0000   1.0000   1.0000   1.0000   1.0000   1.0000
     1.0000   1.0000   1.0000   1.0000   1.0000   1.0000   1.0000   1.0000
     1.0000   1.0000   1.0000   1.0000   1.0000   1.0000   1.0000   1.0000
     1.0000   1.0000   1.0000   1.0000   1.0000   1.0000   1.0000   1.0000
     1.0000   1.0000   1.0000   1.0000   1.0000   1.0000   1.0000   1.0000
     1.0000   1.0000   1.0000   1.0000   1.0000   1.0000   1.0000   1.0000
     1.0000   1.0000   1.0000   1.0000   1.0000   1.0000   1.0000   1.0000
     1.0000   1.0000   1.0000   1.0000   1.0000   1.0000   1.0000   1.0000
     1.0000   1.0000   1.0000   1.0000   1.0000   1.0000   1.0000   1.0000
     1.0000   1.0000   1.0000   1.0000   1.0000   1.0000   1.0000   1.0000
     1.0000   1.0000   1.0000   1.0000   1.0000   1.0000   1.0000   1.0000
     1.0000   1.0000   1.0000   1.0000   1.0000   1.0000   1.0000   1.0000
     1.0000   1.0000   1.0000   1.0000   1.0000   1.0000   1.0000   1.0000
     1.0000   1.0000   1.0000   1.0000   1.0000   1.0000   1.0000   1.0000
     1.0000   1.0000   1.0000   1.0000   1.0000   1.0000   1.0000   1.0000
     1.0000   1.0000   1.0000   1.0000   1.0000   1.0000   1.0000   1.0000
     1.0000   1.0000   1.0000   1.0000   1.0000   1.0000   1.0000   1.0000
     1.0000   1.0000   1.0000   1.0000   1.0000   1.0000   1.0000   1.0000
     1.0000   1.0000   1.0000   1.0000   1.0000   1.0000   1.0000   1.0000
     1.0000   1.0000   1.0000

          k = 0.2000 0.1155 0.0000 (112171 PWs)   bands (ev):

   -73.8170 -73.8140 -73.8107 -73.8083 -73.8061 -73.8051 -73.8029 -73.8008
   -73.7958 -73.7942 -73.7912 -73.7892 -73.7873 -73.7546 -73.7498 -73.7403
   -38.2196 -38.2157 -38.2120 -38.1698 -38.1662 -38.1630 -38.1580 -38.1467
   -38.1401 -38.1034 -38.0802 -38.0766 -38.0516 -38.0491 -38.0454 -38.0346
   -38.0285 -38.0265 -38.0255 -38.0236 -38.0172 -38.0152 -38.0144 -38.0127
   -38.0046 -38.0000 -37.9978 -37.9964 -37.9938 -37.9916 -37.9896 -37.9866
   -37.9856 -37.9825 -37.9691 -37.9619 -37.9607 -37.9546 -37.9519 -37.9467
   -37.9330 -37.9242 -37.9205 -37.9127 -37.9079 -37.9008 -37.8766 -37.8702
   -21.4872 -15.4280 -14.5576 -13.9769 -13.8022 -13.7893 -13.4790 -13.4768
   -13.3251 -12.9682 -12.7929 -12.7593 -12.6922 -12.6840 -12.6584 -12.5880
   -12.5670 -12.5207 -12.4962 -12.4814 -12.4701 -12.4354 -12.4217 -12.3041
   -12.2950 -12.2653 -12.2479 -12.2092 -12.1929 -12.1733 -12.1714 -12.1487
   -12.0928 -12.0840  -7.9167  -7.5303  -6.2811  -6.2675  -6.2482  -6.2342
    -6.1651  -5.6738  -5.6441  -5.6239  -5.5516  -5.5371  -5.4907  -5.4727
    -5.4456  -5.4250  -5.3721  -5.3287  -5.3152  -5.2842  -5.2765  -5.0788
    -5.0717  -5.0148  -5.0044  -4.9472  -4.7423  -4.7371  -4.5704  -4.5123
    -4.4488  -4.3954  -4.3405  -4.2752  -4.2087  -4.1639  -4.1507  -4.1241
    -4.1006  -4.0575  -4.0414  -4.0045  -3.9834  -3.9139  -3.9109  -3.9005
    -3.6673  -3.5718  -3.5540  -3.5120  -3.4699  -3.4588  -3.4428  -3.3853
    -3.3737  -3.3138  -3.3032  -3.2840  -3.2614  -3.2147  -3.1981  -3.1488
    -3.1106  -3.0033  -2.9616  -2.9141  -2.8321  -2.8119  -2.7860  -2.7539
    -2.7395  -2.7144  -2.7003  -2.6939  -2.6705  -2.6401  -2.6012  -2.5516
    -2.5372  -2.5031  -2.4774  -2.4339  -2.3686  -2.3083  -2.2049  -2.1830
    -2.1272  -2.0929  -2.0208  -2.0022  -1.9743  -1.9704  -1.9322  -1.9100
    -1.9022  -1.8796  -1.8400  -1.8269  -1.8090  -1.7830  -1.7453  -1.7376
    -1.7121  -1.6946  -1.6823  -1.6599  -1.6417  -1.6280  -1.5922  -1.5462
    -1.5343  -1.5063  -1.4613  -1.4472  -1.4264  -1.4063  -1.3583  -1.3126
    -1.3068  -1.2982  -1.2522  -1.2134  -1.1702  -1.0684  -1.0488  -1.0313
    -0.9008  -0.7675  -0.7592  -0.7569  -0.5989  -0.5634  -0.5495  -0.5341
    -0.5224  -0.5167  -0.4119  -0.3852  -0.3567  -0.2667  -0.1698  -0.1506
     0.1760   1.2769   1.5473

     occupation numbers 
     1.0000   1.0000   1.0000   1.0000   1.0000   1.0000   1.0000   1.0000
     1.0000   1.0000   1.0000   1.0000   1.0000   1.0000   1.0000   1.0000
     1.0000   1.0000   1.0000   1.0000   1.0000   1.0000   1.0000   1.0000
     1.0000   1.0000   1.0000   1.0000   1.0000   1.0000   1.0000   1.0000
     1.0000   1.0000   1.0000   1.0000   1.0000   1.0000   1.0000   1.0000
     1.0000   1.0000   1.0000   1.0000   1.0000   1.0000   1.0000   1.0000
     1.0000   1.0000   1.0000   1.0000   1.0000   1.0000   1.0000   1.0000
     1.0000   1.0000   1.0000   1.0000   1.0000   1.0000   1.0000   1.0000
     1.0000   1.0000   1.0000   1.0000   1.0000   1.0000   1.0000   1.0000
     1.0000   1.0000   1.0000   1.0000   1.0000   1.0000   1.0000   1.0000
     1.0000   1.0000   1.0000   1.0000   1.0000   1.0000   1.0000   1.0000
     1.0000   1.0000   1.0000   1.0000   1.0000   1.0000   1.0000   1.0000
     1.0000   1.0000   1.0000   1.0000   1.0000   1.0000   1.0000   1.0000
     1.0000   1.0000   1.0000   1.0000   1.0000   1.0000   1.0000   1.0000
     1.0000   1.0000   1.0000   1.0000   1.0000   1.0000   1.0000   1.0000
     1.0000   1.0000   1.0000   1.0000   1.0000   1.0000   1.0000   1.0000
     1.0000   1.0000   1.0000   1.0000   1.0000   1.0000   1.0000   1.0000
     1.0000   1.0000   1.0000   1.0000   1.0000   1.0000   1.0000   1.0000
     1.0000   1.0000   1.0000   1.0000   1.0000   1.0000   1.0000   1.0000
     1.0000   1.0000   1.0000   1.0000   1.0000   1.0000   1.0000   1.0000
     1.0000   1.0000   1.0000   1.0000   1.0000   1.0000   1.0000   1.0000
     1.0000   1.0000   1.0000   1.0000   1.0000   1.0000   1.0000   1.0000
     1.0000   1.0000   1.0000   1.0000   1.0000   1.0000   1.0000   1.0000
     1.0000   1.0000   1.0000   1.0000   1.0000   1.0000   1.0000   1.0000
     1.0000   1.0000   1.0000   1.0000   1.0000   1.0000   1.0000   1.0000
     1.0000   1.0000   1.0000   1.0000   1.0000   1.0000   1.0000   1.0000
     1.0000   1.0000   1.0000   1.0000   1.0000   1.0000   1.0000   1.0000
     1.0000   1.0000   1.0000   1.0000   1.0000   1.0000   1.0000   1.0000
     1.0000   1.0000   1.0000   1.0000   1.0000   1.0000   1.0000   1.0000
     1.0000   1.0000   1.0000   1.0000   1.0000   1.0000   1.0000   1.0000
     1.0000   1.0000   1.0000

          k =-0.4000 0.2309 0.0000 (112236 PWs)   bands (ev):

   -73.8168 -73.8140 -73.8108 -73.8090 -73.8059 -73.8045 -73.8031 -73.8007
   -73.7959 -73.7942 -73.7912 -73.7892 -73.7873 -73.7546 -73.7498 -73.7403
   -38.2078 -38.2021 -38.1906 -38.1843 -38.1833 -38.1645 -38.1614 -38.1473
   -38.1306 -38.1242 -38.1061 -38.1012 -38.0633 -38.0582 -38.0473 -38.0401
   -38.0294 -38.0249 -38.0147 -38.0124 -38.0097 -38.0084 -38.0044 -37.9999
   -37.9988 -37.9977 -37.9955 -37.9929 -37.9878 -37.9862 -37.9825 -37.9796
   -37.9754 -37.9697 -37.9663 -37.9655 -37.9535 -37.9515 -37.9496 -37.9470
   -37.9448 -37.9385 -37.9300 -37.9173 -37.9093 -37.8924 -37.8907 -37.8764
   -21.4872 -15.4280 -14.4363 -14.2333 -13.8702 -13.8584 -13.2501 -13.2444
   -13.0255 -12.9982 -12.9758 -12.9114 -12.8330 -12.7338 -12.7043 -12.6855
   -12.5370 -12.5098 -12.4622 -12.4535 -12.4311 -12.4237 -12.3870 -12.3639
   -12.3534 -12.2826 -12.2226 -12.2007 -12.1763 -12.1619 -12.1552 -12.1526
   -12.0567 -12.0405  -7.9167  -7.5303  -6.1783  -6.1336  -6.1150  -6.0900
    -6.0235  -5.8773  -5.8570  -5.8403  -5.7123  -5.5351  -5.5119  -5.4908
    -5.4551  -5.4475  -5.4382  -5.3898  -5.3804  -5.3180  -5.3106  -5.0831
    -5.0588  -5.0245  -5.0064  -4.8056  -4.6103  -4.5578  -4.4830  -4.4430
    -4.4147  -4.3743  -4.3532  -4.3122  -4.2474  -4.2235  -4.1965  -4.1627
    -4.1231  -4.1149  -4.1026  -4.0758  -4.0696  -4.0549  -4.0437  -3.6966
    -3.5741  -3.5260  -3.4798  -3.4609  -3.4272  -3.4002  -3.3599  -3.3202
    -3.3051  -3.2819  -3.2615  -3.2433  -3.2165  -3.2005  -3.1520  -3.1171
    -3.0742  -3.0489  -3.0157  -2.9744  -2.9402  -2.9078  -2.8420  -2.7834
    -2.7463  -2.7162  -2.6697  -2.6359  -2.6179  -2.5890  -2.5609  -2.5007
    -2.4355  -2.4285  -2.4021  -2.3387  -2.2871  -2.2559  -2.2470  -2.1793
    -2.1294  -2.1208  -2.0621  -2.0336  -2.0197  -1.9961  -1.9663  -1.9382
    -1.9196  -1.9024  -1.8918  -1.8714  -1.8666  -1.8537  -1.8403  -1.8256
    -1.7917  -1.7617  -1.7181  -1.6998  -1.6960  -1.6736  -1.6548  -1.6163
    -1.5940  -1.5653  -1.5071  -1.4797  -1.4538  -1.3614  -1.3352  -1.3036
    -1.2677  -1.2235  -1.1752  -1.1303  -1.1227  -1.1052  -1.0791  -0.9930
    -0.9743  -0.8810  -0.7372  -0.7217  -0.6426  -0.6255  -0.5122  -0.4574
    -0.4516  -0.4263  -0.4054  -0.3787  -0.3055  -0.1027  -0.0006   0.0298
     0.1215   1.3284   1.5529

     occupation numbers 
     1.0000   1.0000   1.0000   1.0000   1.0000   1.0000   1.0000   1.0000
     1.0000   1.0000   1.0000   1.0000   1.0000   1.0000   1.0000   1.0000
     1.0000   1.0000   1.0000   1.0000   1.0000   1.0000   1.0000   1.0000
     1.0000   1.0000   1.0000   1.0000   1.0000   1.0000   1.0000   1.0000
     1.0000   1.0000   1.0000   1.0000   1.0000   1.0000   1.0000   1.0000
     1.0000   1.0000   1.0000   1.0000   1.0000   1.0000   1.0000   1.0000
     1.0000   1.0000   1.0000   1.0000   1.0000   1.0000   1.0000   1.0000
     1.0000   1.0000   1.0000   1.0000   1.0000   1.0000   1.0000   1.0000
     1.0000   1.0000   1.0000   1.0000   1.0000   1.0000   1.0000   1.0000
     1.0000   1.0000   1.0000   1.0000   1.0000   1.0000   1.0000   1.0000
     1.0000   1.0000   1.0000   1.0000   1.0000   1.0000   1.0000   1.0000
     1.0000   1.0000   1.0000   1.0000   1.0000   1.0000   1.0000   1.0000
     1.0000   1.0000   1.0000   1.0000   1.0000   1.0000   1.0000   1.0000
     1.0000   1.0000   1.0000   1.0000   1.0000   1.0000   1.0000   1.0000
     1.0000   1.0000   1.0000   1.0000   1.0000   1.0000   1.0000   1.0000
     1.0000   1.0000   1.0000   1.0000   1.0000   1.0000   1.0000   1.0000
     1.0000   1.0000   1.0000   1.0000   1.0000   1.0000   1.0000   1.0000
     1.0000   1.0000   1.0000   1.0000   1.0000   1.0000   1.0000   1.0000
     1.0000   1.0000   1.0000   1.0000   1.0000   1.0000   1.0000   1.0000
     1.0000   1.0000   1.0000   1.0000   1.0000   1.0000   1.0000   1.0000
     1.0000   1.0000   1.0000   1.0000   1.0000   1.0000   1.0000   1.0000
     1.0000   1.0000   1.0000   1.0000   1.0000   1.0000   1.0000   1.0000
     1.0000   1.0000   1.0000   1.0000   1.0000   1.0000   1.0000   1.0000
     1.0000   1.0000   1.0000   1.0000   1.0000   1.0000   1.0000   1.0000
     1.0000   1.0000   1.0000   1.0000   1.0000   1.0000   1.0000   1.0000
     1.0000   1.0000   1.0000   1.0000   1.0000   1.0000   1.0000   1.0000
     1.0000   1.0000   1.0000   1.0000   1.0000   1.0000   1.0000   1.0000
     1.0000   1.0000   1.0000   1.0000   1.0000   1.0000   1.0000   1.0000
     1.0000   1.0000   1.0000   1.0000   1.0000   1.0000   1.0000   1.0000
     1.0000   1.0000   1.0000   1.0000   1.0000   1.0000   1.0000   1.0000
     1.0000   1.0000   1.0000

          k = 0.4000 0.2309 0.0000 (112236 PWs)   bands (ev):

   -73.8165 -73.8145 -73.8107 -73.8084 -73.8060 -73.8048 -73.8031 -73.8008
   -73.7956 -73.7944 -73.7910 -73.7894 -73.7873 -73.7546 -73.7498 -73.7403
   -38.2062 -38.2042 -38.1903 -38.1870 -38.1806 -38.1634 -38.1618 -38.1472
   -38.1301 -38.1247 -38.1067 -38.1016 -38.0628 -38.0592 -38.0471 -38.0403
   -38.0286 -38.0250 -38.0139 -38.0116 -38.0108 -38.0096 -38.0045 -38.0002
   -37.9980 -37.9967 -37.9950 -37.9917 -37.9897 -37.9863 -37.9823 -37.9795
   -37.9768 -37.9695 -37.9669 -37.9644 -37.9530 -37.9506 -37.9501 -37.9468
   -37.9449 -37.9376 -37.9301 -37.9181 -37.9097 -37.8942 -37.8918 -37.8740
   -21.4872 -15.4280 -14.4362 -14.2335 -13.8695 -13.8589 -13.2500 -13.2455
   -13.0222 -12.9981 -12.9777 -12.9106 -12.8339 -12.7314 -12.7062 -12.6864
   -12.5439 -12.5026 -12.4665 -12.4511 -12.4300 -12.4239 -12.3873 -12.3625
   -12.3510 -12.2825 -12.2294 -12.1986 -12.1783 -12.1609 -12.1557 -12.1501
   -12.0537 -12.0431  -7.9167  -7.5303  -6.1781  -6.1256  -6.1153  -6.0899
    -6.0374  -5.8700  -5.8567  -5.8370  -5.7173  -5.5362  -5.5104  -5.4936
    -5.4497  -5.4490  -5.4408  -5.3892  -5.3837  -5.3159  -5.3097  -5.0744
    -5.0705  -5.0228  -5.0111  -4.7777  -4.6237  -4.5618  -4.4914  -4.4533
    -4.4209  -4.3733  -4.3513  -4.3063  -4.2417  -4.2278  -4.1924  -4.1601
    -4.1266  -4.1164  -4.1038  -4.0776  -4.0645  -4.0525  -4.0442  -3.6844
    -3.5660  -3.5272  -3.4704  -3.4530  -3.4328  -3.4045  -3.3626  -3.3298
    -3.2931  -3.2872  -3.2567  -3.2418  -3.2208  -3.2067  -3.1412  -3.1200
    -3.0924  -3.0585  -3.0223  -2.9726  -2.9423  -2.9074  -2.8531  -2.7845
    -2.7494  -2.6930  -2.6592  -2.6366  -2.6226  -2.6078  -2.5245  -2.5084
    -2.4643  -2.4336  -2.3784  -2.3377  -2.2797  -2.2614  -2.2476  -2.1627
    -2.1301  -2.1205  -2.0471  -2.0180  -2.0123  -1.9885  -1.9818  -1.9664
    -1.9420  -1.9069  -1.8963  -1.8707  -1.8585  -1.8491  -1.8403  -1.8249
    -1.8085  -1.7484  -1.7336  -1.7116  -1.6992  -1.6508  -1.6378  -1.6294
    -1.6007  -1.5586  -1.5148  -1.5016  -1.4274  -1.3654  -1.3157  -1.2969
    -1.2638  -1.2389  -1.1943  -1.1366  -1.1206  -1.0668  -1.0594  -1.0073
    -0.9795  -0.8929  -0.7324  -0.7280  -0.6412  -0.6317  -0.5218  -0.4610
    -0.4503  -0.4245  -0.4064  -0.3689  -0.2994  -0.1044   0.0008   0.0257
     0.1247   1.3114   1.5735

     occupation numbers 
     1.0000   1.0000   1.0000   1.0000   1.0000   1.0000   1.0000   1.0000
     1.0000   1.0000   1.0000   1.0000   1.0000   1.0000   1.0000   1.0000
     1.0000   1.0000   1.0000   1.0000   1.0000   1.0000   1.0000   1.0000
     1.0000   1.0000   1.0000   1.0000   1.0000   1.0000   1.0000   1.0000
     1.0000   1.0000   1.0000   1.0000   1.0000   1.0000   1.0000   1.0000
     1.0000   1.0000   1.0000   1.0000   1.0000   1.0000   1.0000   1.0000
     1.0000   1.0000   1.0000   1.0000   1.0000   1.0000   1.0000   1.0000
     1.0000   1.0000   1.0000   1.0000   1.0000   1.0000   1.0000   1.0000
     1.0000   1.0000   1.0000   1.0000   1.0000   1.0000   1.0000   1.0000
     1.0000   1.0000   1.0000   1.0000   1.0000   1.0000   1.0000   1.0000
     1.0000   1.0000   1.0000   1.0000   1.0000   1.0000   1.0000   1.0000
     1.0000   1.0000   1.0000   1.0000   1.0000   1.0000   1.0000   1.0000
     1.0000   1.0000   1.0000   1.0000   1.0000   1.0000   1.0000   1.0000
     1.0000   1.0000   1.0000   1.0000   1.0000   1.0000   1.0000   1.0000
     1.0000   1.0000   1.0000   1.0000   1.0000   1.0000   1.0000   1.0000
     1.0000   1.0000   1.0000   1.0000   1.0000   1.0000   1.0000   1.0000
     1.0000   1.0000   1.0000   1.0000   1.0000   1.0000   1.0000   1.0000
     1.0000   1.0000   1.0000   1.0000   1.0000   1.0000   1.0000   1.0000
     1.0000   1.0000   1.0000   1.0000   1.0000   1.0000   1.0000   1.0000
     1.0000   1.0000   1.0000   1.0000   1.0000   1.0000   1.0000   1.0000
     1.0000   1.0000   1.0000   1.0000   1.0000   1.0000   1.0000   1.0000
     1.0000   1.0000   1.0000   1.0000   1.0000   1.0000   1.0000   1.0000
     1.0000   1.0000   1.0000   1.0000   1.0000   1.0000   1.0000   1.0000
     1.0000   1.0000   1.0000   1.0000   1.0000   1.0000   1.0000   1.0000
     1.0000   1.0000   1.0000   1.0000   1.0000   1.0000   1.0000   1.0000
     1.0000   1.0000   1.0000   1.0000   1.0000   1.0000   1.0000   1.0000
     1.0000   1.0000   1.0000   1.0000   1.0000   1.0000   1.0000   1.0000
     1.0000   1.0000   1.0000   1.0000   1.0000   1.0000   1.0000   1.0000
     1.0000   1.0000   1.0000   1.0000   1.0000   1.0000   1.0000   1.0000
     1.0000   1.0000   1.0000   1.0000   1.0000   1.0000   1.0000   1.0000
     1.0000   1.0000   1.0000

          k =-0.2000 0.3464 0.0000 (112231 PWs)   bands (ev):

   -73.8168 -73.8140 -73.8108 -73.8088 -73.8058 -73.8050 -73.8028 -73.8006
   -73.7961 -73.7941 -73.7911 -73.7893 -73.7873 -73.7546 -73.7498 -73.7403
   -38.2124 -38.2023 -38.2009 -38.1794 -38.1758 -38.1645 -38.1557 -38.1495
   -38.1330 -38.1256 -38.1132 -38.0772 -38.0611 -38.0557 -38.0481 -38.0373
   -38.0324 -38.0287 -38.0253 -38.0205 -38.0163 -38.0084 -38.0037 -37.9999
   -37.9964 -37.9934 -37.9915 -37.9886 -37.9866 -37.9841 -37.9824 -37.9812
   -37.9768 -37.9737 -37.9697 -37.9653 -37.9585 -37.9555 -37.9520 -37.9473
   -37.9417 -37.9326 -37.9268 -37.9217 -37.9036 -37.8988 -37.8868 -37.8734
   -21.4872 -15.4280 -14.4758 -14.1033 -14.0603 -13.5744 -13.5574 -13.1761
   -13.1196 -13.0100 -12.9358 -12.8089 -12.7919 -12.7069 -12.6731 -12.6204
   -12.5857 -12.5773 -12.5693 -12.4555 -12.4266 -12.3943 -12.3799 -12.3108
   -12.2923 -12.2745 -12.2519 -12.2271 -12.2233 -12.1571 -12.1503 -12.1088
   -12.0959 -12.0359  -7.9167  -7.5303  -6.1940  -6.1786  -6.1444  -6.1224
    -6.1039  -5.7697  -5.7387  -5.7176  -5.7003  -5.6271  -5.6031  -5.5647
    -5.5085  -5.4768  -5.3571  -5.3319  -5.3009  -5.2662  -5.2428  -5.2220
    -5.0985  -4.9148  -4.8955  -4.7976  -4.7567  -4.6099  -4.5184  -4.4488
    -4.3965  -4.3455  -4.3362  -4.3103  -4.2814  -4.2617  -4.2466  -4.2285
    -4.1652  -4.1310  -4.1121  -4.0940  -4.0549  -3.7767  -3.7411  -3.7298
    -3.7099  -3.6931  -3.6204  -3.5092  -3.4248  -3.3843  -3.3754  -3.3107
    -3.2965  -3.2448  -3.2343  -3.2050  -3.1680  -3.1484  -3.1287  -3.0850
    -3.0643  -3.0136  -2.9757  -2.9468  -2.9347  -2.9282  -2.9247  -2.9029
    -2.7992  -2.7483  -2.7244  -2.6786  -2.6323  -2.5682  -2.5346  -2.4791
    -2.4649  -2.4120  -2.3916  -2.3675  -2.3246  -2.2230  -2.1998  -2.1599
    -2.1390  -2.1249  -2.1097  -2.0858  -2.0395  -1.9917  -1.9849  -1.9452
    -1.9216  -1.9029  -1.8708  -1.8565  -1.8274  -1.8191  -1.7988  -1.7764
    -1.7475  -1.7110  -1.7054  -1.6815  -1.6570  -1.6402  -1.5906  -1.5848
    -1.5627  -1.5499  -1.5324  -1.5126  -1.4444  -1.3986  -1.3867  -1.3478
    -1.2914  -1.2503  -1.1989  -1.1750  -1.1598  -1.1217  -1.0490  -1.0094
    -0.8777  -0.8389  -0.6888  -0.6724  -0.6392  -0.6293  -0.6115  -0.5443
    -0.5374  -0.4299  -0.3868  -0.2589  -0.2076  -0.2002  -0.1623   0.0715
     0.1381   1.2911   1.5794

     occupation numbers 
     1.0000   1.0000   1.0000   1.0000   1.0000   1.0000   1.0000   1.0000
     1.0000   1.0000   1.0000   1.0000   1.0000   1.0000   1.0000   1.0000
     1.0000   1.0000   1.0000   1.0000   1.0000   1.0000   1.0000   1.0000
     1.0000   1.0000   1.0000   1.0000   1.0000   1.0000   1.0000   1.0000
     1.0000   1.0000   1.0000   1.0000   1.0000   1.0000   1.0000   1.0000
     1.0000   1.0000   1.0000   1.0000   1.0000   1.0000   1.0000   1.0000
     1.0000   1.0000   1.0000   1.0000   1.0000   1.0000   1.0000   1.0000
     1.0000   1.0000   1.0000   1.0000   1.0000   1.0000   1.0000   1.0000
     1.0000   1.0000   1.0000   1.0000   1.0000   1.0000   1.0000   1.0000
     1.0000   1.0000   1.0000   1.0000   1.0000   1.0000   1.0000   1.0000
     1.0000   1.0000   1.0000   1.0000   1.0000   1.0000   1.0000   1.0000
     1.0000   1.0000   1.0000   1.0000   1.0000   1.0000   1.0000   1.0000
     1.0000   1.0000   1.0000   1.0000   1.0000   1.0000   1.0000   1.0000
     1.0000   1.0000   1.0000   1.0000   1.0000   1.0000   1.0000   1.0000
     1.0000   1.0000   1.0000   1.0000   1.0000   1.0000   1.0000   1.0000
     1.0000   1.0000   1.0000   1.0000   1.0000   1.0000   1.0000   1.0000
     1.0000   1.0000   1.0000   1.0000   1.0000   1.0000   1.0000   1.0000
     1.0000   1.0000   1.0000   1.0000   1.0000   1.0000   1.0000   1.0000
     1.0000   1.0000   1.0000   1.0000   1.0000   1.0000   1.0000   1.0000
     1.0000   1.0000   1.0000   1.0000   1.0000   1.0000   1.0000   1.0000
     1.0000   1.0000   1.0000   1.0000   1.0000   1.0000   1.0000   1.0000
     1.0000   1.0000   1.0000   1.0000   1.0000   1.0000   1.0000   1.0000
     1.0000   1.0000   1.0000   1.0000   1.0000   1.0000   1.0000   1.0000
     1.0000   1.0000   1.0000   1.0000   1.0000   1.0000   1.0000   1.0000
     1.0000   1.0000   1.0000   1.0000   1.0000   1.0000   1.0000   1.0000
     1.0000   1.0000   1.0000   1.0000   1.0000   1.0000   1.0000   1.0000
     1.0000   1.0000   1.0000   1.0000   1.0000   1.0000   1.0000   1.0000
     1.0000   1.0000   1.0000   1.0000   1.0000   1.0000   1.0000   1.0000
     1.0000   1.0000   1.0000   1.0000   1.0000   1.0000   1.0000   1.0000
     1.0000   1.0000   1.0000   1.0000   1.0000   1.0000   1.0000   1.0000
     1.0000   1.0000   1.0000

          k = 0.4000-0.0000 0.0000 (112231 PWs)   bands (ev):

   -73.8167 -73.8142 -73.8108 -73.8086 -73.8060 -73.8047 -73.8031 -73.8007
   -73.7957 -73.7943 -73.7911 -73.7893 -73.7873 -73.7546 -73.7498 -73.7403
   -38.2124 -38.2030 -38.1998 -38.1792 -38.1760 -38.1658 -38.1562 -38.1496
   -38.1322 -38.1242 -38.1127 -38.0770 -38.0619 -38.0563 -38.0479 -38.0380
   -38.0309 -38.0289 -38.0254 -38.0220 -38.0142 -38.0094 -38.0041 -37.9987
   -37.9963 -37.9936 -37.9914 -37.9891 -37.9879 -37.9853 -37.9822 -37.9802
   -37.9753 -37.9748 -37.9695 -37.9656 -37.9585 -37.9550 -37.9518 -37.9470
   -37.9423 -37.9320 -37.9280 -37.9223 -37.9018 -37.8984 -37.8857 -37.8753
   -21.4872 -15.4280 -14.4759 -14.0998 -14.0638 -13.5689 -13.5637 -13.1711
   -13.1229 -13.0139 -12.9296 -12.8049 -12.7960 -12.7116 -12.6822 -12.6027
   -12.5998 -12.5743 -12.5613 -12.4572 -12.4238 -12.4131 -12.3651 -12.3079
   -12.2934 -12.2714 -12.2546 -12.2350 -12.2204 -12.1579 -12.1478 -12.1067
   -12.0974 -12.0363  -7.9167  -7.5303  -6.1861  -6.1819  -6.1485  -6.1198
    -6.1090  -5.7593  -5.7435  -5.7216  -5.6885  -5.6375  -5.6095  -5.5622
    -5.5064  -5.4740  -5.3526  -5.3358  -5.2935  -5.2725  -5.2453  -5.2302
    -5.0981  -4.9027  -4.8874  -4.8111  -4.7569  -4.5731  -4.5399  -4.4667
    -4.4106  -4.3476  -4.3388  -4.3142  -4.2764  -4.2652  -4.2444  -4.2116
    -4.1760  -4.1184  -4.1110  -4.0907  -4.0550  -3.7657  -3.7358  -3.7285
    -3.7091  -3.6997  -3.6317  -3.4882  -3.4321  -3.4037  -3.3735  -3.3280
    -3.2902  -3.2474  -3.2377  -3.2039  -3.1785  -3.1460  -3.1284  -3.0836
    -3.0446  -3.0066  -2.9705  -2.9533  -2.9422  -2.9246  -2.9092  -2.9012
    -2.7908  -2.7615  -2.7240  -2.6634  -2.6343  -2.5878  -2.5516  -2.4729
    -2.4691  -2.4225  -2.3893  -2.3485  -2.3227  -2.2285  -2.1820  -2.1645
    -2.1340  -2.1256  -2.1102  -2.1023  -2.0150  -1.9961  -1.9777  -1.9520
    -1.9283  -1.9021  -1.8840  -1.8661  -1.8542  -1.8228  -1.7925  -1.7704
    -1.7340  -1.7140  -1.6956  -1.6762  -1.6622  -1.6308  -1.5966  -1.5739
    -1.5581  -1.5484  -1.5340  -1.5074  -1.4512  -1.4145  -1.3712  -1.3417
    -1.2892  -1.2687  -1.2034  -1.1799  -1.1535  -1.1103  -1.0523  -1.0073
    -0.8689  -0.8509  -0.6833  -0.6757  -0.6402  -0.6241  -0.6159  -0.5425
    -0.5366  -0.4444  -0.3843  -0.2536  -0.2084  -0.1951  -0.1638   0.0688
     0.1381   1.3208   1.5485

     occupation numbers 
     1.0000   1.0000   1.0000   1.0000   1.0000   1.0000   1.0000   1.0000
     1.0000   1.0000   1.0000   1.0000   1.0000   1.0000   1.0000   1.0000
     1.0000   1.0000   1.0000   1.0000   1.0000   1.0000   1.0000   1.0000
     1.0000   1.0000   1.0000   1.0000   1.0000   1.0000   1.0000   1.0000
     1.0000   1.0000   1.0000   1.0000   1.0000   1.0000   1.0000   1.0000
     1.0000   1.0000   1.0000   1.0000   1.0000   1.0000   1.0000   1.0000
     1.0000   1.0000   1.0000   1.0000   1.0000   1.0000   1.0000   1.0000
     1.0000   1.0000   1.0000   1.0000   1.0000   1.0000   1.0000   1.0000
     1.0000   1.0000   1.0000   1.0000   1.0000   1.0000   1.0000   1.0000
     1.0000   1.0000   1.0000   1.0000   1.0000   1.0000   1.0000   1.0000
     1.0000   1.0000   1.0000   1.0000   1.0000   1.0000   1.0000   1.0000
     1.0000   1.0000   1.0000   1.0000   1.0000   1.0000   1.0000   1.0000
     1.0000   1.0000   1.0000   1.0000   1.0000   1.0000   1.0000   1.0000
     1.0000   1.0000   1.0000   1.0000   1.0000   1.0000   1.0000   1.0000
     1.0000   1.0000   1.0000   1.0000   1.0000   1.0000   1.0000   1.0000
     1.0000   1.0000   1.0000   1.0000   1.0000   1.0000   1.0000   1.0000
     1.0000   1.0000   1.0000   1.0000   1.0000   1.0000   1.0000   1.0000
     1.0000   1.0000   1.0000   1.0000   1.0000   1.0000   1.0000   1.0000
     1.0000   1.0000   1.0000   1.0000   1.0000   1.0000   1.0000   1.0000
     1.0000   1.0000   1.0000   1.0000   1.0000   1.0000   1.0000   1.0000
     1.0000   1.0000   1.0000   1.0000   1.0000   1.0000   1.0000   1.0000
     1.0000   1.0000   1.0000   1.0000   1.0000   1.0000   1.0000   1.0000
     1.0000   1.0000   1.0000   1.0000   1.0000   1.0000   1.0000   1.0000
     1.0000   1.0000   1.0000   1.0000   1.0000   1.0000   1.0000   1.0000
     1.0000   1.0000   1.0000   1.0000   1.0000   1.0000   1.0000   1.0000
     1.0000   1.0000   1.0000   1.0000   1.0000   1.0000   1.0000   1.0000
     1.0000   1.0000   1.0000   1.0000   1.0000   1.0000   1.0000   1.0000
     1.0000   1.0000   1.0000   1.0000   1.0000   1.0000   1.0000   1.0000
     1.0000   1.0000   1.0000   1.0000   1.0000   1.0000   1.0000   1.0000
     1.0000   1.0000   1.0000   1.0000   1.0000   1.0000   1.0000   1.0000
     1.0000   1.0000   1.0000

          k =-0.4000 0.4619 0.0000 (112237 PWs)   bands (ev):

   -73.8166 -73.8142 -73.8108 -73.8089 -73.8058 -73.8045 -73.8031 -73.8007
   -73.7959 -73.7942 -73.7911 -73.7893 -73.7873 -73.7546 -73.7498 -73.7403
   -38.2020 -38.1952 -38.1857 -38.1824 -38.1798 -38.1735 -38.1661 -38.1492
   -38.1464 -38.1329 -38.0945 -38.0903 -38.0851 -38.0522 -38.0449 -38.0413
   -38.0332 -38.0314 -38.0212 -38.0130 -38.0084 -38.0054 -38.0037 -38.0003
   -37.9993 -37.9964 -37.9937 -37.9882 -37.9861 -37.9823 -37.9749 -37.9718
   -37.9698 -37.9681 -37.9613 -37.9579 -37.9548 -37.9531 -37.9500 -37.9479
   -37.9457 -37.9383 -37.9340 -37.9271 -37.9150 -37.8962 -37.8855 -37.8797
   -21.4872 -15.4280 -14.3395 -14.2896 -14.1161 -13.5969 -13.2988 -13.2951
   -12.9620 -12.9498 -12.8870 -12.8570 -12.8280 -12.8015 -12.7966 -12.6660
   -12.6346 -12.5964 -12.4944 -12.4840 -12.3883 -12.3758 -12.3484 -12.3263
   -12.3098 -12.2976 -12.2614 -12.2351 -12.2298 -12.1342 -12.1202 -12.1152
   -12.0802 -12.0167  -7.9167  -7.5303  -6.1744  -6.0602  -6.0254  -5.9699
    -5.9156  -5.8909  -5.8779  -5.8600  -5.8085  -5.7451  -5.6897  -5.6263
    -5.6108  -5.5417  -5.3583  -5.2871  -5.2481  -5.2172  -5.2022  -5.1692
    -5.1581  -4.8550  -4.8333  -4.7464  -4.6209  -4.5907  -4.5450  -4.5257
    -4.4919  -4.4273  -4.3850  -4.3264  -4.3089  -4.2426  -4.2276  -4.2096
    -4.1941  -4.1645  -4.1207  -4.0949  -3.9576  -3.9476  -3.7938  -3.6730
    -3.6312  -3.5904  -3.4349  -3.3990  -3.3642  -3.3267  -3.3098  -3.2823
    -3.2794  -3.2680  -3.2428  -3.2326  -3.2207  -3.2146  -3.1500  -3.1217
    -3.0977  -3.0857  -3.0597  -3.0469  -2.9979  -2.9538  -2.8520  -2.8164
    -2.7458  -2.7313  -2.7138  -2.6834  -2.6319  -2.6019  -2.5116  -2.4223
    -2.4014  -2.3315  -2.3237  -2.3187  -2.2686  -2.1997  -2.1755  -2.1619
    -2.1472  -2.0907  -2.0813  -2.0527  -2.0293  -1.9798  -1.9692  -1.9495
    -1.9330  -1.9188  -1.8953  -1.8843  -1.8691  -1.8556  -1.8454  -1.8427
    -1.8189  -1.7956  -1.7578  -1.7276  -1.7059  -1.6937  -1.6736  -1.6547
    -1.6273  -1.5860  -1.5369  -1.5062  -1.4849  -1.4622  -1.4216  -1.3182
    -1.2857  -1.2372  -1.1713  -1.1170  -1.0940  -1.0775  -1.0459  -0.9765
    -0.8148  -0.7886  -0.7031  -0.6923  -0.6586  -0.6471  -0.6006  -0.5846
    -0.5680  -0.4152  -0.2815  -0.2752  -0.1798  -0.1199  -0.0780   0.0901
     0.1865   1.3292   1.5657

     occupation numbers 
     1.0000   1.0000   1.0000   1.0000   1.0000   1.0000   1.0000   1.0000
     1.0000   1.0000   1.0000   1.0000   1.0000   1.0000   1.0000   1.0000
     1.0000   1.0000   1.0000   1.0000   1.0000   1.0000   1.0000   1.0000
     1.0000   1.0000   1.0000   1.0000   1.0000   1.0000   1.0000   1.0000
     1.0000   1.0000   1.0000   1.0000   1.0000   1.0000   1.0000   1.0000
     1.0000   1.0000   1.0000   1.0000   1.0000   1.0000   1.0000   1.0000
     1.0000   1.0000   1.0000   1.0000   1.0000   1.0000   1.0000   1.0000
     1.0000   1.0000   1.0000   1.0000   1.0000   1.0000   1.0000   1.0000
     1.0000   1.0000   1.0000   1.0000   1.0000   1.0000   1.0000   1.0000
     1.0000   1.0000   1.0000   1.0000   1.0000   1.0000   1.0000   1.0000
     1.0000   1.0000   1.0000   1.0000   1.0000   1.0000   1.0000   1.0000
     1.0000   1.0000   1.0000   1.0000   1.0000   1.0000   1.0000   1.0000
     1.0000   1.0000   1.0000   1.0000   1.0000   1.0000   1.0000   1.0000
     1.0000   1.0000   1.0000   1.0000   1.0000   1.0000   1.0000   1.0000
     1.0000   1.0000   1.0000   1.0000   1.0000   1.0000   1.0000   1.0000
     1.0000   1.0000   1.0000   1.0000   1.0000   1.0000   1.0000   1.0000
     1.0000   1.0000   1.0000   1.0000   1.0000   1.0000   1.0000   1.0000
     1.0000   1.0000   1.0000   1.0000   1.0000   1.0000   1.0000   1.0000
     1.0000   1.0000   1.0000   1.0000   1.0000   1.0000   1.0000   1.0000
     1.0000   1.0000   1.0000   1.0000   1.0000   1.0000   1.0000   1.0000
     1.0000   1.0000   1.0000   1.0000   1.0000   1.0000   1.0000   1.0000
     1.0000   1.0000   1.0000   1.0000   1.0000   1.0000   1.0000   1.0000
     1.0000   1.0000   1.0000   1.0000   1.0000   1.0000   1.0000   1.0000
     1.0000   1.0000   1.0000   1.0000   1.0000   1.0000   1.0000   1.0000
     1.0000   1.0000   1.0000   1.0000   1.0000   1.0000   1.0000   1.0000
     1.0000   1.0000   1.0000   1.0000   1.0000   1.0000   1.0000   1.0000
     1.0000   1.0000   1.0000   1.0000   1.0000   1.0000   1.0000   1.0000
     1.0000   1.0000   1.0000   1.0000   1.0000   1.0000   1.0000   1.0000
     1.0000   1.0000   1.0000   1.0000   1.0000   1.0000   1.0000   1.0000
     1.0000   1.0000   1.0000   1.0000   1.0000   1.0000   1.0000   1.0000
     1.0000   1.0000   1.0000

          k = 0.6000 0.1155 0.0000 (112237 PWs)   bands (ev):

   -73.8164 -73.8146 -73.8108 -73.8085 -73.8059 -73.8047 -73.8031 -73.8007
   -73.7958 -73.7943 -73.7910 -73.7894 -73.7873 -73.7546 -73.7498 -73.7403
   -38.2007 -38.1968 -38.1866 -38.1839 -38.1769 -38.1735 -38.1656 -38.1490
   -38.1472 -38.1326 -38.0939 -38.0923 -38.0847 -38.0518 -38.0450 -38.0411
   -38.0333 -38.0316 -38.0208 -38.0122 -38.0091 -38.0061 -38.0031 -38.0006
   -37.9996 -37.9950 -37.9934 -37.9891 -37.9862 -37.9823 -37.9747 -37.9720
   -37.9696 -37.9689 -37.9611 -37.9578 -37.9553 -37.9533 -37.9504 -37.9477
   -37.9418 -37.9390 -37.9322 -37.9295 -37.9161 -37.8970 -37.8870 -37.8775
   -21.4872 -15.4280 -14.3389 -14.2904 -14.1159 -13.5968 -13.3061 -13.2878
   -12.9679 -12.9438 -12.8820 -12.8606 -12.8283 -12.8018 -12.7972 -12.6685
   -12.6335 -12.5946 -12.5043 -12.4738 -12.3949 -12.3725 -12.3446 -12.3217
   -12.3106 -12.2997 -12.2646 -12.2355 -12.2306 -12.1321 -12.1211 -12.1156
   -12.0795 -12.0170  -7.9167  -7.5303  -6.1744  -6.0571  -6.0204  -5.9690
    -5.9291  -5.9072  -5.8773  -5.8356  -5.8077  -5.7502  -5.6917  -5.6241
    -5.6130  -5.5382  -5.3572  -5.2834  -5.2567  -5.2260  -5.1975  -5.1730
    -5.1490  -4.8570  -4.8400  -4.6964  -4.6478  -4.6104  -4.5522  -4.5150
    -4.4950  -4.4362  -4.3855  -4.3220  -4.3028  -4.2426  -4.2320  -4.2002
    -4.1925  -4.1682  -4.1204  -4.0965  -3.9584  -3.9479  -3.7902  -3.6706
    -3.6328  -3.5812  -3.4369  -3.3768  -3.3683  -3.3361  -3.3040  -3.2878
    -3.2852  -3.2621  -3.2464  -3.2353  -3.2214  -3.2036  -3.1805  -3.1440
    -3.0882  -3.0797  -3.0539  -3.0223  -3.0069  -2.9663  -2.8502  -2.8138
    -2.7544  -2.7331  -2.7266  -2.6592  -2.6417  -2.5639  -2.5218  -2.4689
    -2.3961  -2.3369  -2.3166  -2.2983  -2.2480  -2.2155  -2.1750  -2.1513
    -2.1319  -2.1059  -2.0777  -2.0491  -2.0207  -1.9851  -1.9694  -1.9597
    -1.9391  -1.9135  -1.9037  -1.8826  -1.8733  -1.8629  -1.8541  -1.8448
    -1.8119  -1.7989  -1.7482  -1.7342  -1.7071  -1.6946  -1.6663  -1.6450
    -1.6275  -1.6064  -1.5395  -1.5219  -1.4772  -1.4351  -1.4071  -1.3302
    -1.2950  -1.2308  -1.1606  -1.1400  -1.0972  -1.0578  -1.0252  -0.9950
    -0.8112  -0.7954  -0.6986  -0.6968  -0.6596  -0.6531  -0.6013  -0.5959
    -0.5536  -0.4167  -0.2835  -0.2683  -0.1773  -0.1249  -0.0773   0.0909
     0.1868   1.3190   1.5780

     occupation numbers 
     1.0000   1.0000   1.0000   1.0000   1.0000   1.0000   1.0000   1.0000
     1.0000   1.0000   1.0000   1.0000   1.0000   1.0000   1.0000   1.0000
     1.0000   1.0000   1.0000   1.0000   1.0000   1.0000   1.0000   1.0000
     1.0000   1.0000   1.0000   1.0000   1.0000   1.0000   1.0000   1.0000
     1.0000   1.0000   1.0000   1.0000   1.0000   1.0000   1.0000   1.0000
     1.0000   1.0000   1.0000   1.0000   1.0000   1.0000   1.0000   1.0000
     1.0000   1.0000   1.0000   1.0000   1.0000   1.0000   1.0000   1.0000
     1.0000   1.0000   1.0000   1.0000   1.0000   1.0000   1.0000   1.0000
     1.0000   1.0000   1.0000   1.0000   1.0000   1.0000   1.0000   1.0000
     1.0000   1.0000   1.0000   1.0000   1.0000   1.0000   1.0000   1.0000
     1.0000   1.0000   1.0000   1.0000   1.0000   1.0000   1.0000   1.0000
     1.0000   1.0000   1.0000   1.0000   1.0000   1.0000   1.0000   1.0000
     1.0000   1.0000   1.0000   1.0000   1.0000   1.0000   1.0000   1.0000
     1.0000   1.0000   1.0000   1.0000   1.0000   1.0000   1.0000   1.0000
     1.0000   1.0000   1.0000   1.0000   1.0000   1.0000   1.0000   1.0000
     1.0000   1.0000   1.0000   1.0000   1.0000   1.0000   1.0000   1.0000
     1.0000   1.0000   1.0000   1.0000   1.0000   1.0000   1.0000   1.0000
     1.0000   1.0000   1.0000   1.0000   1.0000   1.0000   1.0000   1.0000
     1.0000   1.0000   1.0000   1.0000   1.0000   1.0000   1.0000   1.0000
     1.0000   1.0000   1.0000   1.0000   1.0000   1.0000   1.0000   1.0000
     1.0000   1.0000   1.0000   1.0000   1.0000   1.0000   1.0000   1.0000
     1.0000   1.0000   1.0000   1.0000   1.0000   1.0000   1.0000   1.0000
     1.0000   1.0000   1.0000   1.0000   1.0000   1.0000   1.0000   1.0000
     1.0000   1.0000   1.0000   1.0000   1.0000   1.0000   1.0000   1.0000
     1.0000   1.0000   1.0000   1.0000   1.0000   1.0000   1.0000   1.0000
     1.0000   1.0000   1.0000   1.0000   1.0000   1.0000   1.0000   1.0000
     1.0000   1.0000   1.0000   1.0000   1.0000   1.0000   1.0000   1.0000
     1.0000   1.0000   1.0000   1.0000   1.0000   1.0000   1.0000   1.0000
     1.0000   1.0000   1.0000   1.0000   1.0000   1.0000   1.0000   1.0000
     1.0000   1.0000   1.0000   1.0000   1.0000   1.0000   1.0000   1.0000
     1.0000   1.0000   1.0000

 ------ SPIN DOWN ----------


          k = 0.0000 0.0000 0.0000 (112117 PWs)   bands (ev):

   -73.8138 -73.8093 -73.8063 -73.8045 -73.8022 -73.8016 -73.7983 -73.7960
   -73.7937 -73.7887 -73.7878 -73.7862 -73.7821 -73.7412 -73.7316 -73.7286
   -38.2160 -38.2147 -38.2127 -38.1567 -38.1560 -38.1519 -38.1472 -38.1461
   -38.1348 -38.0557 -38.0506 -38.0480 -38.0474 -38.0414 -38.0384 -38.0371
   -38.0243 -38.0224 -38.0205 -38.0193 -38.0166 -38.0164 -38.0150 -38.0121
   -38.0089 -38.0056 -38.0042 -37.9993 -37.9924 -37.9889 -37.9864 -37.9849
   -37.9834 -37.9763 -37.9522 -37.9513 -37.9485 -37.9447 -37.9354 -37.9249
   -37.9188 -37.9079 -37.9057 -37.9041 -37.9017 -37.8909 -37.8584 -37.8564
   -21.4858 -15.4269 -14.5946 -13.7058 -13.6912 -13.6712 -13.6425 -13.6285
   -13.6193 -12.9792 -12.7051 -12.6744 -12.6503 -12.6358 -12.6007 -12.5799
   -12.5325 -12.5037 -12.4678 -12.4550 -12.4434 -12.4417 -12.4206 -12.4190
   -12.4153 -12.2203 -12.1980 -12.1884 -12.1716 -12.1560 -12.1521 -12.1478
   -12.1458 -12.1434  -7.9149  -7.5283  -6.3358  -6.3227  -6.3051  -6.2752
    -6.1652  -5.6000  -5.5684  -5.5444  -5.5286  -5.5245  -5.4919  -5.4377
    -5.4049  -5.3863  -5.3109  -5.2797  -5.2597  -5.0989  -5.0898  -5.0618
    -5.0571  -5.0531  -5.0524  -4.9964  -4.9957  -4.9873  -4.5114  -4.4320
    -4.3922  -4.3430  -4.2893  -4.2802  -4.2643  -4.2430  -4.2297  -4.1761
    -4.0770  -4.0063  -3.9752  -3.9601  -3.9338  -3.7882  -3.7557  -3.7518
    -3.6980  -3.6760  -3.6730  -3.6026  -3.5079  -3.4684  -3.4027  -3.3991
    -3.3717  -3.3647  -3.2752  -3.2191  -3.1930  -3.1790  -3.1572  -3.1396
    -3.1263  -3.1218  -3.1075  -3.1050  -3.0382  -2.9243  -2.7908  -2.7499
    -2.6871  -2.6659  -2.6198  -2.5855  -2.5726  -2.5041  -2.4909  -2.4626
    -2.4575  -2.4306  -2.4275  -2.4226  -2.3911  -2.3286  -2.2721  -2.1861
    -2.1177  -2.0533  -1.9640  -1.9596  -1.9292  -1.9161  -1.8650  -1.8229
    -1.7983  -1.7746  -1.7635  -1.7608  -1.7486  -1.7467  -1.7407  -1.7357
    -1.7319  -1.6991  -1.6901  -1.6559  -1.6461  -1.6339  -1.6311  -1.5981
    -1.5722  -1.5256  -1.5156  -1.4883  -1.4478  -1.4085  -1.3692  -1.3517
    -1.2892  -1.2628  -1.1794  -1.0872  -1.0351  -1.0262  -1.0094  -0.9903
    -0.7217  -0.6868  -0.6828  -0.6826  -0.6695  -0.6647  -0.6427  -0.6362
    -0.6198  -0.3924  -0.3810  -0.3711  -0.3559  -0.3391  -0.3297  -0.2936
     0.2189   1.3019   1.6761

     occupation numbers 
     1.0000   1.0000   1.0000   1.0000   1.0000   1.0000   1.0000   1.0000
     1.0000   1.0000   1.0000   1.0000   1.0000   1.0000   1.0000   1.0000
     1.0000   1.0000   1.0000   1.0000   1.0000   1.0000   1.0000   1.0000
     1.0000   1.0000   1.0000   1.0000   1.0000   1.0000   1.0000   1.0000
     1.0000   1.0000   1.0000   1.0000   1.0000   1.0000   1.0000   1.0000
     1.0000   1.0000   1.0000   1.0000   1.0000   1.0000   1.0000   1.0000
     1.0000   1.0000   1.0000   1.0000   1.0000   1.0000   1.0000   1.0000
     1.0000   1.0000   1.0000   1.0000   1.0000   1.0000   1.0000   1.0000
     1.0000   1.0000   1.0000   1.0000   1.0000   1.0000   1.0000   1.0000
     1.0000   1.0000   1.0000   1.0000   1.0000   1.0000   1.0000   1.0000
     1.0000   1.0000   1.0000   1.0000   1.0000   1.0000   1.0000   1.0000
     1.0000   1.0000   1.0000   1.0000   1.0000   1.0000   1.0000   1.0000
     1.0000   1.0000   1.0000   1.0000   1.0000   1.0000   1.0000   1.0000
     1.0000   1.0000   1.0000   1.0000   1.0000   1.0000   1.0000   1.0000
     1.0000   1.0000   1.0000   1.0000   1.0000   1.0000   1.0000   1.0000
     1.0000   1.0000   1.0000   1.0000   1.0000   1.0000   1.0000   1.0000
     1.0000   1.0000   1.0000   1.0000   1.0000   1.0000   1.0000   1.0000
     1.0000   1.0000   1.0000   1.0000   1.0000   1.0000   1.0000   1.0000
     1.0000   1.0000   1.0000   1.0000   1.0000   1.0000   1.0000   1.0000
     1.0000   1.0000   1.0000   1.0000   1.0000   1.0000   1.0000   1.0000
     1.0000   1.0000   1.0000   1.0000   1.0000   1.0000   1.0000   1.0000
     1.0000   1.0000   1.0000   1.0000   1.0000   1.0000   1.0000   1.0000
     1.0000   1.0000   1.0000   1.0000   1.0000   1.0000   1.0000   1.0000
     1.0000   1.0000   1.0000   1.0000   1.0000   1.0000   1.0000   1.0000
     1.0000   1.0000   1.0000   1.0000   1.0000   1.0000   1.0000   1.0000
     1.0000   1.0000   1.0000   1.0000   1.0000   1.0000   1.0000   1.0000
     1.0000   1.0000   1.0000   1.0000   1.0000   1.0000   1.0000   1.0000
     1.0000   1.0000   1.0000   1.0000   1.0000   1.0000   1.0000   1.0000
     1.0000   1.0000   1.0000   1.0000   1.0000   1.0000   1.0000   1.0000
     1.0000   1.0000   1.0000   1.0000   1.0000   1.0000   1.0000   1.0000
     1.0000   1.0000   0.0000

          k = 0.0000 0.2309 0.0000 (112171 PWs)   bands (ev):

   -73.8137 -73.8094 -73.8066 -73.8044 -73.8025 -73.8013 -73.7983 -73.7959
   -73.7938 -73.7887 -73.7878 -73.7862 -73.7821 -73.7412 -73.7316 -73.7286
   -38.2112 -38.2093 -38.2063 -38.1603 -38.1588 -38.1574 -38.1502 -38.1396
   -38.1316 -38.0963 -38.0710 -38.0696 -38.0462 -38.0423 -38.0376 -38.0267
   -38.0253 -38.0201 -38.0172 -38.0159 -38.0131 -38.0102 -38.0087 -38.0052
   -37.9992 -37.9944 -37.9940 -37.9905 -37.9879 -37.9866 -37.9838 -37.9830
   -37.9792 -37.9762 -37.9554 -37.9529 -37.9489 -37.9455 -37.9355 -37.9258
   -37.9252 -37.9144 -37.9105 -37.9026 -37.8987 -37.8894 -37.8641 -37.8591
   -21.4858 -15.4269 -14.5530 -13.9728 -13.7986 -13.7826 -13.4885 -13.4586
   -13.3218 -12.9632 -12.7999 -12.7320 -12.6928 -12.6845 -12.6526 -12.5829
   -12.5519 -12.5389 -12.4916 -12.4749 -12.4537 -12.4329 -12.4218 -12.3136
   -12.2825 -12.2602 -12.2417 -12.2124 -12.1829 -12.1724 -12.1656 -12.1507
   -12.0937 -12.0780  -7.9149  -7.5283  -6.2747  -6.2641  -6.2326  -6.2290
    -6.1630  -5.6589  -5.6394  -5.6229  -5.5528  -5.5142  -5.4857  -5.4668
    -5.4226  -5.4123  -5.3899  -5.3173  -5.3131  -5.2825  -5.2658  -5.0685
    -5.0637  -5.0129  -4.9990  -4.9509  -4.7356  -4.7310  -4.5801  -4.4729
    -4.4443  -4.3806  -4.3178  -4.2804  -4.2027  -4.1570  -4.1420  -4.1159
    -4.0958  -4.0576  -4.0395  -3.9975  -3.9813  -3.9071  -3.9047  -3.8971
    -3.6576  -3.5665  -3.5353  -3.5019  -3.4622  -3.4383  -3.4334  -3.3798
    -3.3605  -3.3095  -3.2885  -3.2748  -3.2613  -3.2029  -3.1888  -3.1458
    -3.0719  -2.9803  -2.9369  -2.9214  -2.8417  -2.7758  -2.7555  -2.7410
    -2.7153  -2.7076  -2.6919  -2.6682  -2.6426  -2.6251  -2.5821  -2.5380
    -2.5004  -2.4950  -2.4632  -2.4300  -2.3468  -2.3015  -2.1848  -2.1571
    -2.1050  -2.0607  -2.0085  -1.9927  -1.9676  -1.9481  -1.9220  -1.9001
    -1.8809  -1.8513  -1.8398  -1.8100  -1.7763  -1.7516  -1.7360  -1.7236
    -1.7162  -1.6928  -1.6769  -1.6517  -1.6356  -1.5995  -1.5783  -1.5377
    -1.5224  -1.4879  -1.4761  -1.4474  -1.4282  -1.3640  -1.3314  -1.3184
    -1.2931  -1.2717  -1.2319  -1.2150  -1.1447  -1.0612  -1.0380  -1.0071
    -0.8872  -0.7731  -0.7551  -0.7385  -0.5629  -0.5588  -0.5417  -0.5278
    -0.5148  -0.5019  -0.4022  -0.3715  -0.3558  -0.2418  -0.1651  -0.1346
     0.2009   1.3078   1.7072

     occupation numbers 
     1.0000   1.0000   1.0000   1.0000   1.0000   1.0000   1.0000   1.0000
     1.0000   1.0000   1.0000   1.0000   1.0000   1.0000   1.0000   1.0000
     1.0000   1.0000   1.0000   1.0000   1.0000   1.0000   1.0000   1.0000
     1.0000   1.0000   1.0000   1.0000   1.0000   1.0000   1.0000   1.0000
     1.0000   1.0000   1.0000   1.0000   1.0000   1.0000   1.0000   1.0000
     1.0000   1.0000   1.0000   1.0000   1.0000   1.0000   1.0000   1.0000
     1.0000   1.0000   1.0000   1.0000   1.0000   1.0000   1.0000   1.0000
     1.0000   1.0000   1.0000   1.0000   1.0000   1.0000   1.0000   1.0000
     1.0000   1.0000   1.0000   1.0000   1.0000   1.0000   1.0000   1.0000
     1.0000   1.0000   1.0000   1.0000   1.0000   1.0000   1.0000   1.0000
     1.0000   1.0000   1.0000   1.0000   1.0000   1.0000   1.0000   1.0000
     1.0000   1.0000   1.0000   1.0000   1.0000   1.0000   1.0000   1.0000
     1.0000   1.0000   1.0000   1.0000   1.0000   1.0000   1.0000   1.0000
     1.0000   1.0000   1.0000   1.0000   1.0000   1.0000   1.0000   1.0000
     1.0000   1.0000   1.0000   1.0000   1.0000   1.0000   1.0000   1.0000
     1.0000   1.0000   1.0000   1.0000   1.0000   1.0000   1.0000   1.0000
     1.0000   1.0000   1.0000   1.0000   1.0000   1.0000   1.0000   1.0000
     1.0000   1.0000   1.0000   1.0000   1.0000   1.0000   1.0000   1.0000
     1.0000   1.0000   1.0000   1.0000   1.0000   1.0000   1.0000   1.0000
     1.0000   1.0000   1.0000   1.0000   1.0000   1.0000   1.0000   1.0000
     1.0000   1.0000   1.0000   1.0000   1.0000   1.0000   1.0000   1.0000
     1.0000   1.0000   1.0000   1.0000   1.0000   1.0000   1.0000   1.0000
     1.0000   1.0000   1.0000   1.0000   1.0000   1.0000   1.0000   1.0000
     1.0000   1.0000   1.0000   1.0000   1.0000   1.0000   1.0000   1.0000
     1.0000   1.0000   1.0000   1.0000   1.0000   1.0000   1.0000   1.0000
     1.0000   1.0000   1.0000   1.0000   1.0000   1.0000   1.0000   1.0000
     1.0000   1.0000   1.0000   1.0000   1.0000   1.0000   1.0000   1.0000
     1.0000   1.0000   1.0000   1.0000   1.0000   1.0000   1.0000   1.0000
     1.0000   1.0000   1.0000   1.0000   1.0000   1.0000   1.0000   1.0000
     1.0000   1.0000   1.0000   1.0000   1.0000   1.0000   1.0000   1.0000
     1.0000   1.0000   0.0000

          k = 0.0000 0.4619 0.0000 (112236 PWs)   bands (ev):

   -73.8136 -73.8095 -73.8069 -73.8043 -73.8026 -73.8010 -73.7982 -73.7959
   -73.7939 -73.7887 -73.7878 -73.7862 -73.7821 -73.7412 -73.7316 -73.7286
   -38.2006 -38.1963 -38.1847 -38.1776 -38.1726 -38.1581 -38.1545 -38.1385
   -38.1240 -38.1168 -38.0959 -38.0932 -38.0563 -38.0500 -38.0426 -38.0330
   -38.0270 -38.0156 -38.0100 -38.0071 -38.0028 -38.0016 -37.9984 -37.9973
   -37.9946 -37.9914 -37.9911 -37.9874 -37.9838 -37.9822 -37.9762 -37.9731
   -37.9669 -37.9604 -37.9585 -37.9504 -37.9449 -37.9411 -37.9387 -37.9335
   -37.9321 -37.9222 -37.9175 -37.9091 -37.8989 -37.8840 -37.8781 -37.8625
   -21.4858 -15.4269 -14.4312 -14.2299 -13.8681 -13.8506 -13.2592 -13.2274
   -13.0147 -12.9960 -12.9673 -12.9133 -12.8300 -12.7263 -12.7019 -12.6862
   -12.5172 -12.5097 -12.4580 -12.4472 -12.4337 -12.4229 -12.3799 -12.3662
   -12.3479 -12.2819 -12.2128 -12.1992 -12.1748 -12.1566 -12.1549 -12.1505
   -12.0545 -12.0372  -7.9149  -7.5283  -6.1750  -6.1185  -6.1050  -6.0859
    -6.0207  -5.8675  -5.8554  -5.8303  -5.7079  -5.5278  -5.4951  -5.4822
    -5.4550  -5.4423  -5.4332  -5.3874  -5.3699  -5.3205  -5.2971  -5.0637
    -5.0583  -5.0256  -5.0061  -4.8026  -4.6211  -4.5164  -4.4787  -4.4348
    -4.3903  -4.3705  -4.3445  -4.3067  -4.2402  -4.2255  -4.1876  -4.1560
    -4.1252  -4.1141  -4.0995  -4.0731  -4.0630  -4.0481  -4.0380  -3.6818
    -3.5653  -3.5034  -3.4718  -3.4372  -3.4126  -3.3829  -3.3635  -3.3062
    -3.2848  -3.2757  -3.2574  -3.2327  -3.2149  -3.1823  -3.1526  -3.1025
    -3.0582  -3.0443  -3.0011  -2.9502  -2.9313  -2.9045  -2.8415  -2.7602
    -2.7220  -2.6923  -2.6432  -2.6275  -2.5923  -2.5525  -2.5261  -2.4777
    -2.4388  -2.4248  -2.3892  -2.3106  -2.2730  -2.2463  -2.2373  -2.1689
    -2.1029  -2.0820  -2.0333  -2.0084  -2.0016  -1.9899  -1.9697  -1.9342
    -1.9174  -1.8965  -1.8739  -1.8635  -1.8488  -1.8366  -1.8269  -1.8211
    -1.7617  -1.7544  -1.7120  -1.7027  -1.6784  -1.6516  -1.6223  -1.6086
    -1.5807  -1.5468  -1.5156  -1.4855  -1.4176  -1.3800  -1.2963  -1.2785
    -1.2235  -1.1951  -1.1846  -1.1368  -1.1099  -1.0904  -1.0381  -0.9925
    -0.9660  -0.8837  -0.7273  -0.7123  -0.6348  -0.6148  -0.4779  -0.4498
    -0.4380  -0.4265  -0.3928  -0.3694  -0.2981  -0.0816   0.0069   0.0366
     0.1545   1.3165   1.7581

     occupation numbers 
     1.0000   1.0000   1.0000   1.0000   1.0000   1.0000   1.0000   1.0000
     1.0000   1.0000   1.0000   1.0000   1.0000   1.0000   1.0000   1.0000
     1.0000   1.0000   1.0000   1.0000   1.0000   1.0000   1.0000   1.0000
     1.0000   1.0000   1.0000   1.0000   1.0000   1.0000   1.0000   1.0000
     1.0000   1.0000   1.0000   1.0000   1.0000   1.0000   1.0000   1.0000
     1.0000   1.0000   1.0000   1.0000   1.0000   1.0000   1.0000   1.0000
     1.0000   1.0000   1.0000   1.0000   1.0000   1.0000   1.0000   1.0000
     1.0000   1.0000   1.0000   1.0000   1.0000   1.0000   1.0000   1.0000
     1.0000   1.0000   1.0000   1.0000   1.0000   1.0000   1.0000   1.0000
     1.0000   1.0000   1.0000   1.0000   1.0000   1.0000   1.0000   1.0000
     1.0000   1.0000   1.0000   1.0000   1.0000   1.0000   1.0000   1.0000
     1.0000   1.0000   1.0000   1.0000   1.0000   1.0000   1.0000   1.0000
     1.0000   1.0000   1.0000   1.0000   1.0000   1.0000   1.0000   1.0000
     1.0000   1.0000   1.0000   1.0000   1.0000   1.0000   1.0000   1.0000
     1.0000   1.0000   1.0000   1.0000   1.0000   1.0000   1.0000   1.0000
     1.0000   1.0000   1.0000   1.0000   1.0000   1.0000   1.0000   1.0000
     1.0000   1.0000   1.0000   1.0000   1.0000   1.0000   1.0000   1.0000
     1.0000   1.0000   1.0000   1.0000   1.0000   1.0000   1.0000   1.0000
     1.0000   1.0000   1.0000   1.0000   1.0000   1.0000   1.0000   1.0000
     1.0000   1.0000   1.0000   1.0000   1.0000   1.0000   1.0000   1.0000
     1.0000   1.0000   1.0000   1.0000   1.0000   1.0000   1.0000   1.0000
     1.0000   1.0000   1.0000   1.0000   1.0000   1.0000   1.0000   1.0000
     1.0000   1.0000   1.0000   1.0000   1.0000   1.0000   1.0000   1.0000
     1.0000   1.0000   1.0000   1.0000   1.0000   1.0000   1.0000   1.0000
     1.0000   1.0000   1.0000   1.0000   1.0000   1.0000   1.0000   1.0000
     1.0000   1.0000   1.0000   1.0000   1.0000   1.0000   1.0000   1.0000
     1.0000   1.0000   1.0000   1.0000   1.0000   1.0000   1.0000   1.0000
     1.0000   1.0000   1.0000   1.0000   1.0000   1.0000   1.0000   1.0000
     1.0000   1.0000   1.0000   1.0000   1.0000   1.0000   1.0000   1.0000
     1.0000   1.0000   1.0000   1.0000   1.0000   1.0000   1.0000   1.0000
     1.0000   1.0000   0.0000

          k = 0.2000 0.3464 0.0000 (112231 PWs)   bands (ev):

   -73.8136 -73.8096 -73.8067 -73.8044 -73.8024 -73.8010 -73.7984 -73.7960
   -73.7937 -73.7888 -73.7877 -73.7863 -73.7821 -73.7412 -73.7316 -73.7286
   -38.2049 -38.1958 -38.1950 -38.1723 -38.1671 -38.1581 -38.1482 -38.1411
   -38.1263 -38.1158 -38.1050 -38.0700 -38.0530 -38.0475 -38.0432 -38.0317
   -38.0269 -38.0222 -38.0169 -38.0142 -38.0107 -38.0052 -37.9986 -37.9969
   -37.9914 -37.9882 -37.9866 -37.9844 -37.9822 -37.9796 -37.9763 -37.9751
   -37.9696 -37.9656 -37.9572 -37.9518 -37.9491 -37.9463 -37.9375 -37.9331
   -37.9266 -37.9202 -37.9172 -37.9089 -37.8957 -37.8889 -37.8738 -37.8612
   -21.4858 -15.4269 -14.4711 -14.0981 -14.0568 -13.5627 -13.5607 -13.1687
   -13.1164 -13.0051 -12.9312 -12.8049 -12.7860 -12.7062 -12.6696 -12.6005
   -12.5911 -12.5738 -12.5688 -12.4536 -12.4220 -12.3876 -12.3735 -12.3097
   -12.2879 -12.2695 -12.2500 -12.2296 -12.2188 -12.1522 -12.1477 -12.1050
   -12.0938 -12.0336  -7.9149  -7.5283  -6.1809  -6.1700  -6.1402  -6.1190
    -6.1009  -5.7537  -5.7306  -5.7157  -5.6752  -5.6400  -5.5979  -5.5595
    -5.5008  -5.4691  -5.3504  -5.3279  -5.2800  -5.2706  -5.2385  -5.2218
    -5.0913  -4.8993  -4.8849  -4.8097  -4.7485  -4.5926  -4.4831  -4.4575
    -4.3906  -4.3611  -4.3334  -4.2979  -4.2725  -4.2591  -4.2290  -4.2211
    -4.1679  -4.1179  -4.1030  -4.0879  -4.0525  -3.7565  -3.7298  -3.7205
    -3.7129  -3.6876  -3.6006  -3.4897  -3.4219  -3.3902  -3.3450  -3.3143
    -3.2803  -3.2398  -3.2169  -3.1983  -3.1621  -3.1459  -3.0936  -3.0872
    -3.0330  -2.9999  -2.9647  -2.9436  -2.9353  -2.9176  -2.9030  -2.8903
    -2.7932  -2.7188  -2.6888  -2.6407  -2.6040  -2.5378  -2.5038  -2.4704
    -2.4536  -2.4248  -2.3800  -2.3543  -2.3046  -2.2095  -2.1711  -2.1532
    -2.1204  -2.1190  -2.0821  -2.0713  -1.9964  -1.9814  -1.9655  -1.9375
    -1.9164  -1.8923  -1.8685  -1.8443  -1.8290  -1.8148  -1.7872  -1.7396
    -1.7223  -1.7071  -1.6989  -1.6632  -1.6565  -1.6097  -1.5819  -1.5683
    -1.5598  -1.5335  -1.5213  -1.4942  -1.4140  -1.3822  -1.3683  -1.3555
    -1.2792  -1.2156  -1.1991  -1.1755  -1.1478  -1.1011  -1.0216  -0.9943
    -0.8679  -0.8364  -0.6743  -0.6646  -0.6304  -0.6211  -0.6078  -0.5328
    -0.5241  -0.4186  -0.3678  -0.2493  -0.2001  -0.1909  -0.1426   0.0805
     0.1662   1.3302   1.7284

     occupation numbers 
     1.0000   1.0000   1.0000   1.0000   1.0000   1.0000   1.0000   1.0000
     1.0000   1.0000   1.0000   1.0000   1.0000   1.0000   1.0000   1.0000
     1.0000   1.0000   1.0000   1.0000   1.0000   1.0000   1.0000   1.0000
     1.0000   1.0000   1.0000   1.0000   1.0000   1.0000   1.0000   1.0000
     1.0000   1.0000   1.0000   1.0000   1.0000   1.0000   1.0000   1.0000
     1.0000   1.0000   1.0000   1.0000   1.0000   1.0000   1.0000   1.0000
     1.0000   1.0000   1.0000   1.0000   1.0000   1.0000   1.0000   1.0000
     1.0000   1.0000   1.0000   1.0000   1.0000   1.0000   1.0000   1.0000
     1.0000   1.0000   1.0000   1.0000   1.0000   1.0000   1.0000   1.0000
     1.0000   1.0000   1.0000   1.0000   1.0000   1.0000   1.0000   1.0000
     1.0000   1.0000   1.0000   1.0000   1.0000   1.0000   1.0000   1.0000
     1.0000   1.0000   1.0000   1.0000   1.0000   1.0000   1.0000   1.0000
     1.0000   1.0000   1.0000   1.0000   1.0000   1.0000   1.0000   1.0000
     1.0000   1.0000   1.0000   1.0000   1.0000   1.0000   1.0000   1.0000
     1.0000   1.0000   1.0000   1.0000   1.0000   1.0000   1.0000   1.0000
     1.0000   1.0000   1.0000   1.0000   1.0000   1.0000   1.0000   1.0000
     1.0000   1.0000   1.0000   1.0000   1.0000   1.0000   1.0000   1.0000
     1.0000   1.0000   1.0000   1.0000   1.0000   1.0000   1.0000   1.0000
     1.0000   1.0000   1.0000   1.0000   1.0000   1.0000   1.0000   1.0000
     1.0000   1.0000   1.0000   1.0000   1.0000   1.0000   1.0000   1.0000
     1.0000   1.0000   1.0000   1.0000   1.0000   1.0000   1.0000   1.0000
     1.0000   1.0000   1.0000   1.0000   1.0000   1.0000   1.0000   1.0000
     1.0000   1.0000   1.0000   1.0000   1.0000   1.0000   1.0000   1.0000
     1.0000   1.0000   1.0000   1.0000   1.0000   1.0000   1.0000   1.0000
     1.0000   1.0000   1.0000   1.0000   1.0000   1.0000   1.0000   1.0000
     1.0000   1.0000   1.0000   1.0000   1.0000   1.0000   1.0000   1.0000
     1.0000   1.0000   1.0000   1.0000   1.0000   1.0000   1.0000   1.0000
     1.0000   1.0000   1.0000   1.0000   1.0000   1.0000   1.0000   1.0000
     1.0000   1.0000   1.0000   1.0000   1.0000   1.0000   1.0000   1.0000
     1.0000   1.0000   1.0000   1.0000   1.0000   1.0000   1.0000   1.0000
     1.0000   1.0000   0.0000

          k = 0.2000 0.5774 0.0000 (112237 PWs)   bands (ev):

   -73.8135 -73.8096 -73.8069 -73.8043 -73.8024 -73.8010 -73.7982 -73.7959
   -73.7938 -73.7888 -73.7878 -73.7862 -73.7821 -73.7412 -73.7316 -73.7286
   -38.1956 -38.1887 -38.1800 -38.1758 -38.1701 -38.1663 -38.1582 -38.1428
   -38.1388 -38.1228 -38.0855 -38.0841 -38.0762 -38.0448 -38.0409 -38.0344
   -38.0290 -38.0226 -38.0133 -38.0096 -38.0036 -37.9998 -37.9979 -37.9960
   -37.9949 -37.9930 -37.9883 -37.9842 -37.9818 -37.9761 -37.9689 -37.9649
   -37.9598 -37.9555 -37.9532 -37.9503 -37.9492 -37.9416 -37.9379 -37.9344
   -37.9312 -37.9243 -37.9201 -37.9160 -37.9042 -37.8866 -37.8743 -37.8659
   -21.4858 -15.4269 -14.3313 -14.2893 -14.1113 -13.5917 -13.2956 -13.2908
   -12.9474 -12.9441 -12.8851 -12.8498 -12.8374 -12.7995 -12.7901 -12.6548
   -12.6274 -12.5996 -12.4880 -12.4814 -12.3798 -12.3682 -12.3546 -12.3213
   -12.3067 -12.2949 -12.2555 -12.2310 -12.2299 -12.1280 -12.1179 -12.1155
   -12.0767 -12.0142  -7.9149  -7.5283  -6.1721  -6.0440  -5.9979  -5.9813
    -5.9146  -5.8896  -5.8703  -5.8436  -5.8049  -5.7396  -5.6813  -5.6180
    -5.6094  -5.5367  -5.3578  -5.2601  -5.2500  -5.2131  -5.1979  -5.1659
    -5.1497  -4.8505  -4.8267  -4.7433  -4.6267  -4.5707  -4.5410  -4.5139
    -4.4682  -4.4112  -4.3916  -4.3116  -4.3053  -4.2351  -4.2279  -4.2077
    -4.1816  -4.1607  -4.1184  -4.0920  -3.9489  -3.9454  -3.7845  -3.6563
    -3.6364  -3.5608  -3.4266  -3.3830  -3.3504  -3.3174  -3.2979  -3.2791
    -3.2643  -3.2553  -3.2372  -3.2275  -3.2101  -3.1948  -3.1352  -3.1158
    -3.0917  -3.0736  -3.0560  -3.0238  -2.9913  -2.9216  -2.8677  -2.8112
    -2.7292  -2.6999  -2.6788  -2.6551  -2.5992  -2.5421  -2.4925  -2.4416
    -2.3852  -2.3267  -2.3144  -2.3001  -2.2450  -2.1894  -2.1667  -2.1241
    -2.1083  -2.0928  -2.0687  -2.0465  -2.0061  -1.9728  -1.9535  -1.9426
    -1.9243  -1.9047  -1.8852  -1.8689  -1.8603  -1.8479  -1.8375  -1.8277
    -1.8099  -1.7713  -1.7525  -1.7258  -1.6957  -1.6713  -1.6580  -1.6353
    -1.6021  -1.5603  -1.5428  -1.4902  -1.4720  -1.4574  -1.3912  -1.3199
    -1.2662  -1.1848  -1.1517  -1.1333  -1.0846  -1.0721  -0.9981  -0.9766
    -0.8063  -0.7911  -0.6950  -0.6827  -0.6497  -0.6354  -0.5853  -0.5744
    -0.5563  -0.3916  -0.2713  -0.2621  -0.1798  -0.1168  -0.0563   0.1217
     0.1972   1.3384   1.7415

     occupation numbers 
     1.0000   1.0000   1.0000   1.0000   1.0000   1.0000   1.0000   1.0000
     1.0000   1.0000   1.0000   1.0000   1.0000   1.0000   1.0000   1.0000
     1.0000   1.0000   1.0000   1.0000   1.0000   1.0000   1.0000   1.0000
     1.0000   1.0000   1.0000   1.0000   1.0000   1.0000   1.0000   1.0000
     1.0000   1.0000   1.0000   1.0000   1.0000   1.0000   1.0000   1.0000
     1.0000   1.0000   1.0000   1.0000   1.0000   1.0000   1.0000   1.0000
     1.0000   1.0000   1.0000   1.0000   1.0000   1.0000   1.0000   1.0000
     1.0000   1.0000   1.0000   1.0000   1.0000   1.0000   1.0000   1.0000
     1.0000   1.0000   1.0000   1.0000   1.0000   1.0000   1.0000   1.0000
     1.0000   1.0000   1.0000   1.0000   1.0000   1.0000   1.0000   1.0000
     1.0000   1.0000   1.0000   1.0000   1.0000   1.0000   1.0000   1.0000
     1.0000   1.0000   1.0000   1.0000   1.0000   1.0000   1.0000   1.0000
     1.0000   1.0000   1.0000   1.0000   1.0000   1.0000   1.0000   1.0000
     1.0000   1.0000   1.0000   1.0000   1.0000   1.0000   1.0000   1.0000
     1.0000   1.0000   1.0000   1.0000   1.0000   1.0000   1.0000   1.0000
     1.0000   1.0000   1.0000   1.0000   1.0000   1.0000   1.0000   1.0000
     1.0000   1.0000   1.0000   1.0000   1.0000   1.0000   1.0000   1.0000
     1.0000   1.0000   1.0000   1.0000   1.0000   1.0000   1.0000   1.0000
     1.0000   1.0000   1.0000   1.0000   1.0000   1.0000   1.0000   1.0000
     1.0000   1.0000   1.0000   1.0000   1.0000   1.0000   1.0000   1.0000
     1.0000   1.0000   1.0000   1.0000   1.0000   1.0000   1.0000   1.0000
     1.0000   1.0000   1.0000   1.0000   1.0000   1.0000   1.0000   1.0000
     1.0000   1.0000   1.0000   1.0000   1.0000   1.0000   1.0000   1.0000
     1.0000   1.0000   1.0000   1.0000   1.0000   1.0000   1.0000   1.0000
     1.0000   1.0000   1.0000   1.0000   1.0000   1.0000   1.0000   1.0000
     1.0000   1.0000   1.0000   1.0000   1.0000   1.0000   1.0000   1.0000
     1.0000   1.0000   1.0000   1.0000   1.0000   1.0000   1.0000   1.0000
     1.0000   1.0000   1.0000   1.0000   1.0000   1.0000   1.0000   1.0000
     1.0000   1.0000   1.0000   1.0000   1.0000   1.0000   1.0000   1.0000
     1.0000   1.0000   1.0000   1.0000   1.0000   1.0000   1.0000   1.0000
     1.0000   1.0000   0.0000

          k =-0.2000 0.1155 0.0000 (112171 PWs)   bands (ev):

   -73.8137 -73.8095 -73.8064 -73.8045 -73.8021 -73.8015 -73.7983 -73.7960
   -73.7937 -73.7888 -73.7878 -73.7862 -73.7821 -73.7412 -73.7316 -73.7286
   -38.2107 -38.2104 -38.2057 -38.1619 -38.1586 -38.1560 -38.1504 -38.1389
   -38.1318 -38.0957 -38.0718 -38.0696 -38.0463 -38.0426 -38.0374 -38.0282
   -38.0221 -38.0204 -38.0194 -38.0180 -38.0114 -38.0097 -38.0084 -38.0050
   -37.9992 -37.9942 -37.9926 -37.9912 -37.9881 -37.9867 -37.9845 -37.9826
   -37.9791 -37.9762 -37.9553 -37.9522 -37.9496 -37.9455 -37.9355 -37.9276
   -37.9238 -37.9139 -37.9097 -37.9033 -37.8992 -37.8892 -37.8636 -37.8596
   -21.4858 -15.4269 -14.5530 -13.9720 -13.7978 -13.7853 -13.4753 -13.4707
   -13.3220 -12.9636 -12.7872 -12.7528 -12.6885 -12.6787 -12.6548 -12.5836
   -12.5614 -12.5180 -12.4936 -12.4760 -12.4655 -12.4303 -12.4209 -12.3044
   -12.2918 -12.2592 -12.2420 -12.2105 -12.1843 -12.1728 -12.1659 -12.1494
   -12.0930 -12.0789  -7.9149  -7.5283  -6.2786  -6.2582  -6.2380  -6.2254
    -6.1631  -5.6679  -5.6317  -5.6191  -5.5436  -5.5256  -5.4853  -5.4654
    -5.4325  -5.4136  -5.3798  -5.3239  -5.3080  -5.2778  -5.2725  -5.0757
    -5.0591  -5.0113  -4.9969  -4.9475  -4.7358  -4.7323  -4.5625  -4.5036
    -4.4395  -4.3664  -4.3350  -4.2728  -4.2010  -4.1571  -4.1423  -4.1189
    -4.0956  -4.0607  -4.0365  -3.9923  -3.9797  -3.9111  -3.9009  -3.8923
    -3.6525  -3.5812  -3.5293  -3.4961  -3.4709  -3.4549  -3.4403  -3.3702
    -3.3616  -3.3085  -3.2906  -3.2734  -3.2533  -3.2007  -3.1893  -3.1489
    -3.0731  -2.9677  -2.9442  -2.9110  -2.8129  -2.7894  -2.7638  -2.7382
    -2.7158  -2.7028  -2.6902  -2.6811  -2.6616  -2.6346  -2.5807  -2.5382
    -2.4941  -2.4770  -2.4606  -2.4283  -2.3537  -2.3005  -2.1778  -2.1649
    -2.1145  -2.0648  -2.0126  -1.9914  -1.9637  -1.9531  -1.9226  -1.8987
    -1.8733  -1.8537  -1.8299  -1.8107  -1.7899  -1.7613  -1.7328  -1.7191
    -1.7027  -1.6905  -1.6731  -1.6525  -1.6432  -1.5980  -1.5646  -1.5429
    -1.5133  -1.4945  -1.4879  -1.4304  -1.4220  -1.3576  -1.3426  -1.3219
    -1.3046  -1.2712  -1.2435  -1.2143  -1.1421  -1.0710  -1.0348  -0.9943
    -0.8930  -0.7683  -0.7506  -0.7304  -0.5776  -0.5620  -0.5414  -0.5265
    -0.5100  -0.5012  -0.4048  -0.3748  -0.3501  -0.2408  -0.1645  -0.1368
     0.1995   1.3300   1.6817

     occupation numbers 
     1.0000   1.0000   1.0000   1.0000   1.0000   1.0000   1.0000   1.0000
     1.0000   1.0000   1.0000   1.0000   1.0000   1.0000   1.0000   1.0000
     1.0000   1.0000   1.0000   1.0000   1.0000   1.0000   1.0000   1.0000
     1.0000   1.0000   1.0000   1.0000   1.0000   1.0000   1.0000   1.0000
     1.0000   1.0000   1.0000   1.0000   1.0000   1.0000   1.0000   1.0000
     1.0000   1.0000   1.0000   1.0000   1.0000   1.0000   1.0000   1.0000
     1.0000   1.0000   1.0000   1.0000   1.0000   1.0000   1.0000   1.0000
     1.0000   1.0000   1.0000   1.0000   1.0000   1.0000   1.0000   1.0000
     1.0000   1.0000   1.0000   1.0000   1.0000   1.0000   1.0000   1.0000
     1.0000   1.0000   1.0000   1.0000   1.0000   1.0000   1.0000   1.0000
     1.0000   1.0000   1.0000   1.0000   1.0000   1.0000   1.0000   1.0000
     1.0000   1.0000   1.0000   1.0000   1.0000   1.0000   1.0000   1.0000
     1.0000   1.0000   1.0000   1.0000   1.0000   1.0000   1.0000   1.0000
     1.0000   1.0000   1.0000   1.0000   1.0000   1.0000   1.0000   1.0000
     1.0000   1.0000   1.0000   1.0000   1.0000   1.0000   1.0000   1.0000
     1.0000   1.0000   1.0000   1.0000   1.0000   1.0000   1.0000   1.0000
     1.0000   1.0000   1.0000   1.0000   1.0000   1.0000   1.0000   1.0000
     1.0000   1.0000   1.0000   1.0000   1.0000   1.0000   1.0000   1.0000
     1.0000   1.0000   1.0000   1.0000   1.0000   1.0000   1.0000   1.0000
     1.0000   1.0000   1.0000   1.0000   1.0000   1.0000   1.0000   1.0000
     1.0000   1.0000   1.0000   1.0000   1.0000   1.0000   1.0000   1.0000
     1.0000   1.0000   1.0000   1.0000   1.0000   1.0000   1.0000   1.0000
     1.0000   1.0000   1.0000   1.0000   1.0000   1.0000   1.0000   1.0000
     1.0000   1.0000   1.0000   1.0000   1.0000   1.0000   1.0000   1.0000
     1.0000   1.0000   1.0000   1.0000   1.0000   1.0000   1.0000   1.0000
     1.0000   1.0000   1.0000   1.0000   1.0000   1.0000   1.0000   1.0000
     1.0000   1.0000   1.0000   1.0000   1.0000   1.0000   1.0000   1.0000
     1.0000   1.0000   1.0000   1.0000   1.0000   1.0000   1.0000   1.0000
     1.0000   1.0000   1.0000   1.0000   1.0000   1.0000   1.0000   1.0000
     1.0000   1.0000   1.0000   1.0000   1.0000   1.0000   1.0000   1.0000
     1.0000   1.0000   0.0000

          k = 0.2000 0.1155 0.0000 (112171 PWs)   bands (ev):

   -73.8137 -73.8095 -73.8064 -73.8045 -73.8022 -73.8014 -73.7984 -73.7960
   -73.7936 -73.7888 -73.7878 -73.7862 -73.7821 -73.7412 -73.7316 -73.7286
   -38.2114 -38.2092 -38.2063 -38.1632 -38.1581 -38.1552 -38.1496 -38.1391
   -38.1324 -38.0959 -38.0720 -38.0694 -38.0464 -38.0414 -38.0388 -38.0281
   -38.0227 -38.0204 -38.0187 -38.0171 -38.0123 -38.0095 -38.0076 -38.0051
   -37.9995 -37.9942 -37.9932 -37.9898 -37.9878 -37.9869 -37.9857 -37.9825
   -37.9792 -37.9761 -37.9543 -37.9533 -37.9497 -37.9452 -37.9355 -37.9277
   -37.9234 -37.9134 -37.9103 -37.9033 -37.8991 -37.8896 -37.8654 -37.8578
   -21.4858 -15.4269 -14.5530 -13.9721 -13.7971 -13.7858 -13.4742 -13.4725
   -13.3213 -12.9636 -12.7870 -12.7522 -12.6878 -12.6804 -12.6551 -12.5834
   -12.5625 -12.5167 -12.4913 -12.4779 -12.4654 -12.4322 -12.4200 -12.3000
   -12.2916 -12.2620 -12.2450 -12.2061 -12.1899 -12.1705 -12.1683 -12.1465
   -12.0903 -12.0813  -7.9149  -7.5283  -6.2727  -6.2607  -6.2411  -6.2262
    -6.1630  -5.6606  -5.6373  -5.6158  -5.5435  -5.5308  -5.4842  -5.4670
    -5.4369  -5.4186  -5.3667  -5.3233  -5.3108  -5.2782  -5.2712  -5.0730
    -5.0661  -5.0097  -5.0001  -4.9416  -4.7371  -4.7325  -4.5563  -4.5036
    -4.4342  -4.3872  -4.3344  -4.2673  -4.1999  -4.1579  -4.1444  -4.1193
    -4.0951  -4.0517  -4.0361  -3.9990  -3.9787  -3.9084  -3.9047  -3.8946
    -3.6452  -3.5617  -3.5445  -3.5020  -3.4621  -3.4525  -3.4354  -3.3772
    -3.3677  -3.3046  -3.2951  -3.2777  -3.2448  -3.2068  -3.1922  -3.1428
    -3.0815  -2.9808  -2.9343  -2.9000  -2.8104  -2.7910  -2.7688  -2.7399
    -2.7265  -2.7037  -2.6919  -2.6813  -2.6488  -2.6215  -2.5732  -2.5415
    -2.5191  -2.4822  -2.4653  -2.4148  -2.3507  -2.2936  -2.1889  -2.1627
    -2.1088  -2.0654  -2.0104  -1.9831  -1.9583  -1.9458  -1.9142  -1.9003
    -1.8927  -1.8665  -1.8281  -1.8101  -1.7955  -1.7652  -1.7330  -1.7287
    -1.7015  -1.6832  -1.6701  -1.6463  -1.6277  -1.6090  -1.5835  -1.5307
    -1.5249  -1.4961  -1.4476  -1.4377  -1.4181  -1.3930  -1.3450  -1.3049
    -1.3007  -1.2896  -1.2382  -1.1976  -1.1496  -1.0512  -1.0366  -1.0094
    -0.8906  -0.7586  -0.7492  -0.7449  -0.5882  -0.5531  -0.5410  -0.5260
    -0.5128  -0.5053  -0.4008  -0.3762  -0.3452  -0.2417  -0.1606  -0.1405
     0.2002   1.3248   1.6882

     occupation numbers 
     1.0000   1.0000   1.0000   1.0000   1.0000   1.0000   1.0000   1.0000
     1.0000   1.0000   1.0000   1.0000   1.0000   1.0000   1.0000   1.0000
     1.0000   1.0000   1.0000   1.0000   1.0000   1.0000   1.0000   1.0000
     1.0000   1.0000   1.0000   1.0000   1.0000   1.0000   1.0000   1.0000
     1.0000   1.0000   1.0000   1.0000   1.0000   1.0000   1.0000   1.0000
     1.0000   1.0000   1.0000   1.0000   1.0000   1.0000   1.0000   1.0000
     1.0000   1.0000   1.0000   1.0000   1.0000   1.0000   1.0000   1.0000
     1.0000   1.0000   1.0000   1.0000   1.0000   1.0000   1.0000   1.0000
     1.0000   1.0000   1.0000   1.0000   1.0000   1.0000   1.0000   1.0000
     1.0000   1.0000   1.0000   1.0000   1.0000   1.0000   1.0000   1.0000
     1.0000   1.0000   1.0000   1.0000   1.0000   1.0000   1.0000   1.0000
     1.0000   1.0000   1.0000   1.0000   1.0000   1.0000   1.0000   1.0000
     1.0000   1.0000   1.0000   1.0000   1.0000   1.0000   1.0000   1.0000
     1.0000   1.0000   1.0000   1.0000   1.0000   1.0000   1.0000   1.0000
     1.0000   1.0000   1.0000   1.0000   1.0000   1.0000   1.0000   1.0000
     1.0000   1.0000   1.0000   1.0000   1.0000   1.0000   1.0000   1.0000
     1.0000   1.0000   1.0000   1.0000   1.0000   1.0000   1.0000   1.0000
     1.0000   1.0000   1.0000   1.0000   1.0000   1.0000   1.0000   1.0000
     1.0000   1.0000   1.0000   1.0000   1.0000   1.0000   1.0000   1.0000
     1.0000   1.0000   1.0000   1.0000   1.0000   1.0000   1.0000   1.0000
     1.0000   1.0000   1.0000   1.0000   1.0000   1.0000   1.0000   1.0000
     1.0000   1.0000   1.0000   1.0000   1.0000   1.0000   1.0000   1.0000
     1.0000   1.0000   1.0000   1.0000   1.0000   1.0000   1.0000   1.0000
     1.0000   1.0000   1.0000   1.0000   1.0000   1.0000   1.0000   1.0000
     1.0000   1.0000   1.0000   1.0000   1.0000   1.0000   1.0000   1.0000
     1.0000   1.0000   1.0000   1.0000   1.0000   1.0000   1.0000   1.0000
     1.0000   1.0000   1.0000   1.0000   1.0000   1.0000   1.0000   1.0000
     1.0000   1.0000   1.0000   1.0000   1.0000   1.0000   1.0000   1.0000
     1.0000   1.0000   1.0000   1.0000   1.0000   1.0000   1.0000   1.0000
     1.0000   1.0000   1.0000   1.0000   1.0000   1.0000   1.0000   1.0000
     1.0000   1.0000   0.0000

          k =-0.4000 0.2309 0.0000 (112236 PWs)   bands (ev):

   -73.8135 -73.8097 -73.8066 -73.8046 -73.8018 -73.8016 -73.7982 -73.7960
   -73.7937 -73.7889 -73.7878 -73.7862 -73.7821 -73.7412 -73.7316 -73.7286
   -38.2001 -38.1975 -38.1841 -38.1790 -38.1722 -38.1566 -38.1545 -38.1384
   -38.1229 -38.1169 -38.0972 -38.0933 -38.0566 -38.0504 -38.0425 -38.0340
   -38.0237 -38.0197 -38.0071 -38.0067 -38.0049 -38.0030 -37.9990 -37.9960
   -37.9936 -37.9909 -37.9900 -37.9883 -37.9849 -37.9813 -37.9761 -37.9739
   -37.9671 -37.9598 -37.9571 -37.9510 -37.9446 -37.9418 -37.9393 -37.9360
   -37.9285 -37.9227 -37.9168 -37.9089 -37.8996 -37.8848 -37.8772 -37.8629
   -21.4858 -15.4269 -14.4315 -14.2292 -13.8651 -13.8548 -13.2451 -13.2398
   -13.0195 -12.9933 -12.9716 -12.9074 -12.8297 -12.7285 -12.7007 -12.6824
   -12.5300 -12.5039 -12.4580 -12.4500 -12.4278 -12.4224 -12.3835 -12.3606
   -12.3500 -12.2799 -12.2185 -12.1966 -12.1738 -12.1588 -12.1528 -12.1499
   -12.0541 -12.0380  -7.9149  -7.5283  -6.1746  -6.1245  -6.1025  -6.0842
    -6.0178  -5.8708  -5.8517  -5.8324  -5.7063  -5.5248  -5.5060  -5.4805
    -5.4495  -5.4418  -5.4339  -5.3850  -5.3757  -5.3127  -5.3051  -5.0752
    -5.0532  -5.0198  -5.0030  -4.7978  -4.5991  -4.5443  -4.4716  -4.4358
    -4.4081  -4.3680  -4.3481  -4.3043  -4.2405  -4.2171  -4.1917  -4.1565
    -4.1181  -4.1095  -4.0976  -4.0716  -4.0645  -4.0483  -4.0374  -3.6752
    -3.5634  -3.5151  -3.4690  -3.4503  -3.4202  -3.3904  -3.3520  -3.3130
    -3.2851  -3.2752  -3.2552  -3.2378  -3.2098  -3.1915  -3.1413  -3.1117
    -3.0625  -3.0312  -3.0055  -2.9450  -2.9257  -2.8938  -2.8190  -2.7598
    -2.7145  -2.6965  -2.6472  -2.6225  -2.5892  -2.5737  -2.5460  -2.4756
    -2.4240  -2.4182  -2.3881  -2.3258  -2.2744  -2.2467  -2.2385  -2.1611
    -2.1146  -2.0933  -2.0478  -2.0248  -2.0055  -1.9866  -1.9503  -1.9163
    -1.9029  -1.8897  -1.8795  -1.8616  -1.8533  -1.8453  -1.8339  -1.8151
    -1.7750  -1.7455  -1.7050  -1.6838  -1.6802  -1.6542  -1.6405  -1.6064
    -1.5799  -1.5479  -1.4916  -1.4624  -1.4413  -1.3474  -1.3197  -1.2898
    -1.2583  -1.2067  -1.1679  -1.1224  -1.1111  -1.0920  -1.0657  -0.9803
    -0.9553  -0.8692  -0.7275  -0.7114  -0.6333  -0.6161  -0.4963  -0.4480
    -0.4405  -0.4185  -0.3978  -0.3675  -0.2852  -0.0915   0.0080   0.0392
     0.1499   1.3764   1.6892

     occupation numbers 
     1.0000   1.0000   1.0000   1.0000   1.0000   1.0000   1.0000   1.0000
     1.0000   1.0000   1.0000   1.0000   1.0000   1.0000   1.0000   1.0000
     1.0000   1.0000   1.0000   1.0000   1.0000   1.0000   1.0000   1.0000
     1.0000   1.0000   1.0000   1.0000   1.0000   1.0000   1.0000   1.0000
     1.0000   1.0000   1.0000   1.0000   1.0000   1.0000   1.0000   1.0000
     1.0000   1.0000   1.0000   1.0000   1.0000   1.0000   1.0000   1.0000
     1.0000   1.0000   1.0000   1.0000   1.0000   1.0000   1.0000   1.0000
     1.0000   1.0000   1.0000   1.0000   1.0000   1.0000   1.0000   1.0000
     1.0000   1.0000   1.0000   1.0000   1.0000   1.0000   1.0000   1.0000
     1.0000   1.0000   1.0000   1.0000   1.0000   1.0000   1.0000   1.0000
     1.0000   1.0000   1.0000   1.0000   1.0000   1.0000   1.0000   1.0000
     1.0000   1.0000   1.0000   1.0000   1.0000   1.0000   1.0000   1.0000
     1.0000   1.0000   1.0000   1.0000   1.0000   1.0000   1.0000   1.0000
     1.0000   1.0000   1.0000   1.0000   1.0000   1.0000   1.0000   1.0000
     1.0000   1.0000   1.0000   1.0000   1.0000   1.0000   1.0000   1.0000
     1.0000   1.0000   1.0000   1.0000   1.0000   1.0000   1.0000   1.0000
     1.0000   1.0000   1.0000   1.0000   1.0000   1.0000   1.0000   1.0000
     1.0000   1.0000   1.0000   1.0000   1.0000   1.0000   1.0000   1.0000
     1.0000   1.0000   1.0000   1.0000   1.0000   1.0000   1.0000   1.0000
     1.0000   1.0000   1.0000   1.0000   1.0000   1.0000   1.0000   1.0000
     1.0000   1.0000   1.0000   1.0000   1.0000   1.0000   1.0000   1.0000
     1.0000   1.0000   1.0000   1.0000   1.0000   1.0000   1.0000   1.0000
     1.0000   1.0000   1.0000   1.0000   1.0000   1.0000   1.0000   1.0000
     1.0000   1.0000   1.0000   1.0000   1.0000   1.0000   1.0000   1.0000
     1.0000   1.0000   1.0000   1.0000   1.0000   1.0000   1.0000   1.0000
     1.0000   1.0000   1.0000   1.0000   1.0000   1.0000   1.0000   1.0000
     1.0000   1.0000   1.0000   1.0000   1.0000   1.0000   1.0000   1.0000
     1.0000   1.0000   1.0000   1.0000   1.0000   1.0000   1.0000   1.0000
     1.0000   1.0000   1.0000   1.0000   1.0000   1.0000   1.0000   1.0000
     1.0000   1.0000   1.0000   1.0000   1.0000   1.0000   1.0000   1.0000
     1.0000   1.0000   0.0000

          k = 0.4000 0.2309 0.0000 (112236 PWs)   bands (ev):

   -73.8135 -73.8098 -73.8065 -73.8046 -73.8020 -73.8011 -73.7987 -73.7960
   -73.7935 -73.7889 -73.7877 -73.7863 -73.7821 -73.7412 -73.7316 -73.7286
   -38.1988 -38.1984 -38.1846 -38.1803 -38.1706 -38.1559 -38.1548 -38.1392
   -38.1223 -38.1167 -38.0982 -38.0936 -38.0551 -38.0517 -38.0424 -38.0342
   -38.0242 -38.0181 -38.0075 -38.0066 -38.0055 -38.0032 -37.9992 -37.9966
   -37.9918 -37.9914 -37.9896 -37.9873 -37.9859 -37.9815 -37.9762 -37.9736
   -37.9687 -37.9592 -37.9574 -37.9505 -37.9435 -37.9419 -37.9396 -37.9350
   -37.9273 -37.9236 -37.9176 -37.9099 -37.8976 -37.8857 -37.8806 -37.8603
   -21.4858 -15.4269 -14.4314 -14.2293 -13.8645 -13.8553 -13.2447 -13.2410
   -13.0164 -12.9929 -12.9737 -12.9067 -12.8304 -12.7262 -12.7026 -12.6833
   -12.5376 -12.4961 -12.4622 -12.4473 -12.4268 -12.4223 -12.3841 -12.3592
   -12.3477 -12.2798 -12.2256 -12.1946 -12.1756 -12.1578 -12.1531 -12.1473
   -12.0512 -12.0405  -7.9150  -7.5283  -6.1745  -6.1151  -6.1061  -6.0828
    -6.0304  -5.8635  -5.8517  -5.8292  -5.7109  -5.5265  -5.5051  -5.4833
    -5.4448  -5.4435  -5.4356  -5.3847  -5.3775  -5.3102  -5.3039  -5.0679
    -5.0645  -5.0182  -5.0073  -4.7708  -4.6085  -4.5529  -4.4780  -4.4458
    -4.4142  -4.3672  -4.3443  -4.3007  -4.2348  -4.2215  -4.1874  -4.1538
    -4.1216  -4.1118  -4.0985  -4.0730  -4.0599  -4.0460  -4.0387  -3.6627
    -3.5571  -3.5160  -3.4579  -3.4442  -3.4239  -3.3948  -3.3543  -3.3213
    -3.2866  -3.2717  -3.2494  -3.2318  -3.2143  -3.1987  -3.1308  -3.1124
    -3.0713  -3.0523  -3.0124  -2.9456  -2.9238  -2.8980  -2.8270  -2.7610
    -2.7125  -2.6783  -2.6347  -2.6132  -2.6082  -2.5931  -2.5041  -2.4871
    -2.4491  -2.4246  -2.3663  -2.3264  -2.2688  -2.2530  -2.2380  -2.1412
    -2.1128  -2.0985  -2.0329  -2.0049  -1.9961  -1.9774  -1.9678  -1.9522
    -1.9254  -1.8949  -1.8805  -1.8598  -1.8469  -1.8414  -1.8329  -1.8104
    -1.7933  -1.7361  -1.7153  -1.6950  -1.6838  -1.6327  -1.6209  -1.6143
    -1.5908  -1.5440  -1.5013  -1.4885  -1.4066  -1.3555  -1.3022  -1.2838
    -1.2467  -1.2264  -1.1852  -1.1302  -1.1133  -1.0546  -1.0405  -0.9901
    -0.9665  -0.8778  -0.7237  -0.7177  -0.6327  -0.6223  -0.5038  -0.4515
    -0.4426  -0.4159  -0.4002  -0.3561  -0.2800  -0.0923   0.0100   0.0354
     0.1524   1.3604   1.7096

     occupation numbers 
     1.0000   1.0000   1.0000   1.0000   1.0000   1.0000   1.0000   1.0000
     1.0000   1.0000   1.0000   1.0000   1.0000   1.0000   1.0000   1.0000
     1.0000   1.0000   1.0000   1.0000   1.0000   1.0000   1.0000   1.0000
     1.0000   1.0000   1.0000   1.0000   1.0000   1.0000   1.0000   1.0000
     1.0000   1.0000   1.0000   1.0000   1.0000   1.0000   1.0000   1.0000
     1.0000   1.0000   1.0000   1.0000   1.0000   1.0000   1.0000   1.0000
     1.0000   1.0000   1.0000   1.0000   1.0000   1.0000   1.0000   1.0000
     1.0000   1.0000   1.0000   1.0000   1.0000   1.0000   1.0000   1.0000
     1.0000   1.0000   1.0000   1.0000   1.0000   1.0000   1.0000   1.0000
     1.0000   1.0000   1.0000   1.0000   1.0000   1.0000   1.0000   1.0000
     1.0000   1.0000   1.0000   1.0000   1.0000   1.0000   1.0000   1.0000
     1.0000   1.0000   1.0000   1.0000   1.0000   1.0000   1.0000   1.0000
     1.0000   1.0000   1.0000   1.0000   1.0000   1.0000   1.0000   1.0000
     1.0000   1.0000   1.0000   1.0000   1.0000   1.0000   1.0000   1.0000
     1.0000   1.0000   1.0000   1.0000   1.0000   1.0000   1.0000   1.0000
     1.0000   1.0000   1.0000   1.0000   1.0000   1.0000   1.0000   1.0000
     1.0000   1.0000   1.0000   1.0000   1.0000   1.0000   1.0000   1.0000
     1.0000   1.0000   1.0000   1.0000   1.0000   1.0000   1.0000   1.0000
     1.0000   1.0000   1.0000   1.0000   1.0000   1.0000   1.0000   1.0000
     1.0000   1.0000   1.0000   1.0000   1.0000   1.0000   1.0000   1.0000
     1.0000   1.0000   1.0000   1.0000   1.0000   1.0000   1.0000   1.0000
     1.0000   1.0000   1.0000   1.0000   1.0000   1.0000   1.0000   1.0000
     1.0000   1.0000   1.0000   1.0000   1.0000   1.0000   1.0000   1.0000
     1.0000   1.0000   1.0000   1.0000   1.0000   1.0000   1.0000   1.0000
     1.0000   1.0000   1.0000   1.0000   1.0000   1.0000   1.0000   1.0000
     1.0000   1.0000   1.0000   1.0000   1.0000   1.0000   1.0000   1.0000
     1.0000   1.0000   1.0000   1.0000   1.0000   1.0000   1.0000   1.0000
     1.0000   1.0000   1.0000   1.0000   1.0000   1.0000   1.0000   1.0000
     1.0000   1.0000   1.0000   1.0000   1.0000   1.0000   1.0000   1.0000
     1.0000   1.0000   1.0000   1.0000   1.0000   1.0000   1.0000   1.0000
     1.0000   1.0000   0.0000

          k =-0.2000 0.3464 0.0000 (112231 PWs)   bands (ev):

   -73.8136 -73.8095 -73.8067 -73.8044 -73.8023 -73.8012 -73.7982 -73.7959
   -73.7939 -73.7888 -73.7878 -73.7862 -73.7821 -73.7412 -73.7316 -73.7286
   -38.2051 -38.1966 -38.1940 -38.1720 -38.1668 -38.1587 -38.1483 -38.1416
   -38.1258 -38.1177 -38.1022 -38.0694 -38.0543 -38.0479 -38.0434 -38.0313
   -38.0270 -38.0219 -38.0166 -38.0154 -38.0104 -38.0043 -37.9986 -37.9962
   -37.9929 -37.9884 -37.9866 -37.9841 -37.9825 -37.9783 -37.9762 -37.9751
   -37.9691 -37.9672 -37.9571 -37.9517 -37.9488 -37.9465 -37.9371 -37.9338
   -37.9266 -37.9199 -37.9168 -37.9112 -37.8943 -37.8879 -37.8723 -37.8631
   -21.4858 -15.4269 -14.4712 -14.0975 -14.0574 -13.5699 -13.5531 -13.1696
   -13.1167 -13.0051 -12.9311 -12.8039 -12.7871 -12.7019 -12.6703 -12.6150
   -12.5812 -12.5741 -12.5660 -12.4512 -12.4232 -12.3898 -12.3761 -12.3070
   -12.2893 -12.2709 -12.2486 -12.2243 -12.2209 -12.1540 -12.1472 -12.1058
   -12.0938 -12.0333  -7.9149  -7.5283  -6.1864  -6.1734  -6.1342  -6.1170
    -6.0980  -5.7573  -5.7298  -5.7122  -5.6935  -5.6226  -5.5983  -5.5566
    -5.5030  -5.4720  -5.3512  -5.3254  -5.2949  -5.2615  -5.2370  -5.2148
    -5.0932  -4.9083  -4.8894  -4.7908  -4.7530  -4.5973  -4.5039  -4.4380
    -4.3903  -4.3395  -4.3297  -4.3038  -4.2771  -4.2553  -4.2401  -4.2214
    -4.1596  -4.1251  -4.1068  -4.0898  -4.0505  -3.7652  -3.7339  -3.7230
    -3.7036  -3.6860  -3.6018  -3.4992  -3.4140  -3.3757  -3.3646  -3.3003
    -3.2799  -3.2365  -3.2229  -3.1968  -3.1592  -3.1433  -3.1105  -3.0787
    -3.0518  -3.0008  -2.9555  -2.9380  -2.9230  -2.9180  -2.9079  -2.8936
    -2.7745  -2.7195  -2.6860  -2.6644  -2.5970  -2.5451  -2.5126  -2.4673
    -2.4510  -2.4001  -2.3795  -2.3560  -2.3123  -2.2070  -2.1897  -2.1459
    -2.1234  -2.1162  -2.0978  -2.0665  -2.0220  -1.9767  -1.9646  -1.9277
    -1.9017  -1.8896  -1.8583  -1.8416  -1.8156  -1.8087  -1.7863  -1.7635
    -1.7314  -1.7023  -1.6865  -1.6664  -1.6405  -1.6242  -1.5786  -1.5763
    -1.5543  -1.5429  -1.5179  -1.4927  -1.4250  -1.3883  -1.3774  -1.3374
    -1.2738  -1.2381  -1.1877  -1.1676  -1.1498  -1.1039  -1.0364  -0.9812
    -0.8704  -0.8265  -0.6813  -0.6645  -0.6282  -0.6182  -0.6027  -0.5332
    -0.5291  -0.4082  -0.3775  -0.2514  -0.1985  -0.1899  -0.1442   0.0811
     0.1646   1.3381   1.7182

     occupation numbers 
     1.0000   1.0000   1.0000   1.0000   1.0000   1.0000   1.0000   1.0000
     1.0000   1.0000   1.0000   1.0000   1.0000   1.0000   1.0000   1.0000
     1.0000   1.0000   1.0000   1.0000   1.0000   1.0000   1.0000   1.0000
     1.0000   1.0000   1.0000   1.0000   1.0000   1.0000   1.0000   1.0000
     1.0000   1.0000   1.0000   1.0000   1.0000   1.0000   1.0000   1.0000
     1.0000   1.0000   1.0000   1.0000   1.0000   1.0000   1.0000   1.0000
     1.0000   1.0000   1.0000   1.0000   1.0000   1.0000   1.0000   1.0000
     1.0000   1.0000   1.0000   1.0000   1.0000   1.0000   1.0000   1.0000
     1.0000   1.0000   1.0000   1.0000   1.0000   1.0000   1.0000   1.0000
     1.0000   1.0000   1.0000   1.0000   1.0000   1.0000   1.0000   1.0000
     1.0000   1.0000   1.0000   1.0000   1.0000   1.0000   1.0000   1.0000
     1.0000   1.0000   1.0000   1.0000   1.0000   1.0000   1.0000   1.0000
     1.0000   1.0000   1.0000   1.0000   1.0000   1.0000   1.0000   1.0000
     1.0000   1.0000   1.0000   1.0000   1.0000   1.0000   1.0000   1.0000
     1.0000   1.0000   1.0000   1.0000   1.0000   1.0000   1.0000   1.0000
     1.0000   1.0000   1.0000   1.0000   1.0000   1.0000   1.0000   1.0000
     1.0000   1.0000   1.0000   1.0000   1.0000   1.0000   1.0000   1.0000
     1.0000   1.0000   1.0000   1.0000   1.0000   1.0000   1.0000   1.0000
     1.0000   1.0000   1.0000   1.0000   1.0000   1.0000   1.0000   1.0000
     1.0000   1.0000   1.0000   1.0000   1.0000   1.0000   1.0000   1.0000
     1.0000   1.0000   1.0000   1.0000   1.0000   1.0000   1.0000   1.0000
     1.0000   1.0000   1.0000   1.0000   1.0000   1.0000   1.0000   1.0000
     1.0000   1.0000   1.0000   1.0000   1.0000   1.0000   1.0000   1.0000
     1.0000   1.0000   1.0000   1.0000   1.0000   1.0000   1.0000   1.0000
     1.0000   1.0000   1.0000   1.0000   1.0000   1.0000   1.0000   1.0000
     1.0000   1.0000   1.0000   1.0000   1.0000   1.0000   1.0000   1.0000
     1.0000   1.0000   1.0000   1.0000   1.0000   1.0000   1.0000   1.0000
     1.0000   1.0000   1.0000   1.0000   1.0000   1.0000   1.0000   1.0000
     1.0000   1.0000   1.0000   1.0000   1.0000   1.0000   1.0000   1.0000
     1.0000   1.0000   1.0000   1.0000   1.0000   1.0000   1.0000   1.0000
     1.0000   1.0000   0.0000

          k = 0.4000-0.0000 0.0000 (112231 PWs)   bands (ev):

   -73.8135 -73.8097 -73.8065 -73.8046 -73.8018 -73.8014 -73.7985 -73.7960
   -73.7936 -73.7889 -73.7877 -73.7862 -73.7821 -73.7412 -73.7316 -73.7286
   -38.2052 -38.1962 -38.1944 -38.1717 -38.1679 -38.1585 -38.1481 -38.1407
   -38.1245 -38.1162 -38.1056 -38.0704 -38.0532 -38.0476 -38.0432 -38.0323
   -38.0257 -38.0225 -38.0175 -38.0154 -38.0103 -38.0053 -37.9989 -37.9946
   -37.9923 -37.9887 -37.9863 -37.9848 -37.9819 -37.9792 -37.9761 -37.9753
   -37.9686 -37.9655 -37.9577 -37.9522 -37.9497 -37.9456 -37.9370 -37.9352
   -37.9248 -37.9199 -37.9168 -37.9097 -37.8957 -37.8893 -37.8733 -37.8615
   -21.4858 -15.4269 -14.4712 -14.0953 -14.0596 -13.5634 -13.5602 -13.1657
   -13.1189 -13.0088 -12.9256 -12.8011 -12.7900 -12.7060 -12.6779 -12.5995
   -12.5956 -12.5715 -12.5570 -12.4535 -12.4196 -12.4083 -12.3616 -12.3052
   -12.2897 -12.2677 -12.2507 -12.2329 -12.2180 -12.1547 -12.1445 -12.1043
   -12.0947 -12.0338  -7.9149  -7.5283  -6.1801  -6.1736  -6.1402  -6.1125
    -6.1041  -5.7499  -5.7350  -5.7163  -5.6811  -5.6300  -5.6037  -5.5553
    -5.5007  -5.4693  -5.3475  -5.3308  -5.2860  -5.2674  -5.2392  -5.2239
    -5.0925  -4.8957  -4.8827  -4.8044  -4.7523  -4.5606  -4.5278  -4.4529
    -4.4028  -4.3415  -4.3336  -4.3069  -4.2719  -4.2600  -4.2377  -4.2048
    -4.1708  -4.1138  -4.1055  -4.0861  -4.0500  -3.7555  -3.7285  -3.7219
    -3.7020  -3.6926  -3.6120  -3.4791  -3.4231  -3.3910  -3.3649  -3.3108
    -3.2768  -3.2394  -3.2270  -3.1966  -3.1688  -3.1384  -3.1183  -3.0748
    -3.0318  -2.9843  -2.9618  -2.9434  -2.9347  -2.9114  -2.8969  -2.8882
    -2.7623  -2.7346  -2.6881  -2.6381  -2.6093  -2.5666  -2.5265  -2.4612
    -2.4547  -2.4097  -2.3785  -2.3351  -2.3115  -2.2140  -2.1733  -2.1457
    -2.1215  -2.1170  -2.0967  -2.0827  -1.9946  -1.9774  -1.9638  -1.9311
    -1.9155  -1.8901  -1.8675  -1.8541  -1.8376  -1.8124  -1.7750  -1.7541
    -1.7267  -1.6996  -1.6809  -1.6646  -1.6434  -1.6168  -1.5861  -1.5664
    -1.5472  -1.5379  -1.5182  -1.4905  -1.4398  -1.4023  -1.3576  -1.3294
    -1.2764  -1.2519  -1.1931  -1.1705  -1.1444  -1.0937  -1.0376  -0.9800
    -0.8601  -0.8407  -0.6758  -0.6669  -0.6283  -0.6146  -0.6066  -0.5326
    -0.5280  -0.4264  -0.3709  -0.2441  -0.1993  -0.1852  -0.1473   0.0787
     0.1642   1.3684   1.6855

     occupation numbers 
     1.0000   1.0000   1.0000   1.0000   1.0000   1.0000   1.0000   1.0000
     1.0000   1.0000   1.0000   1.0000   1.0000   1.0000   1.0000   1.0000
     1.0000   1.0000   1.0000   1.0000   1.0000   1.0000   1.0000   1.0000
     1.0000   1.0000   1.0000   1.0000   1.0000   1.0000   1.0000   1.0000
     1.0000   1.0000   1.0000   1.0000   1.0000   1.0000   1.0000   1.0000
     1.0000   1.0000   1.0000   1.0000   1.0000   1.0000   1.0000   1.0000
     1.0000   1.0000   1.0000   1.0000   1.0000   1.0000   1.0000   1.0000
     1.0000   1.0000   1.0000   1.0000   1.0000   1.0000   1.0000   1.0000
     1.0000   1.0000   1.0000   1.0000   1.0000   1.0000   1.0000   1.0000
     1.0000   1.0000   1.0000   1.0000   1.0000   1.0000   1.0000   1.0000
     1.0000   1.0000   1.0000   1.0000   1.0000   1.0000   1.0000   1.0000
     1.0000   1.0000   1.0000   1.0000   1.0000   1.0000   1.0000   1.0000
     1.0000   1.0000   1.0000   1.0000   1.0000   1.0000   1.0000   1.0000
     1.0000   1.0000   1.0000   1.0000   1.0000   1.0000   1.0000   1.0000
     1.0000   1.0000   1.0000   1.0000   1.0000   1.0000   1.0000   1.0000
     1.0000   1.0000   1.0000   1.0000   1.0000   1.0000   1.0000   1.0000
     1.0000   1.0000   1.0000   1.0000   1.0000   1.0000   1.0000   1.0000
     1.0000   1.0000   1.0000   1.0000   1.0000   1.0000   1.0000   1.0000
     1.0000   1.0000   1.0000   1.0000   1.0000   1.0000   1.0000   1.0000
     1.0000   1.0000   1.0000   1.0000   1.0000   1.0000   1.0000   1.0000
     1.0000   1.0000   1.0000   1.0000   1.0000   1.0000   1.0000   1.0000
     1.0000   1.0000   1.0000   1.0000   1.0000   1.0000   1.0000   1.0000
     1.0000   1.0000   1.0000   1.0000   1.0000   1.0000   1.0000   1.0000
     1.0000   1.0000   1.0000   1.0000   1.0000   1.0000   1.0000   1.0000
     1.0000   1.0000   1.0000   1.0000   1.0000   1.0000   1.0000   1.0000
     1.0000   1.0000   1.0000   1.0000   1.0000   1.0000   1.0000   1.0000
     1.0000   1.0000   1.0000   1.0000   1.0000   1.0000   1.0000   1.0000
     1.0000   1.0000   1.0000   1.0000   1.0000   1.0000   1.0000   1.0000
     1.0000   1.0000   1.0000   1.0000   1.0000   1.0000   1.0000   1.0000
     1.0000   1.0000   1.0000   1.0000   1.0000   1.0000   1.0000   1.0000
     1.0000   1.0000   0.0000

          k =-0.4000 0.4619 0.0000 (112237 PWs)   bands (ev):

   -73.8135 -73.8098 -73.8067 -73.8045 -73.8020 -73.8013 -73.7983 -73.7960
   -73.7937 -73.7889 -73.7877 -73.7862 -73.7821 -73.7412 -73.7316 -73.7286
   -38.1955 -38.1895 -38.1797 -38.1771 -38.1694 -38.1656 -38.1576 -38.1426
   -38.1388 -38.1227 -38.0863 -38.0831 -38.0772 -38.0442 -38.0407 -38.0351
   -38.0278 -38.0241 -38.0154 -38.0072 -38.0046 -37.9998 -37.9978 -37.9957
   -37.9937 -37.9926 -37.9892 -37.9847 -37.9814 -37.9761 -37.9688 -37.9655
   -37.9599 -37.9552 -37.9523 -37.9507 -37.9491 -37.9423 -37.9378 -37.9359
   -37.9303 -37.9236 -37.9192 -37.9158 -37.9051 -37.8867 -37.8740 -37.8662
   -21.4858 -15.4269 -14.3331 -14.2869 -14.1120 -13.5924 -13.2937 -13.2908
   -12.9549 -12.9445 -12.8820 -12.8534 -12.8242 -12.7987 -12.7933 -12.6604
   -12.6313 -12.5928 -12.4901 -12.4804 -12.3838 -12.3714 -12.3437 -12.3223
   -12.3075 -12.2956 -12.2577 -12.2322 -12.2271 -12.1307 -12.1178 -12.1121
   -12.0776 -12.0143  -7.9149  -7.5283  -6.1720  -6.0450  -6.0115  -5.9647
    -5.9095  -5.8855  -5.8722  -5.8537  -5.8047  -5.7403  -5.6813  -5.6205
    -5.6051  -5.5372  -5.3534  -5.2778  -5.2422  -5.2117  -5.1960  -5.1636
    -5.1523  -4.8480  -4.8274  -4.7369  -4.6156  -4.5798  -4.5380  -4.5171
    -4.4840  -4.4187  -4.3768  -4.3189  -4.3017  -4.2373  -4.2225  -4.2030
    -4.1883  -4.1588  -4.1169  -4.0902  -3.9511  -3.9432  -3.7844  -3.6618
    -3.6127  -3.5826  -3.4212  -3.3857  -3.3497  -3.3169  -3.2981  -3.2741
    -3.2694  -3.2606  -3.2369  -3.2254  -3.2152  -3.2072  -3.1391  -3.1156
    -3.0900  -3.0732  -3.0532  -3.0342  -2.9799  -2.9179  -2.8369  -2.7959
    -2.7291  -2.7016  -2.6851  -2.6612  -2.6045  -2.5808  -2.4839  -2.4055
    -2.3882  -2.3194  -2.3153  -2.3090  -2.2583  -2.1797  -2.1649  -2.1492
    -2.1276  -2.0825  -2.0687  -2.0390  -2.0169  -1.9634  -1.9501  -1.9343
    -1.9214  -1.9078  -1.8845  -1.8704  -1.8570  -1.8462  -1.8393  -1.8319
    -1.8046  -1.7812  -1.7454  -1.7166  -1.6912  -1.6768  -1.6541  -1.6380
    -1.6121  -1.5707  -1.5182  -1.4934  -1.4732  -1.4513  -1.4017  -1.2999
    -1.2657  -1.2253  -1.1578  -1.1084  -1.0853  -1.0641  -1.0329  -0.9526
    -0.8079  -0.7799  -0.6939  -0.6831  -0.6493  -0.6363  -0.5931  -0.5738
    -0.5571  -0.3917  -0.2713  -0.2665  -0.1681  -0.1120  -0.0693   0.1224
     0.1956   1.3761   1.6999

     occupation numbers 
     1.0000   1.0000   1.0000   1.0000   1.0000   1.0000   1.0000   1.0000
     1.0000   1.0000   1.0000   1.0000   1.0000   1.0000   1.0000   1.0000
     1.0000   1.0000   1.0000   1.0000   1.0000   1.0000   1.0000   1.0000
     1.0000   1.0000   1.0000   1.0000   1.0000   1.0000   1.0000   1.0000
     1.0000   1.0000   1.0000   1.0000   1.0000   1.0000   1.0000   1.0000
     1.0000   1.0000   1.0000   1.0000   1.0000   1.0000   1.0000   1.0000
     1.0000   1.0000   1.0000   1.0000   1.0000   1.0000   1.0000   1.0000
     1.0000   1.0000   1.0000   1.0000   1.0000   1.0000   1.0000   1.0000
     1.0000   1.0000   1.0000   1.0000   1.0000   1.0000   1.0000   1.0000
     1.0000   1.0000   1.0000   1.0000   1.0000   1.0000   1.0000   1.0000
     1.0000   1.0000   1.0000   1.0000   1.0000   1.0000   1.0000   1.0000
     1.0000   1.0000   1.0000   1.0000   1.0000   1.0000   1.0000   1.0000
     1.0000   1.0000   1.0000   1.0000   1.0000   1.0000   1.0000   1.0000
     1.0000   1.0000   1.0000   1.0000   1.0000   1.0000   1.0000   1.0000
     1.0000   1.0000   1.0000   1.0000   1.0000   1.0000   1.0000   1.0000
     1.0000   1.0000   1.0000   1.0000   1.0000   1.0000   1.0000   1.0000
     1.0000   1.0000   1.0000   1.0000   1.0000   1.0000   1.0000   1.0000
     1.0000   1.0000   1.0000   1.0000   1.0000   1.0000   1.0000   1.0000
     1.0000   1.0000   1.0000   1.0000   1.0000   1.0000   1.0000   1.0000
     1.0000   1.0000   1.0000   1.0000   1.0000   1.0000   1.0000   1.0000
     1.0000   1.0000   1.0000   1.0000   1.0000   1.0000   1.0000   1.0000
     1.0000   1.0000   1.0000   1.0000   1.0000   1.0000   1.0000   1.0000
     1.0000   1.0000   1.0000   1.0000   1.0000   1.0000   1.0000   1.0000
     1.0000   1.0000   1.0000   1.0000   1.0000   1.0000   1.0000   1.0000
     1.0000   1.0000   1.0000   1.0000   1.0000   1.0000   1.0000   1.0000
     1.0000   1.0000   1.0000   1.0000   1.0000   1.0000   1.0000   1.0000
     1.0000   1.0000   1.0000   1.0000   1.0000   1.0000   1.0000   1.0000
     1.0000   1.0000   1.0000   1.0000   1.0000   1.0000   1.0000   1.0000
     1.0000   1.0000   1.0000   1.0000   1.0000   1.0000   1.0000   1.0000
     1.0000   1.0000   1.0000   1.0000   1.0000   1.0000   1.0000   1.0000
     1.0000   1.0000   0.0000

          k = 0.6000 0.1155 0.0000 (112237 PWs)   bands (ev):

   -73.8134 -73.8099 -73.8067 -73.8045 -73.8021 -73.8010 -73.7985 -73.7960
   -73.7935 -73.7889 -73.7877 -73.7863 -73.7821 -73.7412 -73.7316 -73.7286
   -38.1946 -38.1903 -38.1804 -38.1772 -38.1689 -38.1651 -38.1573 -38.1426
   -38.1393 -38.1223 -38.0863 -38.0836 -38.0778 -38.0429 -38.0408 -38.0353
   -38.0277 -38.0245 -38.0144 -38.0077 -38.0052 -37.9995 -37.9981 -37.9963
   -37.9938 -37.9913 -37.9891 -37.9851 -37.9814 -37.9761 -37.9689 -37.9649
   -37.9612 -37.9549 -37.9522 -37.9509 -37.9484 -37.9429 -37.9374 -37.9347
   -37.9292 -37.9241 -37.9191 -37.9172 -37.9047 -37.8876 -37.8763 -37.8638
   -21.4858 -15.4269 -14.3326 -14.2876 -14.1118 -13.5923 -13.3011 -13.2833
   -12.9614 -12.9377 -12.8771 -12.8572 -12.8243 -12.7987 -12.7941 -12.6634
   -12.6299 -12.5910 -12.5002 -12.4699 -12.3906 -12.3676 -12.3400 -12.3185
   -12.3078 -12.2976 -12.2611 -12.2326 -12.2279 -12.1286 -12.1184 -12.1124
   -12.0770 -12.0146  -7.9150  -7.5283  -6.1720  -6.0415  -6.0081  -5.9628
    -5.9201  -5.9022  -5.8730  -5.8307  -5.8035  -5.7453  -5.6835  -5.6182
    -5.6074  -5.5335  -5.3517  -5.2749  -5.2507  -5.2189  -5.1929  -5.1666
    -5.1435  -4.8503  -4.8340  -4.6869  -4.6399  -4.6019  -4.5447  -4.5082
    -4.4844  -4.4290  -4.3765  -4.3163  -4.2942  -4.2375  -4.2278  -4.1942
    -4.1854  -4.1628  -4.1164  -4.0921  -3.9529  -3.9423  -3.7812  -3.6596
    -3.6147  -3.5741  -3.4225  -3.3627  -3.3535  -3.3256  -3.2908  -3.2811
    -3.2780  -3.2539  -3.2390  -3.2277  -3.2156  -3.1955  -3.1696  -3.1352
    -3.0812  -3.0723  -3.0492  -3.0136  -2.9835  -2.9292  -2.8335  -2.7950
    -2.7343  -2.7131  -2.6900  -2.6353  -2.6162  -2.5441  -2.4952  -2.4497
    -2.3838  -2.3261  -2.3105  -2.2888  -2.2396  -2.1909  -2.1671  -2.1350
    -2.1136  -2.0930  -2.0701  -2.0300  -2.0057  -1.9726  -1.9574  -1.9444
    -1.9255  -1.8957  -1.8910  -1.8739  -1.8634  -1.8547  -1.8472  -1.8314
    -1.7980  -1.7844  -1.7376  -1.7210  -1.6890  -1.6796  -1.6479  -1.6289
    -1.6112  -1.5915  -1.5229  -1.5097  -1.4647  -1.4243  -1.3875  -1.3119
    -1.2745  -1.2172  -1.1505  -1.1297  -1.0906  -1.0436  -1.0100  -0.9718
    -0.8045  -0.7842  -0.6903  -0.6880  -0.6498  -0.6439  -0.5924  -0.5860
    -0.5430  -0.3932  -0.2739  -0.2601  -0.1658  -0.1153  -0.0686   0.1229
     0.1961   1.3665   1.7117

     occupation numbers 
     1.0000   1.0000   1.0000   1.0000   1.0000   1.0000   1.0000   1.0000
     1.0000   1.0000   1.0000   1.0000   1.0000   1.0000   1.0000   1.0000
     1.0000   1.0000   1.0000   1.0000   1.0000   1.0000   1.0000   1.0000
     1.0000   1.0000   1.0000   1.0000   1.0000   1.0000   1.0000   1.0000
     1.0000   1.0000   1.0000   1.0000   1.0000   1.0000   1.0000   1.0000
     1.0000   1.0000   1.0000   1.0000   1.0000   1.0000   1.0000   1.0000
     1.0000   1.0000   1.0000   1.0000   1.0000   1.0000   1.0000   1.0000
     1.0000   1.0000   1.0000   1.0000   1.0000   1.0000   1.0000   1.0000
     1.0000   1.0000   1.0000   1.0000   1.0000   1.0000   1.0000   1.0000
     1.0000   1.0000   1.0000   1.0000   1.0000   1.0000   1.0000   1.0000
     1.0000   1.0000   1.0000   1.0000   1.0000   1.0000   1.0000   1.0000
     1.0000   1.0000   1.0000   1.0000   1.0000   1.0000   1.0000   1.0000
     1.0000   1.0000   1.0000   1.0000   1.0000   1.0000   1.0000   1.0000
     1.0000   1.0000   1.0000   1.0000   1.0000   1.0000   1.0000   1.0000
     1.0000   1.0000   1.0000   1.0000   1.0000   1.0000   1.0000   1.0000
     1.0000   1.0000   1.0000   1.0000   1.0000   1.0000   1.0000   1.0000
     1.0000   1.0000   1.0000   1.0000   1.0000   1.0000   1.0000   1.0000
     1.0000   1.0000   1.0000   1.0000   1.0000   1.0000   1.0000   1.0000
     1.0000   1.0000   1.0000   1.0000   1.0000   1.0000   1.0000   1.0000
     1.0000   1.0000   1.0000   1.0000   1.0000   1.0000   1.0000   1.0000
     1.0000   1.0000   1.0000   1.0000   1.0000   1.0000   1.0000   1.0000
     1.0000   1.0000   1.0000   1.0000   1.0000   1.0000   1.0000   1.0000
     1.0000   1.0000   1.0000   1.0000   1.0000   1.0000   1.0000   1.0000
     1.0000   1.0000   1.0000   1.0000   1.0000   1.0000   1.0000   1.0000
     1.0000   1.0000   1.0000   1.0000   1.0000   1.0000   1.0000   1.0000
     1.0000   1.0000   1.0000   1.0000   1.0000   1.0000   1.0000   1.0000
     1.0000   1.0000   1.0000   1.0000   1.0000   1.0000   1.0000   1.0000
     1.0000   1.0000   1.0000   1.0000   1.0000   1.0000   1.0000   1.0000
     1.0000   1.0000   1.0000   1.0000   1.0000   1.0000   1.0000   1.0000
     1.0000   1.0000   1.0000   1.0000   1.0000   1.0000   1.0000   1.0000
     1.0000   1.0000   0.0000

     highest occupied, lowest unoccupied level (ev):     1.6172    1.6761

!    total energy              =  -16138.55470651 Ry
     total all-electron energy =   -595550.627912 Ry
     estimated scf accuracy    <          7.5E-11 Ry

     The total energy is the sum of the following terms:
     one-electron contribution =  -18311.86856933 Ry
     hartree contribution      =    9259.72279258 Ry
     xc contribution           =    -931.73167596 Ry
     ewald contribution        =    6415.31277121 Ry
     DFT-D3 Dispersion         =      -0.65559035 Ry
     one-center paw contrib.   =  -12569.33443465 Ry
      -> PAW hartree energy AE =      92.00281937 Ry
      -> PAW hartree energy PS =     -91.51076544 Ry
      -> PAW xc energy AE      =    -644.66491222 Ry
      -> PAW xc energy PS      =      38.62151339 Ry
      -> total E_H with PAW    =    9260.21484650 Ry
      -> total E_XC with PAW   =   -1537.77507479 Ry

     total magnetization       =     1.00 Bohr mag/cell
     absolute magnetization    =     1.12 Bohr mag/cell

     convergence has been achieved in  34 iterations

     negative rho (up, down):  4.796E-03 5.163E-03

     Forces acting on atoms (cartesian axes, Ry/au):

     atom    1 type  2   force =    -0.00000318   -0.00008325   -0.00015088
     atom    2 type  2   force =    -0.00018939    0.00001830    0.00013176
     atom    3 type  2   force =    -0.00025956   -0.00016038    0.00000869
     atom    4 type  2   force =     0.00028607    0.00027775    0.00003985
     atom    5 type  2   force =    -0.00001287   -0.00024148    0.00000669
     atom    6 type  2   force =    -0.00002403    0.00007860   -0.00000728
     atom    7 type  2   force =     0.00006932   -0.00002677    0.00007676
     atom    8 type  2   force =     0.00013176    0.00008188    0.00006797
     atom    9 type  2   force =    -0.00021042   -0.00007750    0.00006515
     atom   10 type  2   force =     0.00009180    0.00010644    0.00006499
     atom   11 type  2   force =    -0.00006016    0.00020030    0.00003379
     atom   12 type  2   force =    -0.00001114    0.00006730   -0.00015541
     atom   13 type  2   force =    -0.00013773    0.00015805    0.00008065
     atom   14 type  2   force =     0.00011911    0.00000960   -0.00000532
     atom   15 type  2   force =     0.00000028   -0.00016148   -0.00008076
     atom   16 type  2   force =    -0.00024402   -0.00016170   -0.00004014
     atom   17 type  1   force =    -0.00008609    0.00017378   -0.00002251
     atom   18 type  1   force =    -0.00005778   -0.00018455   -0.00006597
     atom   19 type  1   force =    -0.00010817    0.00010667   -0.00003262
     atom   20 type  1   force =     0.00012457   -0.00001851   -0.00006698
     atom   21 type  1   force =    -0.00008826    0.00000746    0.00004895
     atom   22 type  1   force =    -0.00003174   -0.00001079   -0.00034720
     atom   23 type  1   force =    -0.00007010    0.00002146    0.00001560
     atom   24 type  1   force =     0.00012341    0.00000301    0.00002121
     atom   25 type  1   force =    -0.00001974   -0.00003884    0.00001979
     atom   26 type  1   force =     0.00005562   -0.00008320   -0.00008878
     atom   27 type  1   force =     0.00010119    0.00008342   -0.00004434
     atom   28 type  1   force =    -0.00028444    0.00003731   -0.00036667
     atom   29 type  1   force =    -0.00002085   -0.00012420   -0.00012409
     atom   30 type  1   force =    -0.00007622   -0.00000574    0.00007847
     atom   31 type  1   force =    -0.00021413   -0.00006766   -0.00003455
     atom   32 type  1   force =     0.00025282    0.00007637   -0.00016895
     atom   33 type  1   force =     0.00002550    0.00005161   -0.00015462
     atom   34 type  1   force =     0.00001105    0.00006333    0.00004387
     atom   35 type  1   force =     0.00002273   -0.00000121   -0.00003571
     atom   36 type  1   force =    -0.00003667   -0.00004346    0.00004657
     atom   37 type  1   force =    -0.00011380    0.00001597   -0.00012188
     atom   38 type  1   force =     0.00008837   -0.00016347    0.00001806
     atom   39 type  1   force =     0.00014794    0.00003317    0.00002345
     atom   40 type  1   force =     0.00011007   -0.00003102    0.00007198
     atom   41 type  1   force =    -0.00011721    0.00005083    0.00006727
     atom   42 type  1   force =     0.00004487    0.00005682    0.00000818
     atom   43 type  1   force =    -0.00025204    0.00001009    0.00014947
     atom   44 type  1   force =    -0.00007631    0.00009659   -0.00037430
     atom   45 type  1   force =    -0.00009827   -0.00004309    0.00005196
     atom   46 type  1   force =     0.00000911    0.00003988   -0.00015193
     atom   47 type  1   force =    -0.00004599   -0.00017340   -0.00015790
     atom   48 type  1   force =    -0.00002748    0.00004858    0.00015261
     atom   49 type  3   force =     0.00096092   -0.00002743   -0.00035677
     atom   50 type  3   force =    -0.00033285   -0.00073647    0.00062333
     atom   51 type  3   force =    -0.00039775   -0.00011855   -0.00010363
     atom   52 type  3   force =     0.00043726    0.00036825    0.00043661
     atom   53 type  3   force =    -0.00006533    0.00079751   -0.00000719
     atom   54 type  4   force =     0.00434973   -0.04494740   -0.00497475
     atom   55 type  5   force =     0.00146673    0.00428098   -0.00010985
     atom   56 type  6   force =    -0.00087351    0.01794433    0.01559059
     atom   57 type  6   force =    -0.00019747    0.00020579    0.00047730
     atom   58 type  6   force =    -0.00418554    0.02216012   -0.01017057
     The non-local contrib.  to forces
     atom    1 type  2   force =    -0.00047296    0.00023966   -0.00009538
     atom    2 type  2   force =     0.00035431   -0.00014815   -0.00019431
     atom    3 type  2   force =    -0.00390781   -0.00386263    0.00604281
     atom    4 type  2   force =    -0.00236261   -0.00004788    0.00309327
     atom    5 type  2   force =    -0.00054938    0.00926470    0.00836044
     atom    6 type  2   force =     0.00405527   -0.00045648    0.01269701
     atom    7 type  2   force =     0.00359013   -0.00282064    0.00570427
     atom    8 type  2   force =     0.00047666    0.00022387    0.00051624
     atom    9 type  2   force =     0.00018294    0.00103970    0.00331996
     atom   10 type  2   force =    -0.00362646    0.00165464    0.01381096
     atom   11 type  2   force =    -0.00039635   -0.00031022    0.01550386
     atom   12 type  2   force =     0.00588178   -0.00340407    0.00755834
     atom   13 type  2   force =    -0.00013606    0.00029412   -0.00031719
     atom   14 type  2   force =     0.00074751    0.00162212    0.00308189
     atom   15 type  2   force =    -0.00070942   -0.00210111    0.00704122
     atom   16 type  2   force =    -0.00285574   -0.00023588    0.00573382
     atom   17 type  1   force =     0.00084530    0.00126977   -0.27571227
     atom   18 type  1   force =     0.00429008    0.00240673   -0.27657547
     atom   19 type  1   force =     0.00094589    0.00009382   -0.27534428
     atom   20 type  1   force =    -0.00088079   -0.00064288   -0.27641118
     atom   21 type  1   force =    -0.00026850    0.00141180   -0.27545157
     atom   22 type  1   force =     0.01178173    0.02354309   -0.15681217
     atom   23 type  1   force =    -0.00164327   -0.00212310   -0.18684345
     atom   24 type  1   force =     0.00274461   -0.00129145   -0.27540407
     atom   25 type  1   force =     0.00010435   -0.00085570   -0.27674473
     atom   26 type  1   force =     0.00289677    0.00948248   -0.25647124
     atom   27 type  1   force =     0.01811854    0.00630250   -0.22558923
     atom   28 type  1   force =     0.01937639   -0.01750657   -0.19311868
     atom   29 type  1   force =     0.00088674   -0.00183844   -0.27491061
     atom   30 type  1   force =    -0.00196122    0.00125501   -0.27604162
     atom   31 type  1   force =    -0.02389708   -0.01160570   -0.21276089
     atom   32 type  1   force =    -0.00976407   -0.00787521   -0.24421838
     atom   33 type  1   force =    -0.00022808    0.00030960    0.27622667
     atom   34 type  1   force =     0.00171689    0.00243626    0.27673172
     atom   35 type  1   force =     0.00154157   -0.00049457    0.27628022
     atom   36 type  1   force =    -0.00083195   -0.00082755    0.27581396
     atom   37 type  1   force =     0.00033118    0.00196582    0.27561683
     atom   38 type  1   force =     0.00295227    0.00258814    0.27716469
     atom   39 type  1   force =     0.00248570    0.00067692    0.27702202
     atom   40 type  1   force =     0.00205727   -0.00164776    0.27530353
     atom   41 type  1   force =     0.00022034    0.00048499    0.27664995
     atom   42 type  1   force =    -0.00263616    0.00246519    0.27560560
     atom   43 type  1   force =    -0.00192974   -0.00054750    0.27974733
     atom   44 type  1   force =     0.00088857   -0.00430459    0.27700510
     atom   45 type  1   force =    -0.00063642   -0.00172378    0.27610087
     atom   46 type  1   force =    -0.00124834   -0.00047707    0.27627939
     atom   47 type  1   force =    -0.00341497   -0.00008803    0.27526904
     atom   48 type  1   force =    -0.00235206   -0.00164192    0.27540440
     atom   49 type  3   force =    -0.18436078    0.03163149   -0.05992401
     atom   50 type  3   force =    -0.00812771   -0.13053002   -0.07545117
     atom   51 type  3   force =     0.19399859   -0.01614676   -0.09619352
     atom   52 type  3   force =     0.02029204    0.14033582   -0.09274284
     atom   53 type  3   force =     0.02063391    0.02675697    0.14752701
     atom   54 type  4   force =    -0.86288528   -0.30694925    0.93038364
     atom   55 type  5   force =     1.86882353    0.57909297   -1.51051213
     atom   56 type  6   force =    -0.00744720   -0.07442923   -0.06935722
     atom   57 type  6   force =     0.01164284   -0.01478188    0.09896569
     atom   58 type  6   force =    -0.02729562    0.07966283   -0.03796947
     The ionic contribution  to forces
     atom    1 type  2   force =    -0.93891887   -0.19525775   -8.51199987
     atom    2 type  2   force =    -0.97098106   -1.15717936   -8.87986187
     atom    3 type  2   force =     1.92226305    0.65010278   -9.43984975
     atom    4 type  2   force =     1.76685141    1.72513972   -9.24161969
     atom    5 type  2   force =    -0.76024348   -3.39362306  -10.32485862
     atom    6 type  2   force =    -3.93376177   -3.11234417  -14.38095493
     atom    7 type  2   force =    -3.78929356    1.11508355  -12.06336991
     atom    8 type  2   force =    -0.45982960    0.22299604   -8.34411856
     atom    9 type  2   force =     1.12792788   -2.55015231  -10.29889093
     atom   10 type  2   force =     1.18882587   -3.57253815  -19.43120896
     atom   11 type  2   force =    -2.00134694    2.17389651  -20.50262024
     atom   12 type  2   force =    -1.90189961    2.98600670  -10.56715931
     atom   13 type  2   force =     0.52971996    0.57685837   -8.41992445
     atom   14 type  2   force =     3.83211969   -2.05764151  -11.86134561
     atom   15 type  2   force =     3.84735510    1.90179034  -17.31857849
     atom   16 type  2   force =     0.57192319    4.70790953  -12.98795414
     atom   17 type  1   force =    -0.13985737   -0.66102709   32.26107851
     atom   18 type  1   force =    -2.24092606   -1.69662650   31.29362950
     atom   19 type  1   force =    -1.12787512    0.05246249   31.69846396
     atom   20 type  1   force =     1.01153880    0.86418020   32.41880224
     atom   21 type  1   force =     0.17369052   -1.94551654   32.03493005
     atom   22 type  1   force =    -2.23773944   -5.30512631   25.62247547
     atom   23 type  1   force =    -4.76121905    0.06229181   24.69048013
     atom   24 type  1   force =    -2.11355075    1.73134388   31.40465394
     atom   25 type  1   force =    -0.02630279    0.43282931   32.25570958
     atom   26 type  1   force =     2.91732689   -4.06834406   28.41170204
     atom   27 type  1   force =     1.27439356   -0.00920011   20.49354586
     atom   28 type  1   force =    -2.26279625    5.24410169   26.48441152
     atom   29 type  1   force =     0.01986096    1.75698879   32.08025358
     atom   30 type  1   force =     1.12868301   -0.96851062   32.14847704
     atom   31 type  1   force =     4.85886563    0.33630624   28.22789800
     atom   32 type  1   force =     3.17884800    3.98407935   28.83878164
     atom   33 type  1   force =    -0.05119599   -0.12658920  -39.08004059
     atom   34 type  1   force =    -0.56941556   -0.42790416  -39.19370784
     atom   35 type  1   force =    -0.28920022   -0.04263094  -39.24754684
     atom   36 type  1   force =     0.27301547    0.22250723  -39.08996317
     atom   37 type  1   force =    -0.01850108   -0.48714927  -39.20270049
     atom   38 type  1   force =    -0.41730720   -0.93196108  -40.31565951
     atom   39 type  1   force =    -0.90999445   -0.05723298  -40.68655169
     atom   40 type  1   force =    -0.52233451    0.40404105  -39.34402644
     atom   41 type  1   force =     0.05815772    0.12847015  -39.16755531
     atom   42 type  1   force =     0.64035337   -0.72206845  -40.20939850
     atom   43 type  1   force =     0.29418814    0.05116242  -41.17799114
     atom   44 type  1   force =    -0.25865309    0.97340302  -40.32990791
     atom   45 type  1   force =     0.01560753    0.50336341  -39.10193229
     atom   46 type  1   force =     0.32788026   -0.23269582  -39.01140270
     atom   47 type  1   force =     0.87996883   -0.02492105  -39.93818514
     atom   48 type  1   force =     0.55142418    0.76665181  -40.07742312
     atom   49 type  3   force =   -21.27151310    3.67551729   58.88828722
     atom   50 type  3   force =    -1.58072505  -20.68883169   58.09078401
     atom   51 type  3   force =    21.71790620   -2.59114052   61.19722171
     atom   52 type  3   force =     2.76494941   20.97944706   58.83707397
     atom   53 type  3   force =     7.93259413    2.02462856   63.34936959
     atom   54 type  4   force =     4.39668190    0.10433314   20.57627435
     atom   55 type  5   force =   -13.29446391   -3.01805684   24.86205253
     atom   56 type  6   force =     0.54952709    2.68420573    5.46711924
     atom   57 type  6   force =    -2.24542158    0.16627863    1.35241961
     atom   58 type  6   force =     1.34281972   -3.16410729    4.76241268
     The local contribution  to forces
     atom    1 type  2   force =     0.93899761    0.19540059    8.51192202
     atom    2 type  2   force =     0.97048144    1.15683083    8.87993776
     atom    3 type  2   force =    -1.91895118   -0.64704189    9.43457876
     atom    4 type  2   force =    -1.76458953   -1.72469532    9.23887998
     atom    5 type  2   force =     0.76038610    3.38417988   10.31612944
     atom    6 type  2   force =     3.92895394    3.11140233   14.36586121
     atom    7 type  2   force =     3.78441966   -1.11196470   12.05603592
     atom    8 type  2   force =     0.45943029   -0.22323786    8.34406370
     atom    9 type  2   force =    -1.12807877    2.54854950   10.29512696
     atom   10 type  2   force =    -1.18498256    3.57140807   19.41447005
     atom   11 type  2   force =     2.00242377   -2.17321046   20.48225664
     atom   12 type  2   force =     1.89621015   -2.98239317   10.55919094
     atom   13 type  2   force =    -0.52950071   -0.57670154    8.42005385
     atom   14 type  2   force =    -3.83123024    2.05579545   11.85614000
     atom   15 type  2   force =    -3.84607063   -1.89965399   17.30691083
     atom   16 type  2   force =    -0.56941711   -4.70620847   12.97989372
     atom   17 type  1   force =     0.13889938    0.65969518  -31.98677254
     atom   18 type  1   force =     2.23593937    1.69353936  -31.01895476
     atom   19 type  1   force =     1.12652688   -0.05238403  -31.42478216
     atom   20 type  1   force =    -1.01016912   -0.86325324  -32.14386091
     atom   21 type  1   force =    -0.17340748    1.94350064  -31.76089453
     atom   22 type  1   force =     2.22584958    5.28083664  -25.46551821
     atom   23 type  1   force =     4.76140055   -0.06020679  -24.50330683
     atom   24 type  1   force =     2.11022815   -1.72949049  -31.13102021
     atom   25 type  1   force =     0.02606788   -0.43187067  -31.98033245
     atom   26 type  1   force =    -2.92033914    4.05926423  -28.15526613
     atom   27 type  1   force =    -1.29104724    0.00261208  -20.26637224
     atom   28 type  1   force =     2.24365636   -5.22593886  -26.29152074
     atom   29 type  1   force =    -0.02069714   -1.75475972  -31.80689464
     atom   30 type  1   force =    -1.12644514    0.96696708  -31.87381803
     atom   31 type  1   force =    -4.83524093   -0.32520125  -28.01468309
     atom   32 type  1   force =    -3.16959393   -3.97575256  -28.59492101
     atom   33 type  1   force =     0.05142096    0.12632193   38.80463340
     atom   34 type  1   force =     0.56771663    0.42558564   38.91802130
     atom   35 type  1   force =     0.28768707    0.04309023   38.97219797
     atom   36 type  1   force =    -0.27224806   -0.22175986   38.81517527
     atom   37 type  1   force =     0.01806677    0.48528057   38.92792342
     atom   38 type  1   force =     0.41442871    0.92918760   40.03929017
     atom   39 type  1   force =     0.90760297    0.05657494   40.41032508
     atom   40 type  1   force =     0.52047754   -0.40244888   39.06974026
     atom   41 type  1   force =    -0.05845872   -0.12887258   38.89195968
     atom   42 type  1   force =    -0.63763974    0.71966864   39.93461172
     atom   43 type  1   force =    -0.29252146   -0.05060473   40.89916750
     atom   44 type  1   force =     0.25769562   -0.96899703   40.05332351
     atom   45 type  1   force =    -0.01508691   -0.50169005   38.82686807
     atom   46 type  1   force =    -0.32666455    0.23319288   38.73597520
     atom   47 type  1   force =    -0.87663400    0.02480088   39.66355421
     atom   48 type  1   force =    -0.54909152   -0.76494494   39.80294546
     atom   49 type  3   force =    21.45344360   -3.70596561  -58.81776680
     atom   50 type  3   force =     1.59237874   20.81832538  -58.00551733
     atom   51 type  3   force =   -21.90905332    2.60572946  -61.09402536
     atom   52 type  3   force =    -2.78207595  -21.11725120  -58.73554408
     atom   53 type  3   force =    -7.95175815   -2.04963130  -63.49136053
     atom   54 type  4   force =    -3.54729331    0.15202426  -21.49870655
     atom   55 type  5   force =    11.44577264    2.44839618  -23.36253435
     atom   56 type  6   force =    -0.54300779   -2.59195865   -5.38237933
     atom   57 type  6   force =     2.23379291   -0.15115011   -1.45098945
     atom   58 type  6   force =    -1.31982526    3.10682896   -4.73475088
     The core correction contribution to forces
     atom    1 type  2   force =     0.00025938   -0.00048966   -0.00037483
     atom    2 type  2   force =    -0.00015630    0.00035611   -0.00024266
     atom    3 type  2   force =     0.00079624    0.00078194   -0.00149973
     atom    4 type  2   force =     0.00075048    0.00026048   -0.00095110
     atom    5 type  2   force =     0.00021071   -0.00077841   -0.00060697
     atom    6 type  2   force =    -0.00028692    0.00076846   -0.00009492
     atom    7 type  2   force =     0.00050851   -0.00013716    0.00031853
     atom    8 type  2   force =    -0.00002390    0.00012228   -0.00061757
     atom    9 type  2   force =     0.00000892   -0.00005501   -0.00027225
     atom   10 type  2   force =    -0.00007147   -0.00142624    0.00039535
     atom   11 type  2   force =    -0.00121251    0.00050982    0.00110227
     atom   12 type  2   force =    -0.00068127    0.00050249   -0.00079346
     atom   13 type  2   force =    -0.00018228   -0.00017921   -0.00006121
     atom   14 type  2   force =    -0.00063579   -0.00026345    0.00047251
     atom   15 type  2   force =     0.00047461    0.00032306    0.00113468
     atom   16 type  2   force =     0.00025978   -0.00056011    0.00045768
     atom   17 type  1   force =    -0.00005255   -0.00000719    0.00196469
     atom   18 type  1   force =    -0.00015894   -0.00008392    0.00203949
     atom   19 type  1   force =    -0.00004826   -0.00005478    0.00197248
     atom   20 type  1   force =    -0.00000403    0.00000153    0.00199029
     atom   21 type  1   force =    -0.00003858   -0.00003554    0.00197233
     atom   22 type  1   force =    -0.00009174   -0.00041848   -0.00039993
     atom   23 type  1   force =     0.00004602    0.00006866   -0.00003851
     atom   24 type  1   force =    -0.00006738    0.00004283    0.00198199
     atom   25 type  1   force =     0.00005182    0.00002237    0.00198619
     atom   26 type  1   force =    -0.00002242   -0.00024080    0.00142907
     atom   27 type  1   force =    -0.00045822   -0.00006235    0.00111822
     atom   28 type  1   force =    -0.00030299    0.00038010    0.00020101
     atom   29 type  1   force =    -0.00002107    0.00009982    0.00197922
     atom   30 type  1   force =     0.00007974   -0.00003686    0.00200939
     atom   31 type  1   force =     0.00051941    0.00026179    0.00063691
     atom   32 type  1   force =     0.00016403    0.00019639    0.00123039
     atom   33 type  1   force =     0.00001673   -0.00000371   -0.00193204
     atom   34 type  1   force =    -0.00003146   -0.00005390   -0.00198905
     atom   35 type  1   force =     0.00000253    0.00003606   -0.00193383
     atom   36 type  1   force =     0.00001927    0.00002515   -0.00191729
     atom   37 type  1   force =     0.00000515   -0.00004319   -0.00192638
     atom   38 type  1   force =     0.00001043    0.00001087   -0.00197473
     atom   39 type  1   force =     0.00002949    0.00002674   -0.00198037
     atom   40 type  1   force =    -0.00005831    0.00000915   -0.00192224
     atom   41 type  1   force =    -0.00003623   -0.00001291   -0.00194785
     atom   42 type  1   force =    -0.00002461   -0.00003859   -0.00193356
     atom   43 type  1   force =     0.00000284   -0.00001158   -0.00220882
     atom   44 type  1   force =    -0.00002585    0.00001961   -0.00198780
     atom   45 type  1   force =     0.00001194    0.00001599   -0.00195963
     atom   46 type  1   force =     0.00003337    0.00000919   -0.00196696
     atom   47 type  1   force =     0.00004949    0.00003138   -0.00190586
     atom   48 type  1   force =     0.00002368    0.00000576   -0.00189407
     atom   49 type  3   force =     0.00425021   -0.00133234   -0.00310145
     atom   50 type  3   force =    -0.00144778    0.00369958   -0.00371448
     atom   51 type  3   force =    -0.00463827    0.00092722   -0.00153817
     atom   52 type  3   force =    -0.00175129   -0.00488715   -0.00188257
     atom   53 type  3   force =    -0.00271444   -0.00113947   -0.00358329
     atom   54 type  4   force =     0.01774103    0.00556089   -0.01218052
     atom   55 type  5   force =    -0.01836189   -0.00520785    0.01186933
     atom   56 type  6   force =     0.00000000    0.00000000    0.00000000
     atom   57 type  6   force =     0.00000000    0.00000000    0.00000000
     atom   58 type  6   force =     0.00000000    0.00000000    0.00000000
     The Hubbard contrib.    to forces
     atom    1 type  2   force =     0.00000000    0.00000000    0.00000000
     atom    2 type  2   force =     0.00000000    0.00000000    0.00000000
     atom    3 type  2   force =     0.00000000    0.00000000    0.00000000
     atom    4 type  2   force =     0.00000000    0.00000000    0.00000000
     atom    5 type  2   force =     0.00000000    0.00000000    0.00000000
     atom    6 type  2   force =     0.00000000    0.00000000    0.00000000
     atom    7 type  2   force =     0.00000000    0.00000000    0.00000000
     atom    8 type  2   force =     0.00000000    0.00000000    0.00000000
     atom    9 type  2   force =     0.00000000    0.00000000    0.00000000
     atom   10 type  2   force =     0.00000000    0.00000000    0.00000000
     atom   11 type  2   force =     0.00000000    0.00000000    0.00000000
     atom   12 type  2   force =     0.00000000    0.00000000    0.00000000
     atom   13 type  2   force =     0.00000000    0.00000000    0.00000000
     atom   14 type  2   force =     0.00000000    0.00000000    0.00000000
     atom   15 type  2   force =     0.00000000    0.00000000    0.00000000
     atom   16 type  2   force =     0.00000000    0.00000000    0.00000000
     atom   17 type  1   force =     0.00000000    0.00000000    0.00000000
     atom   18 type  1   force =     0.00000000    0.00000000    0.00000000
     atom   19 type  1   force =     0.00000000    0.00000000    0.00000000
     atom   20 type  1   force =     0.00000000    0.00000000    0.00000000
     atom   21 type  1   force =     0.00000000    0.00000000    0.00000000
     atom   22 type  1   force =     0.00000000    0.00000000    0.00000000
     atom   23 type  1   force =     0.00000000    0.00000000    0.00000000
     atom   24 type  1   force =     0.00000000    0.00000000    0.00000000
     atom   25 type  1   force =     0.00000000    0.00000000    0.00000000
     atom   26 type  1   force =     0.00000000    0.00000000    0.00000000
     atom   27 type  1   force =     0.00000000    0.00000000    0.00000000
     atom   28 type  1   force =     0.00000000    0.00000000    0.00000000
     atom   29 type  1   force =     0.00000000    0.00000000    0.00000000
     atom   30 type  1   force =     0.00000000    0.00000000    0.00000000
     atom   31 type  1   force =     0.00000000    0.00000000    0.00000000
     atom   32 type  1   force =     0.00000000    0.00000000    0.00000000
     atom   33 type  1   force =     0.00000000    0.00000000    0.00000000
     atom   34 type  1   force =     0.00000000    0.00000000    0.00000000
     atom   35 type  1   force =     0.00000000    0.00000000    0.00000000
     atom   36 type  1   force =     0.00000000    0.00000000    0.00000000
     atom   37 type  1   force =     0.00000000    0.00000000    0.00000000
     atom   38 type  1   force =     0.00000000    0.00000000    0.00000000
     atom   39 type  1   force =     0.00000000    0.00000000    0.00000000
     atom   40 type  1   force =     0.00000000    0.00000000    0.00000000
     atom   41 type  1   force =     0.00000000    0.00000000    0.00000000
     atom   42 type  1   force =     0.00000000    0.00000000    0.00000000
     atom   43 type  1   force =     0.00000000    0.00000000    0.00000000
     atom   44 type  1   force =     0.00000000    0.00000000    0.00000000
     atom   45 type  1   force =     0.00000000    0.00000000    0.00000000
     atom   46 type  1   force =     0.00000000    0.00000000    0.00000000
     atom   47 type  1   force =     0.00000000    0.00000000    0.00000000
     atom   48 type  1   force =     0.00000000    0.00000000    0.00000000
     atom   49 type  3   force =     0.00000000    0.00000000    0.00000000
     atom   50 type  3   force =     0.00000000    0.00000000    0.00000000
     atom   51 type  3   force =     0.00000000    0.00000000    0.00000000
     atom   52 type  3   force =     0.00000000    0.00000000    0.00000000
     atom   53 type  3   force =     0.00000000    0.00000000    0.00000000
     atom   54 type  4   force =     0.00000000    0.00000000    0.00000000
     atom   55 type  5   force =     0.00000000    0.00000000    0.00000000
     atom   56 type  6   force =     0.00000000    0.00000000    0.00000000
     atom   57 type  6   force =     0.00000000    0.00000000    0.00000000
     atom   58 type  6   force =     0.00000000    0.00000000    0.00000000
     The SCF correction term to forces
     atom    1 type  2   force =    -0.00000881   -0.00000656    0.00000009
     atom    2 type  2   force =    -0.00000053   -0.00000966   -0.00000011
     atom    3 type  2   force =    -0.00000226    0.00000078    0.00000013
     atom    4 type  2   force =    -0.00001086    0.00000280    0.00000021
     atom    5 type  2   force =    -0.00000153   -0.00000280   -0.00000025
     atom    6 type  2   force =    -0.00000106    0.00000135   -0.00000043
     atom    7 type  2   force =     0.00000739    0.00000306    0.00000000
     atom    8 type  2   force =     0.00000365    0.00000323    0.00000024
     atom    9 type  2   force =     0.00000498   -0.00000268   -0.00000008
     atom   10 type  2   force =     0.00000142    0.00000537   -0.00000059
     atom   11 type  2   force =     0.00000485    0.00000833    0.00000001
     atom   12 type  2   force =     0.00000871    0.00000076    0.00000023
     atom   13 type  2   force =     0.00000460   -0.00000546    0.00000056
     atom   14 type  2   force =     0.00000016   -0.00000533   -0.00000034
     atom   15 type  2   force =    -0.00000926    0.00000657   -0.00000007
     atom   16 type  2   force =    -0.00000167    0.00000137    0.00000027
     atom   17 type  1   force =    -0.00000379   -0.00000181   -0.00000024
     atom   18 type  1   force =    -0.00000309   -0.00000256    0.00000012
     atom   19 type  1   force =     0.00000158   -0.00000239    0.00000228
     atom   20 type  1   force =    -0.00000183    0.00000264    0.00000185
     atom   21 type  1   force =     0.00000156   -0.00000050    0.00000139
     atom   22 type  1   force =     0.00000136    0.00000116    0.00000218
     atom   23 type  1   force =     0.00000239    0.00000296    0.00000151
     atom   24 type  1   force =     0.00000333    0.00000146    0.00000062
     atom   25 type  1   force =     0.00000274   -0.00000138   -0.00000124
     atom   26 type  1   force =    -0.00000014   -0.00000029    0.00000057
     atom   27 type  1   force =    -0.00000096    0.00000265   -0.00000085
     atom   28 type  1   force =     0.00000167    0.00000100   -0.00000239
     atom   29 type  1   force =    -0.00000050   -0.00000165   -0.00000310
     atom   30 type  1   force =     0.00000185   -0.00000312   -0.00000068
     atom   31 type  1   force =    -0.00000297    0.00000011    0.00000217
     atom   32 type  1   force =    -0.00000319    0.00000195   -0.00000196
     atom   33 type  1   force =    -0.00000369   -0.00000173    0.00000067
     atom   34 type  1   force =    -0.00000303   -0.00000252    0.00000038
     atom   35 type  1   force =     0.00000142   -0.00000249   -0.00000191
     atom   36 type  1   force =    -0.00000188    0.00000261   -0.00000153
     atom   37 type  1   force =     0.00000153   -0.00000033   -0.00000112
     atom   38 type  1   force =     0.00000149    0.00000116   -0.00000185
     atom   39 type  1   force =     0.00000248    0.00000270   -0.00000076
     atom   40 type  1   force =     0.00000324    0.00000149   -0.00000007
     atom   41 type  1   force =     0.00000261   -0.00000125    0.00000172
     atom   42 type  1   force =    -0.00000024   -0.00000018   -0.00000037
     atom   43 type  1   force =    -0.00000096    0.00000231    0.00000149
     atom   44 type  1   force =     0.00000164    0.00000085    0.00000339
     atom   45 type  1   force =    -0.00000048   -0.00000158    0.00000372
     atom   46 type  1   force =     0.00000174   -0.00000299    0.00000107
     atom   47 type  1   force =    -0.00000298   -0.00000006   -0.00000198
     atom   48 type  1   force =    -0.00000303    0.00000182    0.00000269
     atom   49 type  3   force =     0.00000183    0.00000171    0.00000344
     atom   50 type  3   force =     0.00000000    0.00000260    0.00000431
     atom   51 type  3   force =    -0.00000272    0.00000164    0.00000340
     atom   52 type  3   force =    -0.00000072    0.00000158    0.00000101
     atom   53 type  3   force =    -0.00000054    0.00000094   -0.00000036
     atom   54 type  4   force =     0.00000026    0.00000030   -0.00000103
     atom   55 type  5   force =     0.00000092    0.00000042   -0.00000089
     atom   56 type  6   force =     0.00000002   -0.00000003   -0.00000020
     atom   57 type  6   force =     0.00000018    0.00000009   -0.00000011
     atom   58 type  6   force =    -0.00000000    0.00000012   -0.00000016

     DFT-D3 dispersion contribution to forces:
     atom    1 type  2   force =     0.00014032    0.00003170    0.00039726
     atom    2 type  2   force =     0.00011260    0.00016976    0.00049313
     atom    3 type  2   force =    -0.00045775   -0.00014015    0.00073664
     atom    4 type  2   force =    -0.00035297   -0.00038083    0.00063736
     atom    5 type  2   force =     0.00018456    0.00071943    0.00098282
     atom    6 type  2   force =     0.00101635    0.00070834    0.00248496
     atom    7 type  2   force =     0.00083703   -0.00018966    0.00138813
     atom    8 type  2   force =     0.00007451   -0.00002446    0.00022410
     atom    9 type  2   force =    -0.00025653    0.00054453    0.00078166
     atom   10 type  2   force =    -0.00005515    0.00100398    0.00259836
     atom   11 type  2   force =     0.00046687   -0.00069245    0.00379143
     atom   12 type  2   force =     0.00046896   -0.00064419    0.00104803
     atom   13 type  2   force =    -0.00004338   -0.00010702    0.00032927
     atom   14 type  2   force =    -0.00088237    0.00050356    0.00164641
     atom   15 type  2   force =    -0.00104027   -0.00052512    0.00341125
     atom   16 type  2   force =    -0.00015261   -0.00106692    0.00182871
     atom   17 type  1   force =     0.00008280    0.00024614   -0.00058047
     atom   18 type  1   force =     0.00080071    0.00058356   -0.00020466
     atom   19 type  1   force =     0.00034071   -0.00000722   -0.00034473
     atom   20 type  1   force =    -0.00035860   -0.00030554   -0.00058910
     atom   21 type  1   force =    -0.00006593    0.00064881   -0.00050853
     atom   22 type  1   force =     0.00016662    0.00115434   -0.00009437
     atom   23 type  1   force =     0.00134311   -0.00001087   -0.00027707
     atom   24 type  1   force =     0.00076529   -0.00060199   -0.00019088
     atom   25 type  1   force =     0.00005611   -0.00016155   -0.00059738
     atom   26 type  1   force =     0.00019351   -0.00024354   -0.00148292
     atom   27 type  1   force =    -0.00090463    0.00042987   -0.00274592
     atom   28 type  1   force =    -0.00021976   -0.00099883   -0.00033721
     atom   29 type  1   force =    -0.00004999   -0.00061177   -0.00054836
     atom   30 type  1   force =    -0.00043461    0.00032398   -0.00054745
     atom   31 type  1   force =    -0.00045834    0.00017237   -0.00112747
     atom   32 type  1   force =     0.00060184   -0.00057233   -0.00103944
     atom   33 type  1   force =     0.00001542    0.00001595    0.00095745
     atom   34 type  1   force =     0.00002742    0.00000324    0.00098754
     atom   35 type  1   force =    -0.00000980    0.00000171    0.00096885
     atom   36 type  1   force =     0.00001032    0.00001019    0.00093951
     atom   37 type  1   force =    -0.00001751   -0.00003640    0.00096604
     atom   38 type  1   force =     0.00000252    0.00001107    0.00119947
     atom   39 type  1   force =     0.00002160   -0.00001393    0.00120935
     atom   40 type  1   force =    -0.00003531    0.00001516    0.00097712
     atom   41 type  1   force =    -0.00000308   -0.00001634    0.00095926
     atom   42 type  1   force =    -0.00000790    0.00003142    0.00112348
     atom   43 type  1   force =     0.00000900    0.00001039    0.00143329
     atom   44 type  1   force =     0.00001667   -0.00002404    0.00118958
     atom   45 type  1   force =     0.00000591   -0.00000586    0.00097139
     atom   46 type  1   force =     0.00000648    0.00001492    0.00096224
     atom   47 type  1   force =    -0.00001251    0.00000469    0.00111202
     atom   48 type  1   force =    -0.00002888   -0.00002272    0.00111743
     atom   49 type  3   force =    -0.00086099    0.00012123   -0.00785499
     atom   50 type  3   force =    -0.00241121   -0.00340110   -0.00548182
     atom   51 type  3   force =     0.00139163    0.00051161   -0.00557150
     atom   52 type  3   force =    -0.00097638    0.00272336   -0.00646869
     atom   53 type  3   force =     0.00117959    0.00018303   -0.00195943
     atom   54 type  4   force =     0.00010499    0.00008448   -0.00074446
     atom   55 type  5   force =    -0.00030471    0.00005733   -0.00098416
     atom   56 type  6   force =     0.00005423    0.00012773    0.00020828
     atom   57 type  6   force =    -0.00021198   -0.00013972    0.00008174
     atom   58 type  6   force =     0.00011547   -0.00022329    0.00013743

     Total force =     0.057167     Total SCF correction =     0.000037

     DFT-D3 dispersion Force =     0.017431


     Computing stress (Cartesian axis) and pressure


     negative rho (up, down):  4.796E-03 5.163E-03
          total   stress  (Ry/bohr**3)                   (kbar)     P=       -1.51
  -0.00001069  -0.00000066   0.00000032           -1.57       -0.10        0.05
  -0.00000066  -0.00001018   0.00000213           -0.10       -1.50        0.31
   0.00000032   0.00000213  -0.00000987            0.05        0.31       -1.45

     kinetic stress (kbar)   7256.39     -1.55     -9.30
                               -1.55   7272.81     -0.39
                               -9.30     -0.39   7301.36

     local   stress (kbar)-135460.33    -65.79    519.73
                              -65.79-134007.19    214.89
                              519.73    214.89 134097.72

     nonloc. stress (kbar)  -1419.15     -0.13      0.31
                               -0.13  -1420.39      0.31
                                0.31      0.31  -1427.24

     hartree stress (kbar)  68217.03     30.07   -249.34
                               30.07  67561.04   -100.79
                             -249.34   -100.79 -63300.31

     exc-cor stress (kbar)   2000.77      0.01     -0.00
                                0.01   2000.35     -0.04
                               -0.00     -0.04   2000.31

     corecor stress (kbar)  -3626.55      0.04      0.05
                                0.04  -3626.82      0.01
                                0.05      0.01  -3627.24

     ewald   stress (kbar)  63034.53     37.24   -261.37
                               37.24  62222.93   -113.68
                             -261.37   -113.68 -75043.49

     hubbard stress (kbar)      0.00      0.00      0.00
                                0.00      0.00      0.00
                                0.00      0.00      0.00

     DFT-D   stress (kbar)     -4.26      0.02     -0.04
                                0.02     -4.22      0.01
                               -0.04      0.01     -2.55

     XDM     stress (kbar)      0.00      0.00      0.00
                                0.00      0.00      0.00
                                0.00      0.00      0.00

     dft-nl  stress (kbar)      0.00      0.00      0.00
                                0.00      0.00      0.00
                                0.00      0.00      0.00

     TS-vdW  stress (kbar)      0.00      0.00      0.00
                                0.00      0.00      0.00
                                0.00      0.00      0.00

     MDB     stress (kbar)      0.00      0.00      0.00
                                0.00      0.00      0.00
                                0.00      0.00      0.00

     3D-RISM stress (kbar)      0.00      0.00      0.00
                                0.00      0.00      0.00
                                0.00      0.00      0.00


     Writing all to output data dir ./Ag-WS2-H2NOH.save/ :
     XML data file, charge density, pseudopotentials, collected wavefunctions

     init_run     :    184.87s CPU    188.79s WALL (       1 calls)
     electrons    :  12814.87s CPU  13073.14s WALL (       1 calls)
     forces       :     47.11s CPU     48.80s WALL (       1 calls)
     force_dftd3  :      0.16s CPU      0.18s WALL (       1 calls)
     stress       :    166.29s CPU    171.34s WALL (       1 calls)
     stres_dftd3  :      0.15s CPU      0.17s WALL (       1 calls)

     Called by init_run:
     wfcinit      :    176.52s CPU    179.79s WALL (       1 calls)
     wfcinit:atom :      0.69s CPU      0.71s WALL (      26 calls)
     wfcinit:wfcr :    172.19s CPU    175.32s WALL (      26 calls)
     potinit      :      2.90s CPU      3.03s WALL (       1 calls)
     hinit0       :      1.58s CPU      1.67s WALL (       1 calls)

     Called by electrons:
     c_bands      :  11050.13s CPU  11255.08s WALL (      35 calls)
     sum_band     :   1640.94s CPU   1681.01s WALL (      35 calls)
     v_of_rho     :     21.01s CPU     22.07s WALL (      35 calls)
     v_h          :      1.00s CPU      1.13s WALL (      35 calls)
     v_xc         :     21.13s CPU     22.12s WALL (      37 calls)
     newd         :     58.32s CPU     69.46s WALL (      35 calls)
     PAW_pot      :     38.98s CPU     39.48s WALL (      35 calls)
     mix_rho      :      5.51s CPU      5.79s WALL (      35 calls)
     energy_dftd3 :      0.06s CPU      0.06s WALL (       1 calls)

     Called by c_bands:
     init_us_2    :    128.65s CPU    132.66s WALL (    1898 calls)
     cegterg      :  10880.95s CPU  11081.64s WALL (     910 calls)

     Called by sum_band:
     sum_band:wei :      0.01s CPU      0.01s WALL (      35 calls)
     sum_band:loo :   1533.28s CPU   1558.76s WALL (      35 calls)
     sum_band:buf :     11.27s CPU     11.56s WALL (     910 calls)
     sum_band:ini :     61.45s CPU     63.25s WALL (     910 calls)
     sum_band:cal :    317.19s CPU    326.14s WALL (     910 calls)
     sum_band:bec :      3.68s CPU      3.76s WALL (     910 calls)
     addusdens    :    103.44s CPU    117.81s WALL (      35 calls)
                                        0.00s GPU  (      35 calls)
     addusd:skk   :      1.56s CPU      1.68s WALL (     210 calls)
                                        0.00s GPU  (     210 calls)

     Called by *egterg:
     cdiaghg      :    577.44s CPU    598.92s WALL (    5983 calls)
     cegterg:over :    594.39s CPU    609.29s WALL (    5099 calls)
     cegterg:upda :    274.27s CPU    279.60s WALL (    5099 calls)
     cegterg:last :    505.58s CPU    514.85s WALL (    1820 calls)
     cdiaghg:chol :     47.67s CPU     48.14s WALL (    5983 calls)
     cdiaghg:inve :      8.03s CPU      8.15s WALL (    5983 calls)
     cdiaghg:para :    164.49s CPU    176.83s WALL (   11966 calls)
     h_psi        :   8187.41s CPU   8318.53s WALL (    6035 calls)
     s_psi        :    704.30s CPU    713.17s WALL (    6035 calls)
     g_psi        :     10.09s CPU     10.46s WALL (    5099 calls)

     Called by h_psi:
     h_psi:calbec :    979.46s CPU   1006.24s WALL (    6035 calls)
     vloc_psi     :   6451.48s CPU   6543.33s WALL (    6035 calls)
     add_vuspsi   :    728.11s CPU    738.39s WALL (    6035 calls)

     General routines
     calbec       :   1450.17s CPU   1490.61s WALL (    7387 calls)
     fft          :     22.73s CPU     24.17s WALL (     915 calls)
     ffts         :      2.15s CPU      2.28s WALL (     140 calls)
     fftw         :   7031.56s CPU   7118.15s WALL ( 1338522 calls)
     interpolate  :      3.34s CPU      3.49s WALL (      70 calls)

     Parallel routines

     PAW routines
     PAW_pot      :     38.98s CPU     39.48s WALL (      35 calls)

     PWSCF        :  13224.30s CPU  13531.33s WALL


   This run was terminated on:  22:17:21  31Jul2026            

=------------------------------------------------------------------------------=
   JOB DONE.
=------------------------------------------------------------------------------=
