
     Program PWSCF v.7.4.1 starts on  1Aug2026 at 23:47:59 

     This program is part of the open-source Quantum ESPRESSO suite
     for quantum simulation of materials; please cite
         "P. Giannozzi et al., J. Phys.:Condens. Matter 21 395502 (2009);
         "P. Giannozzi et al., J. Phys.:Condens. Matter 29 465901 (2017);
         "P. Giannozzi et al., J. Chem. Phys. 152 154105 (2020);
          URL http://www.quantum-espresso.org", 
     in publications or presentations arising from this work. More details at
     http://www.quantum-espresso.org/quote

     Parallel version (MPI & OpenMP), running on      64 processor cores
     Number of MPI processes:                64
     Threads/MPI process:                     1

     MPI processes distributed on     1 nodes
     39368 MiB available memory on the printing compute node when the environment starts

     Reading input from disp_026_atom58_-1x.in

     Current dimensions of program PWSCF are:
     Max number of different atomic species (ntypx) = 10
     Max number of k-points (npk) =  40000
     Max angular momentum in pseudopotentials (lmaxx) =  4
     file S.pbe-n-kjpaw_psl.1.0.0.UPF: wavefunction(s)  3S 3P renormalized
     file W.pbe-spn-kjpaw_psl.1.0.0.UPF: wavefunction(s)  6S 5P 5D renormalized
     file Ag.pbe-n-kjpaw_psl.1.0.0.UPF: wavefunction(s)  5S 5P renormalized
     file N.pbe-n-kjpaw_psl.1.0.0.UPF: wavefunction(s)  2S renormalized
     file O.pbe-n-kjpaw_psl.1.0.0.UPF: wavefunction(s)  2S 2P renormalized
     file H.pbe-kjpaw_psl.1.0.0.UPF: wavefunction(s)  1S renormalized
     Message from routine setup:
     the system is metallic, specify occupations

     R & G space division:  proc/nbgrp/npool/nimage =      64
     Subspace diagonalization in iterative solution of the eigenvalue problem:
     one sub-group per band group will be used
     ELPA distributed-memory algorithm (size of sub-group:  2*  2 procs)


     Parallelization info
     --------------------
     sticks:   dense  smooth     PW     G-vecs:    dense   smooth      PW
     Min         247     123     32                39673    14017    1874
     Max         248     124     33                39680    14030    1885
     Sum       15841    7909   2065              2539249   897387  120111

     Using Slab Decomposition



     bravais-lattice index     =            0
     lattice parameter (alat)  =      23.9624  a.u.
     unit-cell volume          =   18794.0729 (a.u.)^3
     number of atoms/cell      =           58
     number of atomic types    =            6
     number of electrons       =       485.00 (up: 243.00, down: 242.00)
     number of Kohn-Sham states=          243
     kinetic-energy cutoff     =      50.0000  Ry
     charge density cutoff     =     400.0000  Ry
     scf convergence threshold =      1.0E-10
     mixing beta               =       0.4000
     number of iterations used =            8  plain     mixing
     Exchange-correlation= SLA  PW   PBX  PBC
                           (   1   4   3   4   0   0   0)

     celldm(1)=  23.962422  celldm(2)=   0.000000  celldm(3)=   0.000000
     celldm(4)=   0.000000  celldm(5)=   0.000000  celldm(6)=   0.000000

     crystal axes: (cart. coord. in units of alat)
               a(1) = (   1.000000   0.000000   0.000000 )  
               a(2) = (  -0.500000   0.866025   0.000000 )  
               a(3) = (   0.000000   0.000000   1.577241 )  

     reciprocal axes: (cart. coord. in units 2 pi/alat)
               b(1) = (  1.000000  0.577350 -0.000000 )  
               b(2) = (  0.000000  1.154701  0.000000 )  
               b(3) = (  0.000000 -0.000000  0.634018 )  


     PseudoPot. # 1 for S  read from file:
     /share/work_r640/fmigm008/pseudo/S.pbe-n-kjpaw_psl.1.0.0.UPF
     MD5 check sum: fb45dfebcf3e72a4e1bd4a866ec2e262
     Pseudo is Projector augmented-wave + core cor, Zval =  6.0
     Generated using &quot;atomic&quot; code by A. Dal Corso  v.6.3
     Shape of augmentation charge: PSQ
     Using radial grid of 1151 points,  6 beta functions with: 
                l(1) =   0
                l(2) =   0
                l(3) =   1
                l(4) =   1
                l(5) =   2
                l(6) =   2
     Q(r) pseudized with 0 coefficients 


     PseudoPot. # 2 for W  read from file:
     /share/work_r640/fmigm008/pseudo/W.pbe-spn-kjpaw_psl.1.0.0.UPF
     MD5 check sum: 03c3df5b60893f488392c7401945500a
     Pseudo is Projector augmented-wave + core cor, Zval = 14.0
     Generated using &quot;atomic&quot; code by A. Dal Corso  v.6.2.2
     Shape of augmentation charge: PSQ
     Using radial grid of 1273 points,  6 beta functions with: 
                l(1) =   0
                l(2) =   0
                l(3) =   1
                l(4) =   1
                l(5) =   2
                l(6) =   2
     Q(r) pseudized with 0 coefficients 


     PseudoPot. # 3 for Ag read from file:
     /share/work_r640/fmigm008/pseudo/Ag.pbe-n-kjpaw_psl.1.0.0.UPF
     MD5 check sum: 51099775af2a3182a6a1caffb86952a3
     Pseudo is Projector augmented-wave + core cor, Zval = 11.0
     Generated using &quot;atomic&quot; code by A. Dal Corso  v.6.2.2
     Shape of augmentation charge: PSQ
     Using radial grid of 1237 points,  6 beta functions with: 
                l(1) =   0
                l(2) =   0
                l(3) =   1
                l(4) =   1
                l(5) =   2
                l(6) =   2
     Q(r) pseudized with 0 coefficients 


     PseudoPot. # 4 for N  read from file:
     /share/work_r640/fmigm008/pseudo/N.pbe-n-kjpaw_psl.1.0.0.UPF
     MD5 check sum: 14c48229446f9f2d411169a3abcbc3fa
     Pseudo is Projector augmented-wave + core cor, Zval =  5.0
     Generated using &quot;atomic&quot; code by A. Dal Corso  v.6.3
     Shape of augmentation charge: PSQ
     Using radial grid of 1085 points,  4 beta functions with: 
                l(1) =   0
                l(2) =   0
                l(3) =   1
                l(4) =   1
     Q(r) pseudized with 0 coefficients 


     PseudoPot. # 5 for O  read from file:
     /share/work_r640/fmigm008/pseudo/O.pbe-n-kjpaw_psl.1.0.0.UPF
     MD5 check sum: e99d9cef9b487d1ca56f5b95ecd0fd7a
     Pseudo is Projector augmented-wave + core cor, Zval =  6.0
     Generated using &quot;atomic&quot; code by A. Dal Corso  v.6.3
     Shape of augmentation charge: PSQ
     Using radial grid of 1095 points,  4 beta functions with: 
                l(1) =   0
                l(2) =   0
                l(3) =   1
                l(4) =   1
     Q(r) pseudized with 0 coefficients 


     PseudoPot. # 6 for H  read from file:
     /share/work_r640/fmigm008/pseudo/H.pbe-kjpaw_psl.1.0.0.UPF
     MD5 check sum: d81a744832360e4a8af0b0b5b123bc2a
     Pseudo is Projector augmented-wave, Zval =  1.0
     Generated using &quot;atomic&quot; code by A. Dal Corso  v.6.3MaX
     Shape of augmentation charge: PSQ
     Using radial grid of  929 points,  2 beta functions with: 
                l(1) =   0
                l(2) =   0
     Q(r) pseudized with 0 coefficients 


     atomic species   valence    mass     pseudopotential
     S                 6.00    32.06500     S ( 1.00)
     W                14.00   183.84000     W ( 1.00)
     Ag               11.00   107.87000     Ag( 1.00)
     N                 5.00    14.00700     N ( 1.00)
     O                 6.00    15.99900     O ( 1.00)
     H                 1.00     1.00800     H ( 1.00)

     Starting magnetic structure 
     atomic species   magnetization
     S               0.000
     W               0.000
     Ag              0.000
     N               0.000
     O               0.000
     H               0.000

     No symmetry found


                                    s                        frac. trans.

      isym =  1     identity                                     

 cryst.   s( 1) = (     1          0          0      )
                  (     0          1          0      )
                  (     0          0          1      )

 cart.    s( 1) = (  1.0000000  0.0000000  0.0000000 )
                  (  0.0000000  1.0000000  0.0000000 )
                  (  0.0000000  0.0000000  1.0000000 )


   Cartesian axes

     site n.     atom                  positions (alat units)
         1        W      tau(   1) = (  -0.0028587   0.1395947   0.2444812  )
         2        W      tau(   2) = (  -0.1282026   0.3564836   0.2443568  )
         3        W      tau(   3) = (  -0.2537731   0.5727289   0.2442261  )
         4        W      tau(   4) = (  -0.3783723   0.7888166   0.2441498  )
         5        W      tau(   5) = (   0.2469096   0.1395426   0.2440120  )
         6        W      tau(   6) = (   0.1225026   0.3570726   0.2432304  )
         7        W      tau(   7) = (  -0.0034888   0.5727502   0.2429844  )
         8        W      tau(   8) = (  -0.1283671   0.7891505   0.2439766  )
         9        W      tau(   9) = (   0.4969194   0.1397378   0.2430413  )
        10        W      tau(  10) = (   0.3721499   0.3552416   0.2405337  )
        11        W      tau(  11) = (   0.2452295   0.5727639   0.2402480  )
        12        W      tau(  12) = (   0.1220165   0.7890246   0.2436243  )
        13        W      tau(  13) = (   0.7467445   0.1394449   0.2440642  )
        14        W      tau(  14) = (   0.6211264   0.3563823   0.2436826  )
        15        W      tau(  15) = (   0.4971469   0.5732720   0.2421413  )
        16        W      tau(  16) = (   0.3721785   0.7886524   0.2428338  )
        17        S      tau(  17) = (   0.1219502   0.0672380   0.3684592  )
        18        S      tau(  18) = (  -0.0024014   0.2846735   0.3681910  )
        19        S      tau(  19) = (  -0.1281525   0.5008469   0.3682441  )
        20        S      tau(  20) = (  -0.2533258   0.7170167   0.3685687  )
        21        S      tau(  21) = (   0.3722606   0.0676427   0.3679766  )
        22        S      tau(  22) = (   0.2484890   0.2849851   0.3676532  )
        23        S      tau(  23) = (   0.1218721   0.5017515   0.3660861  )
        24        S      tau(  24) = (  -0.0030403   0.7167922   0.3679041  )
        25        S      tau(  25) = (   0.6215745   0.0674060   0.3678624  )
        26        S      tau(  26) = (   0.4959803   0.2843589   0.3667029  )
        27        S      tau(  27) = (   0.3710177   0.5007270   0.3638206  )
        28        S      tau(  28) = (   0.2481984   0.7153351   0.3669892  )
        29        S      tau(  29) = (   0.8717811   0.0668114   0.3679626  )
        30        S      tau(  30) = (   0.7463862   0.2840842   0.3681041  )
        31        S      tau(  31) = (   0.6195449   0.5004430   0.3687043  )
        32        S      tau(  32) = (   0.4956231   0.7159829   0.3681683  )
        33        S      tau(  33) = (   0.1218639   0.0672424   0.1203644  )
        34        S      tau(  34) = (  -0.0031686   0.2839920   0.1203246  )
        35        S      tau(  35) = (  -0.1290559   0.5005458   0.1199474  )
        36        S      tau(  36) = (  -0.2533637   0.7168463   0.1201865  )
        37        S      tau(  37) = (   0.3715067   0.0672515   0.1197328  )
        38        S      tau(  38) = (   0.2459712   0.2831895   0.1185177  )
        39        S      tau(  39) = (   0.1200987   0.4999851   0.1172124  )
        40        S      tau(  40) = (  -0.0034124   0.7174366   0.1195727  )
        41        S      tau(  41) = (   0.6220409   0.0671938   0.1195919  )
        42        S      tau(  42) = (   0.4978914   0.2834015   0.1177695  )
        43        S      tau(  43) = (   0.3720771   0.5008174   0.1169455  )
        44        S      tau(  44) = (   0.2466393   0.7180153   0.1180007  )
        45        S      tau(  45) = (   0.8722199   0.0680125   0.1199081  )
        46        S      tau(  46) = (   0.7469729   0.2840633   0.1202901  )
        47        S      tau(  47) = (   0.6222799   0.5003741   0.1191499  )
        48        S      tau(  48) = (   0.4972527   0.7176301   0.1185580  )
        49        Ag     tau(  49) = (   0.1547683   0.5150674   0.5753024  )
        50        Ag     tau(  50) = (   0.3069329   0.3595674   0.5464056  )
        51        Ag     tau(  51) = (   0.5024756   0.4743393   0.5615070  )
        52        Ag     tau(  52) = (   0.3399570   0.6321033   0.5430870  )
        53        Ag     tau(  53) = (   0.3428646   0.4953663   0.7084671  )
        54        N      tau(  54) = (   0.2596825   0.4648737   0.8674395  )
        55        O      tau(  55) = (   0.1477385   0.4509631   0.8500100  )
        56        H      tau(  56) = (   0.2650389   0.5234661   0.9229976  )
        57        H      tau(  57) = (   0.1408570   0.4629232   0.7729758  )
        58        H      tau(  58) = (   0.2821316   0.3964009   0.9032094  )

     --------------------------------------------
     DFT-D3 Dispersion Correction (3-body terms):
     --------------------------------------------
       Reference C6 values for interpolation: 

         atom   Coordination number   C6
         H          0.912             6.05
         H          0.000            15.18
         N          0.000            50.54
         N          0.994            44.25
         N          2.014            39.35
         N          2.990            31.16
         O          0.000            31.01
         O          0.993            25.63
         O          1.989            20.74
         S          0.000           268.01
         S          0.995           261.99
         S          1.990           251.62
         Ag         0.000           853.49
         Ag         0.968           537.23
         W          0.000          1628.72
         W          1.929          1086.81
         W         10.915           796.19

       Values used:

         atom   Coordination number  R0_AB[au]  C6      C8
         W          9.805            3.766    796.19 128250.55
         W          9.806            3.766    796.19 128250.55
         W          9.854            3.766    796.19 128250.55
         W          9.866            3.766    796.19 128250.55
         W          9.842            3.766    796.19 128250.55
         W          9.851            3.766    796.19 128250.55
         W          9.870            3.766    796.19 128250.55
         W          9.833            3.766    796.19 128250.55
         W          9.854            3.766    796.19 128250.55
         W          9.880            3.766    796.19 128250.55
         W          9.879            3.766    796.19 128250.55
         W          9.846            3.766    796.19 128250.55
         W          9.811            3.766    796.19 128250.55
         W          9.849            3.766    796.19 128250.55
         W          9.870            3.766    796.19 128250.55
         W          9.855            3.766    796.19 128250.55
         S          3.670            3.128    251.62  12327.25
         S          3.672            3.128    251.62  12327.25
         S          3.679            3.128    251.62  12327.25
         S          3.675            3.128    251.62  12327.25
         S          3.690            3.128    251.62  12327.25
         S          4.579            3.128    251.62  12327.25
         S          4.512            3.128    251.62  12327.25
         S          3.693            3.128    251.62  12327.25
         S          3.676            3.128    251.62  12327.25
         S          3.843            3.128    251.62  12327.25
         S          4.976            3.128    251.62  12327.25
         S          4.443            3.128    251.62  12327.25
         S          3.677            3.128    251.62  12327.25
         S          3.672            3.128    251.62  12327.25
         S          4.198            3.128    251.62  12327.25
         S          3.918            3.128    251.62  12327.25
         S          3.700            3.128    251.62  12327.25
         S          3.699            3.128    251.62  12327.25
         S          3.697            3.128    251.62  12327.25
         S          3.697            3.128    251.62  12327.25
         S          3.689            3.128    251.62  12327.25
         S          3.673            3.128    251.62  12327.25
         S          3.669            3.128    251.62  12327.25
         S          3.689            3.128    251.62  12327.25
         S          3.693            3.128    251.62  12327.25
         S          3.672            3.128    251.62  12327.25
         S          3.662            3.128    251.62  12327.25
         S          3.672            3.128    251.62  12327.25
         S          3.693            3.128    251.62  12327.25
         S          3.697            3.128    251.62  12327.25
         S          3.686            3.128    251.62  12327.25
         S          3.680            3.128    251.62  12327.25
         Ag         3.221            3.147    537.23  47741.54
         Ag         3.973            3.147    537.23  47741.54
         Ag         3.317            3.147    537.23  47741.54
         Ag         4.158            3.147    537.23  47741.54
         Ag         4.122            3.147    537.23  47741.54
         N          3.752            2.478     31.16    687.50
         O          2.001            2.345     20.82    420.12
         H          1.005            2.062      6.18     74.66
         H          1.030            2.062      6.16     74.42
         H          1.007            2.062      6.17     74.64

         Molecular C6 ( Ry / a.u.^6 ) =   1190031.32


   Crystallographic axes

     site n.     atom                  positions (cryst. coord.)
         1        W      tau(   1) = (  0.0777364  0.1611901  0.1550056  )
         2        W      tau(   2) = (  0.0776133  0.4116318  0.1549267  )
         3        W      tau(   3) = (  0.0768921  0.6613303  0.1548438  )
         4        W      tau(   4) = (  0.0770512  0.9108469  0.1547955  )
         5        W      tau(   5) = (  0.3274746  0.1611299  0.1547081  )
         6        W      tau(   6) = (  0.3286586  0.4123119  0.1542125  )
         7        W      tau(   7) = (  0.3271886  0.6613549  0.1540566  )
         8        W      tau(   8) = (  0.3272492  0.9112326  0.1546856  )
         9        W      tau(   9) = (  0.5775970  0.1613553  0.1540926  )
        10        W      tau(  10) = (  0.5772488  0.4101977  0.1525028  )
        11        W      tau(  11) = (  0.5759149  0.6613708  0.1523217  )
        12        W      tau(  12) = (  0.5775601  0.9110871  0.1544623  )
        13        W      tau(  13) = (  0.8272530  0.1610171  0.1547412  )
        14        W      tau(  14) = (  0.8268839  0.4115149  0.1544993  )
        15        W      tau(  15) = (  0.8281256  0.6619575  0.1535220  )
        16        W      tau(  16) = (  0.8275072  0.9106573  0.1539611  )
        17        S      tau(  17) = (  0.1607701  0.0776397  0.2336099  )
        18        S      tau(  18) = (  0.1619549  0.3287126  0.2334399  )
        19        S      tau(  19) = (  0.1610116  0.5783281  0.2334735  )
        20        S      tau(  20) = (  0.1606439  0.8279395  0.2336794  )
        21        S      tau(  21) = (  0.4113141  0.0781070  0.2333040  )
        22        S      tau(  22) = (  0.4130252  0.3290725  0.2330989  )
        23        S      tau(  23) = (  0.4115585  0.5793727  0.2321053  )
        24        S      tau(  24) = (  0.4107998  0.8276803  0.2332579  )
        25        S      tau(  25) = (  0.6604913  0.0778337  0.2332315  )
        26        S      tau(  26) = (  0.6601550  0.3283494  0.2324963  )
        27        S      tau(  27) = (  0.6601125  0.5781897  0.2306689  )
        28        S      tau(  28) = (  0.6611973  0.8259978  0.2326779  )
        29        S      tau(  29) = (  0.9103547  0.0771472  0.2332950  )
        30        S      tau(  30) = (  0.9104023  0.3280322  0.2333848  )
        31        S      tau(  31) = (  0.9084758  0.5778618  0.2337653  )
        32        S      tau(  32) = (  0.9089960  0.8267459  0.2334255  )
        33        S      tau(  33) = (  0.1606863  0.0776448  0.0763132  )
        34        S      tau(  34) = (  0.1607942  0.3279257  0.0762880  )
        35        S      tau(  35) = (  0.1599344  0.5779805  0.0760488  )
        36        S      tau(  36) = (  0.1605077  0.8277428  0.0762004  )
        37        S      tau(  37) = (  0.4103343  0.0776554  0.0759128  )
        38        S      tau(  38) = (  0.4094707  0.3269991  0.0751424  )
        39        S      tau(  39) = (  0.4087652  0.5773330  0.0743148  )
        40        S      tau(  40) = (  0.4107999  0.8284245  0.0758113  )
        41        S      tau(  41) = (  0.6608352  0.0775887  0.0758235  )
        42        S      tau(  42) = (  0.6615133  0.3272438  0.0746680  )
        43        S      tau(  43) = (  0.6612241  0.5782941  0.0741456  )
        44        S      tau(  44) = (  0.6611856  0.8290927  0.0748146  )
        45        S      tau(  45) = (  0.9114869  0.0785340  0.0760239  )
        46        S      tau(  46) = (  0.9109769  0.3280081  0.0762661  )
        47        S      tau(  47) = (  0.9111710  0.5777822  0.0755432  )
        48        S      tau(  48) = (  0.9115766  0.8286478  0.0751680  )
        49        Ag     tau(  49) = (  0.4521427  0.5947486  0.3647523  )
        50        Ag     tau(  50) = (  0.5145293  0.4151927  0.3464312  )
        51        Ag     tau(  51) = (  0.7763355  0.5477198  0.3560058  )
        52        Ag     tau(  52) = (  0.7049020  0.7298900  0.3443271  )
        53        Ag     tau(  53) = (  0.6288645  0.5719998  0.4491812  )
        54        N      tau(  54) = (  0.5280775  0.5367899  0.5499726  )
        55        O      tau(  55) = (  0.4081021  0.5207274  0.5389220  )
        56        H      tau(  56) = (  0.5672622  0.6044466  0.5851974  )
        57        H      tau(  57) = (  0.4081259  0.5345377  0.4900809  )
        58        H      tau(  58) = (  0.5109937  0.4577243  0.5726514  )

     number of k points=    13
                       cart. coord. in units 2pi/alat
        k(    1) = (   0.0000000   0.0000000   0.0000000), wk =   0.0400000
        k(    2) = (   0.0000000   0.2309401   0.0000000), wk =   0.0800000
        k(    3) = (   0.0000000   0.4618802   0.0000000), wk =   0.0800000
        k(    4) = (   0.2000000   0.3464102   0.0000000), wk =   0.0800000
        k(    5) = (   0.2000000   0.5773503   0.0000000), wk =   0.0800000
        k(    6) = (  -0.2000000   0.1154701   0.0000000), wk =   0.0800000
        k(    7) = (   0.2000000   0.1154701   0.0000000), wk =   0.0800000
        k(    8) = (  -0.4000000   0.2309401   0.0000000), wk =   0.0800000
        k(    9) = (   0.4000000   0.2309401   0.0000000), wk =   0.0800000
        k(   10) = (  -0.2000000   0.3464102   0.0000000), wk =   0.0800000
        k(   11) = (   0.4000000  -0.0000000   0.0000000), wk =   0.0800000
        k(   12) = (  -0.4000000   0.4618802   0.0000000), wk =   0.0800000
        k(   13) = (   0.6000000   0.1154701   0.0000000), wk =   0.0800000

                       cryst. coord.
        k(    1) = (   0.0000000   0.0000000   0.0000000), wk =   0.0400000
        k(    2) = (   0.0000000   0.2000000   0.0000000), wk =   0.0800000
        k(    3) = (   0.0000000   0.4000000   0.0000000), wk =   0.0800000
        k(    4) = (   0.2000000   0.2000000   0.0000000), wk =   0.0800000
        k(    5) = (   0.2000000   0.4000000   0.0000000), wk =   0.0800000
        k(    6) = (  -0.2000000   0.2000000   0.0000000), wk =   0.0800000
        k(    7) = (   0.2000000   0.0000000   0.0000000), wk =   0.0800000
        k(    8) = (  -0.4000000   0.4000000   0.0000000), wk =   0.0800000
        k(    9) = (   0.4000000   0.0000000   0.0000000), wk =   0.0800000
        k(   10) = (  -0.2000000   0.4000000   0.0000000), wk =   0.0800000
        k(   11) = (   0.4000000  -0.2000000   0.0000000), wk =   0.0800000
        k(   12) = (  -0.4000000   0.6000000   0.0000000), wk =   0.0800000
        k(   13) = (   0.6000000  -0.2000000   0.0000000), wk =   0.0800000

     Dense  grid:  2539249 G-vectors     FFT dimensions: ( 160, 160, 243)

     Smooth grid:   897387 G-vectors     FFT dimensions: ( 108, 108, 180)

     Dynamical RAM for                 wfc:       6.50 MB

     Dynamical RAM for     wfc (w. buffer):     175.50 MB

     Dynamical RAM for           str. fact:       3.63 MB

     Dynamical RAM for           local pot:       0.00 MB

     Dynamical RAM for          nlocal pot:      26.11 MB

     Dynamical RAM for                qrad:       9.63 MB

     Dynamical RAM for          rho,v,vnew:       8.32 MB

     Dynamical RAM for               rhoin:       2.77 MB

     Dynamical RAM for            rho*nmix:      19.38 MB

     Dynamical RAM for           G-vectors:       2.38 MB

     Dynamical RAM for          h,s,v(r/c):       2.70 MB

     Dynamical RAM for          <psi|beta>:       3.62 MB

     Dynamical RAM for                 psi:      13.00 MB

     Dynamical RAM for                hpsi:      13.00 MB

     Dynamical RAM for                spsi:      13.00 MB

     Dynamical RAM for      wfcinit/wfcrot:      14.35 MB

     Dynamical RAM for           addusdens:     132.60 MB

     Dynamical RAM for          addusforce:     170.39 MB

     Dynamical RAM for         addusstress:     122.61 MB

     Estimated static dynamical RAM per process >     237.27 MB

     Estimated max dynamical RAM per process >     427.03 MB

     Estimated total dynamical RAM >      26.69 GB
     Generating pointlists ...
     new r_m :   0.0782 (alat units)  1.8731 (a.u.) for type    1
     new r_m :   0.0782 (alat units)  1.8731 (a.u.) for type    2
     new r_m :   0.0751 (alat units)  1.7989 (a.u.) for type    3
     new r_m :   0.0332 (alat units)  0.7952 (a.u.) for type    4
     new r_m :   0.0323 (alat units)  0.7736 (a.u.) for type    5
     new r_m :   0.0323 (alat units)  0.7736 (a.u.) for type    6

     Initial potential from superposition of free atoms

     starting charge     484.9880, renormalised to     485.0000

     negative rho (up, down):  1.010E-03 1.010E-03
     Starting wfcs are  392 randomized atomic wfcs
     Checking if some PAW data can be deallocated... 
       PAW data deallocated on   32 nodes for type:  1
       PAW data deallocated on   42 nodes for type:  2
       PAW data deallocated on   59 nodes for type:  3
       PAW data deallocated on   63 nodes for type:  4
       PAW data deallocated on   63 nodes for type:  5
       PAW data deallocated on   61 nodes for type:  6

     total cpu time spent up to now is      165.5 secs

     per-process dynamical memory:   308.6 Mb

     Self-consistent Calculation

     iteration #  1     ecut=    50.00 Ry     beta= 0.40
     Davidson diagonalization with overlap

---- Real-time Memory Report at c_bands before calling an iterative solver
           367 MiB given to the printing process from OS
           301 MiB allocation reported by mallinfo(arena+hblkhd)
         23043 MiB available memory on the node where the printing process lives
------------------
     ethr =  1.00E-02,  avg # of iterations =  2.0

     Threshold (ethr) on eigenvalues was too large:
     Diagonalizing with lowered threshold

     Davidson diagonalization with overlap

---- Real-time Memory Report at c_bands before calling an iterative solver
           503 MiB given to the printing process from OS
           335 MiB allocation reported by mallinfo(arena+hblkhd)
         23910 MiB available memory on the node where the printing process lives
------------------
     ethr =  4.34E-04,  avg # of iterations =  4.8

     negative rho (up, down):  1.027E-02 6.712E-03

     total cpu time spent up to now is      833.4 secs

     total energy              =  -16138.22528483 Ry
     estimated scf accuracy    <       2.44219528 Ry

     total magnetization       =     1.00 Bohr mag/cell
     absolute magnetization    =     4.14 Bohr mag/cell

     iteration #  2     ecut=    50.00 Ry     beta= 0.40
     Davidson diagonalization with overlap

---- Real-time Memory Report at c_bands before calling an iterative solver
           504 MiB given to the printing process from OS
           335 MiB allocation reported by mallinfo(arena+hblkhd)
         20815 MiB available memory on the node where the printing process lives
------------------
     ethr =  5.04E-04,  avg # of iterations =  7.5

     negative rho (up, down):  3.214E-02 2.300E-02

     total cpu time spent up to now is     1184.9 secs

     total energy              =  -16138.44645225 Ry
     estimated scf accuracy    <       0.41322683 Ry

     total magnetization       =     1.00 Bohr mag/cell
     absolute magnetization    =     3.05 Bohr mag/cell

     iteration #  3     ecut=    50.00 Ry     beta= 0.40
     Davidson diagonalization with overlap

---- Real-time Memory Report at c_bands before calling an iterative solver
           508 MiB given to the printing process from OS
           336 MiB allocation reported by mallinfo(arena+hblkhd)
         21700 MiB available memory on the node where the printing process lives
------------------
     ethr =  8.52E-05,  avg # of iterations =  8.5

     negative rho (up, down):  3.683E-02 2.753E-02

     total cpu time spent up to now is     1550.0 secs

     total energy              =  -16138.51415464 Ry
     estimated scf accuracy    <       0.22345299 Ry

     total magnetization       =     1.00 Bohr mag/cell
     absolute magnetization    =     2.37 Bohr mag/cell

     iteration #  4     ecut=    50.00 Ry     beta= 0.40
     Davidson diagonalization with overlap

---- Real-time Memory Report at c_bands before calling an iterative solver
           508 MiB given to the printing process from OS
           337 MiB allocation reported by mallinfo(arena+hblkhd)
         18680 MiB available memory on the node where the printing process lives
------------------
     ethr =  4.61E-05,  avg # of iterations =  9.8

     negative rho (up, down):  3.084E-02 2.398E-02

     total cpu time spent up to now is     1884.4 secs

     total energy              =  -16138.54491528 Ry
     estimated scf accuracy    <       0.05166343 Ry

     total magnetization       =     1.00 Bohr mag/cell
     absolute magnetization    =     1.98 Bohr mag/cell

     iteration #  5     ecut=    50.00 Ry     beta= 0.40
     Davidson diagonalization with overlap

---- Real-time Memory Report at c_bands before calling an iterative solver
           517 MiB given to the printing process from OS
           347 MiB allocation reported by mallinfo(arena+hblkhd)
         20255 MiB available memory on the node where the printing process lives
------------------
     ethr =  1.07E-05,  avg # of iterations =  7.2

     negative rho (up, down):  2.115E-02 1.680E-02

     total cpu time spent up to now is     2232.1 secs

     total energy              =  -16138.54999445 Ry
     estimated scf accuracy    <       0.03172984 Ry

     total magnetization       =     1.00 Bohr mag/cell
     absolute magnetization    =     1.71 Bohr mag/cell

     iteration #  6     ecut=    50.00 Ry     beta= 0.40
     Davidson diagonalization with overlap

---- Real-time Memory Report at c_bands before calling an iterative solver
           521 MiB given to the printing process from OS
           349 MiB allocation reported by mallinfo(arena+hblkhd)
         18782 MiB available memory on the node where the printing process lives
------------------
     ethr =  6.54E-06,  avg # of iterations =  7.3

     negative rho (up, down):  1.384E-02 1.143E-02

     total cpu time spent up to now is     2549.2 secs

     total energy              =  -16138.55315896 Ry
     estimated scf accuracy    <       0.01672780 Ry

     total magnetization       =     1.00 Bohr mag/cell
     absolute magnetization    =     1.49 Bohr mag/cell

     iteration #  7     ecut=    50.00 Ry     beta= 0.40
     Davidson diagonalization with overlap

---- Real-time Memory Report at c_bands before calling an iterative solver
           521 MiB given to the printing process from OS
           350 MiB allocation reported by mallinfo(arena+hblkhd)
         15951 MiB available memory on the node where the printing process lives
------------------
     ethr =  3.45E-06,  avg # of iterations =  5.7

     negative rho (up, down):  1.990E-02 2.044E-02

     total cpu time spent up to now is     2851.0 secs

     total energy              =  -16138.55182822 Ry
     estimated scf accuracy    <       0.00832127 Ry

     total magnetization       =     1.00 Bohr mag/cell
     absolute magnetization    =     1.34 Bohr mag/cell

     iteration #  8     ecut=    50.00 Ry     beta= 0.40
     Davidson diagonalization with overlap

---- Real-time Memory Report at c_bands before calling an iterative solver
           521 MiB given to the printing process from OS
           351 MiB allocation reported by mallinfo(arena+hblkhd)
         20378 MiB available memory on the node where the printing process lives
------------------
     ethr =  1.72E-06,  avg # of iterations =  7.7

     negative rho (up, down):  2.094E-02 2.209E-02

     total cpu time spent up to now is     3154.1 secs

     total energy              =  -16138.55147749 Ry
     estimated scf accuracy    <       0.00221258 Ry

     total magnetization       =     1.00 Bohr mag/cell
     absolute magnetization    =     1.22 Bohr mag/cell

     iteration #  9     ecut=    50.00 Ry     beta= 0.40
     Davidson diagonalization with overlap

---- Real-time Memory Report at c_bands before calling an iterative solver
           523 MiB given to the printing process from OS
           353 MiB allocation reported by mallinfo(arena+hblkhd)
         16442 MiB available memory on the node where the printing process lives
------------------
     ethr =  4.56E-07,  avg # of iterations =  7.5

     negative rho (up, down):  1.524E-02 1.618E-02

     total cpu time spent up to now is     3503.9 secs

     total energy              =  -16138.55335843 Ry
     estimated scf accuracy    <       0.00052177 Ry

     total magnetization       =     1.00 Bohr mag/cell
     absolute magnetization    =     1.17 Bohr mag/cell

     iteration # 10     ecut=    50.00 Ry     beta= 0.40
     Davidson diagonalization with overlap

---- Real-time Memory Report at c_bands before calling an iterative solver
           523 MiB given to the printing process from OS
           354 MiB allocation reported by mallinfo(arena+hblkhd)
         18482 MiB available memory on the node where the printing process lives
------------------
     ethr =  1.08E-07,  avg # of iterations =  7.7

     negative rho (up, down):  1.100E-02 1.176E-02

     total cpu time spent up to now is     3861.2 secs

     total energy              =  -16138.55443799 Ry
     estimated scf accuracy    <       0.00016018 Ry

     total magnetization       =     1.00 Bohr mag/cell
     absolute magnetization    =     1.15 Bohr mag/cell

     iteration # 11     ecut=    50.00 Ry     beta= 0.40
     Davidson diagonalization with overlap

---- Real-time Memory Report at c_bands before calling an iterative solver
           525 MiB given to the printing process from OS
           355 MiB allocation reported by mallinfo(arena+hblkhd)
         18336 MiB available memory on the node where the printing process lives
------------------
     ethr =  3.30E-08,  avg # of iterations =  8.0

     negative rho (up, down):  7.864E-03 8.454E-03

     total cpu time spent up to now is     4263.2 secs

     total energy              =  -16138.55505269 Ry
     estimated scf accuracy    <       0.00009012 Ry

     total magnetization       =     1.00 Bohr mag/cell
     absolute magnetization    =     1.14 Bohr mag/cell

     iteration # 12     ecut=    50.00 Ry     beta= 0.40
     Davidson diagonalization with overlap

---- Real-time Memory Report at c_bands before calling an iterative solver
           525 MiB given to the printing process from OS
           355 MiB allocation reported by mallinfo(arena+hblkhd)
         18024 MiB available memory on the node where the printing process lives
------------------
     ethr =  1.86E-08,  avg # of iterations =  6.5

     negative rho (up, down):  6.022E-03 6.484E-03

     total cpu time spent up to now is     4619.7 secs

     total energy              =  -16138.55531378 Ry
     estimated scf accuracy    <       0.00003035 Ry

     total magnetization       =     1.00 Bohr mag/cell
     absolute magnetization    =     1.13 Bohr mag/cell

     iteration # 13     ecut=    50.00 Ry     beta= 0.40
     Davidson diagonalization with overlap

---- Real-time Memory Report at c_bands before calling an iterative solver
           525 MiB given to the printing process from OS
           355 MiB allocation reported by mallinfo(arena+hblkhd)
         17646 MiB available memory on the node where the printing process lives
------------------
     ethr =  6.26E-09,  avg # of iterations =  7.0

     negative rho (up, down):  5.227E-03 5.633E-03

     total cpu time spent up to now is     4979.1 secs

     total energy              =  -16138.55540454 Ry
     estimated scf accuracy    <       0.00001312 Ry

     total magnetization       =     1.00 Bohr mag/cell
     absolute magnetization    =     1.12 Bohr mag/cell

     iteration # 14     ecut=    50.00 Ry     beta= 0.40
     Davidson diagonalization with overlap

---- Real-time Memory Report at c_bands before calling an iterative solver
           525 MiB given to the printing process from OS
           355 MiB allocation reported by mallinfo(arena+hblkhd)
         17449 MiB available memory on the node where the printing process lives
------------------
     ethr =  2.70E-09,  avg # of iterations =  2.4

     negative rho (up, down):  4.900E-03 5.281E-03

     total cpu time spent up to now is     5272.5 secs

     total energy              =  -16138.55544092 Ry
     estimated scf accuracy    <       0.00000909 Ry

     total magnetization       =     1.00 Bohr mag/cell
     absolute magnetization    =     1.12 Bohr mag/cell

     iteration # 15     ecut=    50.00 Ry     beta= 0.40
     Davidson diagonalization with overlap

---- Real-time Memory Report at c_bands before calling an iterative solver
           525 MiB given to the printing process from OS
           355 MiB allocation reported by mallinfo(arena+hblkhd)
         17598 MiB available memory on the node where the printing process lives
------------------
     ethr =  1.88E-09,  avg # of iterations =  2.0

     negative rho (up, down):  4.825E-03 5.203E-03

     total cpu time spent up to now is     5537.5 secs

     total energy              =  -16138.55545020 Ry
     estimated scf accuracy    <       0.00000746 Ry

     total magnetization       =     1.00 Bohr mag/cell
     absolute magnetization    =     1.12 Bohr mag/cell

     iteration # 16     ecut=    50.00 Ry     beta= 0.40
     Davidson diagonalization with overlap

---- Real-time Memory Report at c_bands before calling an iterative solver
           525 MiB given to the printing process from OS
           355 MiB allocation reported by mallinfo(arena+hblkhd)
         17485 MiB available memory on the node where the printing process lives
------------------
     ethr =  1.54E-09,  avg # of iterations =  2.0

     negative rho (up, down):  5.432E-03 5.841E-03

     total cpu time spent up to now is     5796.0 secs

     total energy              =  -16138.55538737 Ry
     estimated scf accuracy    <       0.00000524 Ry

     total magnetization       =     1.00 Bohr mag/cell
     absolute magnetization    =     1.12 Bohr mag/cell

     iteration # 17     ecut=    50.00 Ry     beta= 0.40
     Davidson diagonalization with overlap

---- Real-time Memory Report at c_bands before calling an iterative solver
           525 MiB given to the printing process from OS
           355 MiB allocation reported by mallinfo(arena+hblkhd)
         19562 MiB available memory on the node where the printing process lives
------------------
     ethr =  1.08E-09,  avg # of iterations =  8.2

     negative rho (up, down):  4.981E-03 5.365E-03

     total cpu time spent up to now is     6155.6 secs

     total energy              =  -16138.55543156 Ry
     estimated scf accuracy    <       0.00000645 Ry

     total magnetization       =     1.00 Bohr mag/cell
     absolute magnetization    =     1.12 Bohr mag/cell

     iteration # 18     ecut=    50.00 Ry     beta= 0.40
     Davidson diagonalization with overlap

---- Real-time Memory Report at c_bands before calling an iterative solver
           525 MiB given to the printing process from OS
           355 MiB allocation reported by mallinfo(arena+hblkhd)
         14785 MiB available memory on the node where the printing process lives
------------------
     ethr =  1.08E-09,  avg # of iterations =  8.2

     negative rho (up, down):  4.817E-03 5.187E-03

     total cpu time spent up to now is     6503.9 secs

     total energy              =  -16138.55545116 Ry
     estimated scf accuracy    <       0.00000191 Ry

     total magnetization       =     1.00 Bohr mag/cell
     absolute magnetization    =     1.12 Bohr mag/cell

     iteration # 19     ecut=    50.00 Ry     beta= 0.40
     Davidson diagonalization with overlap

---- Real-time Memory Report at c_bands before calling an iterative solver
           525 MiB given to the printing process from OS
           355 MiB allocation reported by mallinfo(arena+hblkhd)
         16494 MiB available memory on the node where the printing process lives
------------------
     ethr =  3.93E-10,  avg # of iterations =  4.8

     negative rho (up, down):  4.802E-03 5.169E-03

     total cpu time spent up to now is     6840.8 secs

     total energy              =  -16138.55545235 Ry
     estimated scf accuracy    <       0.00000207 Ry

     total magnetization       =     1.00 Bohr mag/cell
     absolute magnetization    =     1.12 Bohr mag/cell

     iteration # 20     ecut=    50.00 Ry     beta= 0.40
     Davidson diagonalization with overlap

---- Real-time Memory Report at c_bands before calling an iterative solver
           525 MiB given to the printing process from OS
           355 MiB allocation reported by mallinfo(arena+hblkhd)
         17929 MiB available memory on the node where the printing process lives
------------------
     ethr =  3.93E-10,  avg # of iterations =  7.3

     negative rho (up, down):  4.807E-03 5.174E-03

     total cpu time spent up to now is     7214.3 secs

     total energy              =  -16138.55545176 Ry
     estimated scf accuracy    <       0.00000108 Ry

     total magnetization       =     1.00 Bohr mag/cell
     absolute magnetization    =     1.12 Bohr mag/cell

     iteration # 21     ecut=    50.00 Ry     beta= 0.40
     Davidson diagonalization with overlap

---- Real-time Memory Report at c_bands before calling an iterative solver
           525 MiB given to the printing process from OS
           355 MiB allocation reported by mallinfo(arena+hblkhd)
         16193 MiB available memory on the node where the printing process lives
------------------
     ethr =  2.23E-10,  avg # of iterations =  3.7

     negative rho (up, down):  4.801E-03 5.169E-03

     total cpu time spent up to now is     7497.1 secs

     total energy              =  -16138.55545249 Ry
     estimated scf accuracy    <       0.00000041 Ry

     total magnetization       =     1.00 Bohr mag/cell
     absolute magnetization    =     1.12 Bohr mag/cell

     iteration # 22     ecut=    50.00 Ry     beta= 0.40
     Davidson diagonalization with overlap

---- Real-time Memory Report at c_bands before calling an iterative solver
           525 MiB given to the printing process from OS
           355 MiB allocation reported by mallinfo(arena+hblkhd)
         16094 MiB available memory on the node where the printing process lives
------------------
     ethr =  8.50E-11,  avg # of iterations =  7.6

     negative rho (up, down):  4.800E-03 5.167E-03

     total cpu time spent up to now is     7856.5 secs

     total energy              =  -16138.55545263 Ry
     estimated scf accuracy    <       0.00000009 Ry

     total magnetization       =     1.00 Bohr mag/cell
     absolute magnetization    =     1.12 Bohr mag/cell

     iteration # 23     ecut=    50.00 Ry     beta= 0.40
     Davidson diagonalization with overlap

---- Real-time Memory Report at c_bands before calling an iterative solver
           525 MiB given to the printing process from OS
           355 MiB allocation reported by mallinfo(arena+hblkhd)
         15459 MiB available memory on the node where the printing process lives
------------------
     ethr =  1.81E-11,  avg # of iterations =  7.5

     negative rho (up, down):  4.798E-03 5.165E-03

     total cpu time spent up to now is     8165.9 secs

     total energy              =  -16138.55545281 Ry
     estimated scf accuracy    <       0.00000002 Ry

     total magnetization       =     1.00 Bohr mag/cell
     absolute magnetization    =     1.12 Bohr mag/cell

     iteration # 24     ecut=    50.00 Ry     beta= 0.40
     Davidson diagonalization with overlap

---- Real-time Memory Report at c_bands before calling an iterative solver
           525 MiB given to the printing process from OS
           355 MiB allocation reported by mallinfo(arena+hblkhd)
         18041 MiB available memory on the node where the printing process lives
------------------
     ethr =  3.56E-12,  avg # of iterations =  7.0

     negative rho (up, down):  4.797E-03 5.165E-03

     total cpu time spent up to now is     8562.7 secs

     total energy              =  -16138.55545284 Ry
     estimated scf accuracy    <       0.00000001 Ry

     total magnetization       =     1.00 Bohr mag/cell
     absolute magnetization    =     1.12 Bohr mag/cell

     iteration # 25     ecut=    50.00 Ry     beta= 0.40
     Davidson diagonalization with overlap

---- Real-time Memory Report at c_bands before calling an iterative solver
           525 MiB given to the printing process from OS
           355 MiB allocation reported by mallinfo(arena+hblkhd)
         19653 MiB available memory on the node where the printing process lives
------------------
     ethr =  2.15E-12,  avg # of iterations =  6.7

     negative rho (up, down):  4.797E-03 5.165E-03

     total cpu time spent up to now is     8870.0 secs

     total energy              =  -16138.55545287 Ry
     estimated scf accuracy    <          2.6E-09 Ry

     total magnetization       =     1.00 Bohr mag/cell
     absolute magnetization    =     1.12 Bohr mag/cell

     iteration # 26     ecut=    50.00 Ry     beta= 0.40
     Davidson diagonalization with overlap

---- Real-time Memory Report at c_bands before calling an iterative solver
           531 MiB given to the printing process from OS
           355 MiB allocation reported by mallinfo(arena+hblkhd)
         14957 MiB available memory on the node where the printing process lives
------------------
     ethr =  5.41E-13,  avg # of iterations =  6.8

     negative rho (up, down):  4.797E-03 5.164E-03

     total cpu time spent up to now is     9240.2 secs

     total energy              =  -16138.55545288 Ry
     estimated scf accuracy    <          1.2E-09 Ry

     total magnetization       =     1.00 Bohr mag/cell
     absolute magnetization    =     1.12 Bohr mag/cell

     iteration # 27     ecut=    50.00 Ry     beta= 0.40
     Davidson diagonalization with overlap

---- Real-time Memory Report at c_bands before calling an iterative solver
           531 MiB given to the printing process from OS
           355 MiB allocation reported by mallinfo(arena+hblkhd)
         19267 MiB available memory on the node where the printing process lives
------------------
     ethr =  2.58E-13,  avg # of iterations =  4.4

     negative rho (up, down):  4.797E-03 5.164E-03

     total cpu time spent up to now is     9533.4 secs

     total energy              =  -16138.55545288 Ry
     estimated scf accuracy    <          6.9E-10 Ry

     total magnetization       =     1.00 Bohr mag/cell
     absolute magnetization    =     1.12 Bohr mag/cell

     iteration # 28     ecut=    50.00 Ry     beta= 0.40
     Davidson diagonalization with overlap

---- Real-time Memory Report at c_bands before calling an iterative solver
           531 MiB given to the printing process from OS
           355 MiB allocation reported by mallinfo(arena+hblkhd)
         14982 MiB available memory on the node where the printing process lives
------------------
     ethr =  1.42E-13,  avg # of iterations =  6.7

     negative rho (up, down):  4.796E-03 5.164E-03

     total cpu time spent up to now is     9889.7 secs

     total energy              =  -16138.55545289 Ry
     estimated scf accuracy    <          1.4E-10 Ry

     total magnetization       =     1.00 Bohr mag/cell
     absolute magnetization    =     1.12 Bohr mag/cell

     iteration # 29     ecut=    50.00 Ry     beta= 0.40
     Davidson diagonalization with overlap

---- Real-time Memory Report at c_bands before calling an iterative solver
           531 MiB given to the printing process from OS
           355 MiB allocation reported by mallinfo(arena+hblkhd)
         15075 MiB available memory on the node where the printing process lives
------------------
     ethr =  1.00E-13,  avg # of iterations =  4.4

     negative rho (up, down):  4.796E-03 5.164E-03

     Magnetic moment per site  (integrated on atomic sphere of radius R)
     atom   1 (R=0.078)  charge= 10.3731  magn=  0.0015
     atom   2 (R=0.078)  charge= 10.3731  magn=  0.0080
     atom   3 (R=0.078)  charge= 10.3740  magn= -0.0007
     atom   4 (R=0.078)  charge= 10.3743  magn=  0.0147
     atom   5 (R=0.078)  charge= 10.3763  magn=  0.0111
     atom   6 (R=0.078)  charge= 10.3757  magn=  0.0063
     atom   7 (R=0.078)  charge= 10.3783  magn=  0.0052
     atom   8 (R=0.078)  charge= 10.3749  magn=  0.0108
     atom   9 (R=0.078)  charge= 10.3753  magn=  0.0033
     atom  10 (R=0.078)  charge= 10.3820  magn=  0.0364
     atom  11 (R=0.078)  charge= 10.3836  magn=  0.0167
     atom  12 (R=0.078)  charge= 10.3743  magn=  0.0164
     atom  13 (R=0.078)  charge= 10.3732  magn=  0.0029
     atom  14 (R=0.078)  charge= 10.3740  magn= -0.0006
     atom  15 (R=0.078)  charge= 10.3816  magn=  0.0171
     atom  16 (R=0.078)  charge= 10.3760  magn=  0.0042
     atom  17 (R=0.078)  charge=  4.1591  magn=  0.0027
     atom  18 (R=0.078)  charge=  4.1558  magn=  0.0017
     atom  19 (R=0.078)  charge=  4.1586  magn= -0.0000
     atom  20 (R=0.078)  charge=  4.1590  magn=  0.0027
     atom  21 (R=0.078)  charge=  4.1594  magn=  0.0025
     atom  22 (R=0.078)  charge=  4.1750  magn=  0.0122
     atom  23 (R=0.078)  charge=  4.1787  magn=  0.0050
     atom  24 (R=0.078)  charge=  4.1586  magn=  0.0036
     atom  25 (R=0.078)  charge=  4.1591  magn=  0.0022
     atom  26 (R=0.078)  charge=  4.1626  magn=  0.0026
     atom  27 (R=0.078)  charge=  4.1805  magn=  0.0068
     atom  28 (R=0.078)  charge=  4.1668  magn=  0.0125
     atom  29 (R=0.078)  charge=  4.1578  magn=  0.0030
     atom  30 (R=0.078)  charge=  4.1574  magn=  0.0007
     atom  31 (R=0.078)  charge=  4.1566  magn=  0.0017
     atom  32 (R=0.078)  charge=  4.1575  magn=  0.0062
     atom  33 (R=0.078)  charge=  4.1610  magn=  0.0008
     atom  34 (R=0.078)  charge=  4.1591  magn=  0.0009
     atom  35 (R=0.078)  charge=  4.1606  magn= -0.0002
     atom  36 (R=0.078)  charge=  4.1609  magn=  0.0001
     atom  37 (R=0.078)  charge=  4.1601  magn=  0.0005
     atom  38 (R=0.078)  charge=  4.1589  magn=  0.0036
     atom  39 (R=0.078)  charge=  4.1568  magn=  0.0010
     atom  40 (R=0.078)  charge=  4.1595  magn= -0.0001
     atom  41 (R=0.078)  charge=  4.1602  magn=  0.0005
     atom  42 (R=0.078)  charge=  4.1579  magn=  0.0018
     atom  43 (R=0.078)  charge=  4.1526  magn=  0.0025
     atom  44 (R=0.078)  charge=  4.1584  magn=  0.0032
     atom  45 (R=0.078)  charge=  4.1594  magn=  0.0015
     atom  46 (R=0.078)  charge=  4.1597  magn=  0.0002
     atom  47 (R=0.078)  charge=  4.1603  magn=  0.0006
     atom  48 (R=0.078)  charge=  4.1598  magn=  0.0022
     atom  49 (R=0.075)  charge=  8.3762  magn=  0.0118
     atom  50 (R=0.075)  charge=  8.3724  magn=  0.0310
     atom  51 (R=0.075)  charge=  8.3760  magn=  0.0134
     atom  52 (R=0.075)  charge=  8.3726  magn=  0.0330
     atom  53 (R=0.075)  charge=  8.3617  magn=  0.0186
     atom  54 (R=0.033)  charge=  1.3089  magn= -0.0002
     atom  55 (R=0.032)  charge=  2.0233  magn=  0.0004
     atom  56 (R=0.032)  charge=  0.4174  magn=  0.0002
     atom  57 (R=0.032)  charge=  0.4030  magn=  0.0001
     atom  58 (R=0.032)  charge=  0.4226  magn=  0.0001

     total cpu time spent up to now is    10176.4 secs

     End of self-consistent calculation

 ------ SPIN UP ------------


          k = 0.0000 0.0000 0.0000 (112117 PWs)   bands (ev):

   -73.8172 -73.8138 -73.8108 -73.8083 -73.8063 -73.8054 -73.8028 -73.8008
   -73.7960 -73.7941 -73.7913 -73.7892 -73.7874 -73.7547 -73.7499 -73.7404
   -38.2252 -38.2202 -38.2190 -38.1642 -38.1633 -38.1585 -38.1580 -38.1517
   -38.1438 -38.0601 -38.0572 -38.0546 -38.0539 -38.0488 -38.0468 -38.0449
   -38.0315 -38.0297 -38.0272 -38.0266 -38.0227 -38.0221 -38.0198 -38.0177
   -38.0171 -38.0142 -38.0126 -38.0047 -37.9959 -37.9929 -37.9916 -37.9886
   -37.9869 -37.9828 -37.9690 -37.9589 -37.9575 -37.9547 -37.9521 -37.9467
   -37.9255 -37.9187 -37.9142 -37.9136 -37.9098 -37.9048 -37.8706 -37.8673
   -21.5174 -15.4349 -14.5992 -13.7126 -13.6994 -13.6753 -13.6448 -13.6317
   -13.6214 -12.9838 -12.7142 -12.6786 -12.6562 -12.6404 -12.6040 -12.5822
   -12.5407 -12.5080 -12.4740 -12.4576 -12.4464 -12.4444 -12.4230 -12.4218
   -12.4169 -12.2245 -12.2025 -12.1912 -12.1755 -12.1585 -12.1546 -12.1509
   -12.1478 -12.1452  -7.9529  -7.5477  -6.3441  -6.3285  -6.3104  -6.2857
    -6.1678  -5.6164  -5.5750  -5.5530  -5.5347  -5.5295  -5.4958  -5.4472
    -5.4164  -5.3937  -5.3159  -5.2859  -5.2638  -5.1080  -5.0958  -5.0666
    -5.0616  -5.0571  -5.0560  -5.0015  -5.0001  -4.9911  -4.5266  -4.4437
    -4.4044  -4.3495  -4.2964  -4.2865  -4.2705  -4.2495  -4.2352  -4.1851
    -4.0830  -4.0131  -3.9811  -3.9650  -3.9389  -3.7980  -3.7629  -3.7610
    -3.7062  -3.6806  -3.6771  -3.6179  -3.5179  -3.4769  -3.4099  -3.4055
    -3.3761  -3.3685  -3.3022  -3.2282  -3.1996  -3.1856  -3.1669  -3.1457
    -3.1362  -3.1282  -3.1140  -3.1106  -3.0661  -2.9642  -2.8248  -2.7744
    -2.7258  -2.6807  -2.6516  -2.5944  -2.5860  -2.5270  -2.5169  -2.4685
    -2.4637  -2.4370  -2.4355  -2.4298  -2.4037  -2.3459  -2.2962  -2.2127
    -2.1356  -2.0886  -1.9832  -1.9801  -1.9576  -1.9356  -1.8727  -1.8401
    -1.8179  -1.7857  -1.7715  -1.7679  -1.7544  -1.7543  -1.7458  -1.7407
    -1.7403  -1.7119  -1.6992  -1.6696  -1.6626  -1.6481  -1.6385  -1.6126
    -1.5847  -1.5345  -1.5263  -1.5087  -1.4558  -1.4208  -1.3760  -1.3595
    -1.3138  -1.2784  -1.2084  -1.1008  -1.0621  -1.0323  -1.0169  -0.9984
    -0.7320  -0.6960  -0.6917  -0.6894  -0.6802  -0.6763  -0.6511  -0.6480
    -0.6319  -0.3989  -0.3904  -0.3789  -0.3638  -0.3514  -0.3432  -0.3259
     0.1951   1.2539   1.5337

     occupation numbers 
     1.0000   1.0000   1.0000   1.0000   1.0000   1.0000   1.0000   1.0000
     1.0000   1.0000   1.0000   1.0000   1.0000   1.0000   1.0000   1.0000
     1.0000   1.0000   1.0000   1.0000   1.0000   1.0000   1.0000   1.0000
     1.0000   1.0000   1.0000   1.0000   1.0000   1.0000   1.0000   1.0000
     1.0000   1.0000   1.0000   1.0000   1.0000   1.0000   1.0000   1.0000
     1.0000   1.0000   1.0000   1.0000   1.0000   1.0000   1.0000   1.0000
     1.0000   1.0000   1.0000   1.0000   1.0000   1.0000   1.0000   1.0000
     1.0000   1.0000   1.0000   1.0000   1.0000   1.0000   1.0000   1.0000
     1.0000   1.0000   1.0000   1.0000   1.0000   1.0000   1.0000   1.0000
     1.0000   1.0000   1.0000   1.0000   1.0000   1.0000   1.0000   1.0000
     1.0000   1.0000   1.0000   1.0000   1.0000   1.0000   1.0000   1.0000
     1.0000   1.0000   1.0000   1.0000   1.0000   1.0000   1.0000   1.0000
     1.0000   1.0000   1.0000   1.0000   1.0000   1.0000   1.0000   1.0000
     1.0000   1.0000   1.0000   1.0000   1.0000   1.0000   1.0000   1.0000
     1.0000   1.0000   1.0000   1.0000   1.0000   1.0000   1.0000   1.0000
     1.0000   1.0000   1.0000   1.0000   1.0000   1.0000   1.0000   1.0000
     1.0000   1.0000   1.0000   1.0000   1.0000   1.0000   1.0000   1.0000
     1.0000   1.0000   1.0000   1.0000   1.0000   1.0000   1.0000   1.0000
     1.0000   1.0000   1.0000   1.0000   1.0000   1.0000   1.0000   1.0000
     1.0000   1.0000   1.0000   1.0000   1.0000   1.0000   1.0000   1.0000
     1.0000   1.0000   1.0000   1.0000   1.0000   1.0000   1.0000   1.0000
     1.0000   1.0000   1.0000   1.0000   1.0000   1.0000   1.0000   1.0000
     1.0000   1.0000   1.0000   1.0000   1.0000   1.0000   1.0000   1.0000
     1.0000   1.0000   1.0000   1.0000   1.0000   1.0000   1.0000   1.0000
     1.0000   1.0000   1.0000   1.0000   1.0000   1.0000   1.0000   1.0000
     1.0000   1.0000   1.0000   1.0000   1.0000   1.0000   1.0000   1.0000
     1.0000   1.0000   1.0000   1.0000   1.0000   1.0000   1.0000   1.0000
     1.0000   1.0000   1.0000   1.0000   1.0000   1.0000   1.0000   1.0000
     1.0000   1.0000   1.0000   1.0000   1.0000   1.0000   1.0000   1.0000
     1.0000   1.0000   1.0000   1.0000   1.0000   1.0000   1.0000   1.0000
     1.0000   1.0000   1.0000

          k = 0.0000 0.2309 0.0000 (112171 PWs)   bands (ev):

   -73.8171 -73.8140 -73.8108 -73.8085 -73.8061 -73.8054 -73.8028 -73.8008
   -73.7961 -73.7941 -73.7912 -73.7893 -73.7874 -73.7547 -73.7499 -73.7404
   -38.2199 -38.2149 -38.2128 -38.1706 -38.1660 -38.1626 -38.1557 -38.1482
   -38.1412 -38.1039 -38.0792 -38.0770 -38.0531 -38.0494 -38.0459 -38.0330
   -38.0296 -38.0268 -38.0245 -38.0218 -38.0187 -38.0165 -38.0137 -38.0118
   -38.0047 -37.9994 -37.9976 -37.9962 -37.9943 -37.9924 -37.9889 -37.9875
   -37.9860 -37.9827 -37.9693 -37.9622 -37.9600 -37.9551 -37.9521 -37.9468
   -37.9328 -37.9232 -37.9222 -37.9117 -37.9086 -37.9012 -37.8780 -37.8688
   -21.5174 -15.4350 -14.5576 -13.9780 -13.8032 -13.7861 -13.4951 -13.4621
   -13.3254 -12.9678 -12.8077 -12.7361 -12.6983 -12.6883 -12.6558 -12.5884
   -12.5558 -12.5438 -12.4951 -12.4775 -12.4578 -12.4380 -12.4242 -12.3177
   -12.2858 -12.2640 -12.2448 -12.2149 -12.1861 -12.1752 -12.1688 -12.1533
   -12.0960 -12.0808  -7.9529  -7.5477  -6.2826  -6.2712  -6.2395  -6.2375
    -6.1659  -5.6718  -5.6485  -5.6313  -5.5608  -5.5197  -5.4904  -5.4723
    -5.4313  -5.4192  -5.3971  -5.3222  -5.3179  -5.2886  -5.2714  -5.0745
    -5.0674  -5.0192  -5.0033  -4.9574  -4.7406  -4.7354  -4.5929  -4.4865
    -4.4551  -4.3873  -4.3242  -4.2900  -4.2113  -4.1624  -4.1481  -4.1217
    -4.1010  -4.0641  -4.0448  -4.0025  -3.9863  -3.9140  -3.9109  -3.9023
    -3.6772  -3.5774  -3.5444  -3.5107  -3.4706  -3.4454  -3.4399  -3.3853
    -3.3654  -3.3172  -3.2989  -3.2822  -3.2774  -3.2107  -3.1962  -3.1507
    -3.1059  -2.9987  -2.9669  -2.9360  -2.8611  -2.7972  -2.7781  -2.7504
    -2.7262  -2.7196  -2.7008  -2.6883  -2.6602  -2.6375  -2.6120  -2.5462
    -2.5251  -2.5075  -2.4792  -2.4454  -2.3656  -2.3177  -2.2068  -2.1661
    -2.1265  -2.0896  -2.0199  -2.0057  -1.9868  -1.9705  -1.9391  -1.9124
    -1.8929  -1.8652  -1.8546  -1.8201  -1.7933  -1.7657  -1.7480  -1.7343
    -1.7218  -1.7050  -1.6905  -1.6682  -1.6522  -1.6111  -1.5874  -1.5542
    -1.5380  -1.4968  -1.4861  -1.4632  -1.4352  -1.3743  -1.3386  -1.3287
    -1.2985  -1.2830  -1.2486  -1.2276  -1.1706  -1.0738  -1.0505  -1.0297
    -0.8987  -0.7818  -0.7639  -0.7514  -0.5745  -0.5662  -0.5544  -0.5360
    -0.5230  -0.5131  -0.4147  -0.3787  -0.3672  -0.2688  -0.1719  -0.1470
     0.1761   1.2604   1.5651

     occupation numbers 
     1.0000   1.0000   1.0000   1.0000   1.0000   1.0000   1.0000   1.0000
     1.0000   1.0000   1.0000   1.0000   1.0000   1.0000   1.0000   1.0000
     1.0000   1.0000   1.0000   1.0000   1.0000   1.0000   1.0000   1.0000
     1.0000   1.0000   1.0000   1.0000   1.0000   1.0000   1.0000   1.0000
     1.0000   1.0000   1.0000   1.0000   1.0000   1.0000   1.0000   1.0000
     1.0000   1.0000   1.0000   1.0000   1.0000   1.0000   1.0000   1.0000
     1.0000   1.0000   1.0000   1.0000   1.0000   1.0000   1.0000   1.0000
     1.0000   1.0000   1.0000   1.0000   1.0000   1.0000   1.0000   1.0000
     1.0000   1.0000   1.0000   1.0000   1.0000   1.0000   1.0000   1.0000
     1.0000   1.0000   1.0000   1.0000   1.0000   1.0000   1.0000   1.0000
     1.0000   1.0000   1.0000   1.0000   1.0000   1.0000   1.0000   1.0000
     1.0000   1.0000   1.0000   1.0000   1.0000   1.0000   1.0000   1.0000
     1.0000   1.0000   1.0000   1.0000   1.0000   1.0000   1.0000   1.0000
     1.0000   1.0000   1.0000   1.0000   1.0000   1.0000   1.0000   1.0000
     1.0000   1.0000   1.0000   1.0000   1.0000   1.0000   1.0000   1.0000
     1.0000   1.0000   1.0000   1.0000   1.0000   1.0000   1.0000   1.0000
     1.0000   1.0000   1.0000   1.0000   1.0000   1.0000   1.0000   1.0000
     1.0000   1.0000   1.0000   1.0000   1.0000   1.0000   1.0000   1.0000
     1.0000   1.0000   1.0000   1.0000   1.0000   1.0000   1.0000   1.0000
     1.0000   1.0000   1.0000   1.0000   1.0000   1.0000   1.0000   1.0000
     1.0000   1.0000   1.0000   1.0000   1.0000   1.0000   1.0000   1.0000
     1.0000   1.0000   1.0000   1.0000   1.0000   1.0000   1.0000   1.0000
     1.0000   1.0000   1.0000   1.0000   1.0000   1.0000   1.0000   1.0000
     1.0000   1.0000   1.0000   1.0000   1.0000   1.0000   1.0000   1.0000
     1.0000   1.0000   1.0000   1.0000   1.0000   1.0000   1.0000   1.0000
     1.0000   1.0000   1.0000   1.0000   1.0000   1.0000   1.0000   1.0000
     1.0000   1.0000   1.0000   1.0000   1.0000   1.0000   1.0000   1.0000
     1.0000   1.0000   1.0000   1.0000   1.0000   1.0000   1.0000   1.0000
     1.0000   1.0000   1.0000   1.0000   1.0000   1.0000   1.0000   1.0000
     1.0000   1.0000   1.0000   1.0000   1.0000   1.0000   1.0000   1.0000
     1.0000   1.0000   1.0000

          k = 0.0000 0.4619 0.0000 (112236 PWs)   bands (ev):

   -73.8168 -73.8144 -73.8109 -73.8086 -73.8058 -73.8053 -73.8028 -73.8007
   -73.7963 -73.7941 -73.7910 -73.7895 -73.7874 -73.7547 -73.7499 -73.7404
   -38.2067 -38.2042 -38.1907 -38.1882 -38.1762 -38.1665 -38.1602 -38.1473
   -38.1313 -38.1265 -38.1058 -38.1014 -38.0641 -38.0588 -38.0476 -38.0387
   -38.0316 -38.0208 -38.0172 -38.0129 -38.0096 -38.0069 -38.0032 -38.0009
   -37.9989 -37.9976 -37.9971 -37.9914 -37.9887 -37.9858 -37.9826 -37.9790
   -37.9739 -37.9704 -37.9671 -37.9657 -37.9534 -37.9517 -37.9497 -37.9480
   -37.9433 -37.9366 -37.9319 -37.9162 -37.9114 -37.8954 -37.8938 -37.8717
   -21.5174 -15.4350 -14.4360 -14.2346 -13.8730 -13.8542 -13.2661 -13.2308
   -13.0211 -13.0002 -12.9710 -12.9182 -12.8337 -12.7317 -12.7053 -12.6896
   -12.5224 -12.5152 -12.4637 -12.4505 -12.4375 -12.4253 -12.3831 -12.3698
   -12.3512 -12.2848 -12.2171 -12.2024 -12.1779 -12.1596 -12.1577 -12.1533
   -12.0568 -12.0400  -7.9529  -7.5477  -6.1793  -6.1276  -6.1147  -6.0926
    -6.0281  -5.8741  -5.8618  -5.8393  -5.7155  -5.5356  -5.5010  -5.4895
    -5.4614  -5.4469  -5.4385  -5.3947  -5.3750  -5.3273  -5.3027  -5.0678
    -5.0645  -5.0317  -5.0102  -4.8120  -4.6336  -4.5306  -4.4879  -4.4416
    -4.3955  -4.3766  -4.3505  -4.3148  -4.2464  -4.2332  -4.1928  -4.1618
    -4.1308  -4.1201  -4.1042  -4.0780  -4.0666  -4.0532  -4.0437  -3.7003
    -3.5773  -3.5127  -3.4837  -3.4452  -3.4226  -3.3936  -3.3721  -3.3121
    -3.2986  -3.2835  -3.2643  -3.2417  -3.2225  -3.1904  -3.1655  -3.1090
    -3.0688  -3.0625  -3.0117  -2.9735  -2.9552  -2.9173  -2.8661  -2.7794
    -2.7543  -2.7102  -2.6701  -2.6411  -2.6129  -2.5749  -2.5437  -2.4991
    -2.4533  -2.4341  -2.3994  -2.3209  -2.2814  -2.2567  -2.2436  -2.1886
    -2.1294  -2.1006  -2.0478  -2.0217  -2.0121  -2.0018  -1.9849  -1.9562
    -1.9344  -1.9104  -1.8818  -1.8752  -1.8575  -1.8453  -1.8408  -1.8289
    -1.7757  -1.7668  -1.7250  -1.7173  -1.6976  -1.6716  -1.6352  -1.6221
    -1.5955  -1.5564  -1.5353  -1.5063  -1.4364  -1.3919  -1.3035  -1.2912
    -1.2384  -1.2051  -1.1930  -1.1526  -1.1223  -1.0998  -1.0507  -1.0127
    -0.9794  -0.8964  -0.7352  -0.7241  -0.6426  -0.6264  -0.4972  -0.4588
    -0.4452  -0.4349  -0.3994  -0.3820  -0.3157  -0.0959   0.0005   0.0236
     0.1264   1.2701   1.6176

     occupation numbers 
     1.0000   1.0000   1.0000   1.0000   1.0000   1.0000   1.0000   1.0000
     1.0000   1.0000   1.0000   1.0000   1.0000   1.0000   1.0000   1.0000
     1.0000   1.0000   1.0000   1.0000   1.0000   1.0000   1.0000   1.0000
     1.0000   1.0000   1.0000   1.0000   1.0000   1.0000   1.0000   1.0000
     1.0000   1.0000   1.0000   1.0000   1.0000   1.0000   1.0000   1.0000
     1.0000   1.0000   1.0000   1.0000   1.0000   1.0000   1.0000   1.0000
     1.0000   1.0000   1.0000   1.0000   1.0000   1.0000   1.0000   1.0000
     1.0000   1.0000   1.0000   1.0000   1.0000   1.0000   1.0000   1.0000
     1.0000   1.0000   1.0000   1.0000   1.0000   1.0000   1.0000   1.0000
     1.0000   1.0000   1.0000   1.0000   1.0000   1.0000   1.0000   1.0000
     1.0000   1.0000   1.0000   1.0000   1.0000   1.0000   1.0000   1.0000
     1.0000   1.0000   1.0000   1.0000   1.0000   1.0000   1.0000   1.0000
     1.0000   1.0000   1.0000   1.0000   1.0000   1.0000   1.0000   1.0000
     1.0000   1.0000   1.0000   1.0000   1.0000   1.0000   1.0000   1.0000
     1.0000   1.0000   1.0000   1.0000   1.0000   1.0000   1.0000   1.0000
     1.0000   1.0000   1.0000   1.0000   1.0000   1.0000   1.0000   1.0000
     1.0000   1.0000   1.0000   1.0000   1.0000   1.0000   1.0000   1.0000
     1.0000   1.0000   1.0000   1.0000   1.0000   1.0000   1.0000   1.0000
     1.0000   1.0000   1.0000   1.0000   1.0000   1.0000   1.0000   1.0000
     1.0000   1.0000   1.0000   1.0000   1.0000   1.0000   1.0000   1.0000
     1.0000   1.0000   1.0000   1.0000   1.0000   1.0000   1.0000   1.0000
     1.0000   1.0000   1.0000   1.0000   1.0000   1.0000   1.0000   1.0000
     1.0000   1.0000   1.0000   1.0000   1.0000   1.0000   1.0000   1.0000
     1.0000   1.0000   1.0000   1.0000   1.0000   1.0000   1.0000   1.0000
     1.0000   1.0000   1.0000   1.0000   1.0000   1.0000   1.0000   1.0000
     1.0000   1.0000   1.0000   1.0000   1.0000   1.0000   1.0000   1.0000
     1.0000   1.0000   1.0000   1.0000   1.0000   1.0000   1.0000   1.0000
     1.0000   1.0000   1.0000   1.0000   1.0000   1.0000   1.0000   1.0000
     1.0000   1.0000   1.0000   1.0000   1.0000   1.0000   1.0000   1.0000
     1.0000   1.0000   1.0000   1.0000   1.0000   1.0000   1.0000   1.0000
     1.0000   1.0000   1.0000

          k = 0.2000 0.3464 0.0000 (112231 PWs)   bands (ev):

   -73.8168 -73.8145 -73.8108 -73.8085 -73.8060 -73.8051 -73.8029 -73.8008
   -73.7961 -73.7942 -73.7910 -73.7895 -73.7874 -73.7547 -73.7499 -73.7404
   -38.2122 -38.2035 -38.2002 -38.1794 -38.1764 -38.1646 -38.1559 -38.1484
   -38.1325 -38.1240 -38.1167 -38.0778 -38.0599 -38.0562 -38.0478 -38.0375
   -38.0324 -38.0292 -38.0255 -38.0199 -38.0162 -38.0097 -38.0033 -38.0003
   -37.9957 -37.9929 -37.9912 -37.9894 -37.9870 -37.9844 -37.9829 -37.9816
   -37.9765 -37.9729 -37.9694 -37.9661 -37.9593 -37.9553 -37.9521 -37.9475
   -37.9413 -37.9322 -37.9264 -37.9213 -37.9052 -37.9001 -37.8869 -37.8723
   -21.5174 -15.4350 -14.4759 -14.1042 -14.0595 -13.5677 -13.5649 -13.1755
   -13.1191 -13.0102 -12.9361 -12.8107 -12.7904 -12.7112 -12.6721 -12.6062
   -12.5957 -12.5771 -12.5722 -12.4583 -12.4253 -12.3918 -12.3775 -12.3139
   -12.2907 -12.2736 -12.2526 -12.2329 -12.2211 -12.1554 -12.1509 -12.1084
   -12.0957 -12.0362  -7.9529  -7.5477  -6.1881  -6.1760  -6.1481  -6.1285
    -6.1059  -5.7671  -5.7381  -5.7218  -5.6821  -5.6449  -5.6026  -5.5673
    -5.5060  -5.4744  -5.3563  -5.3353  -5.2850  -5.2767  -5.2441  -5.2295
    -5.0961  -4.9062  -4.8907  -4.8167  -4.7518  -4.6074  -4.4923  -4.4714
    -4.3990  -4.3679  -4.3386  -4.3053  -4.2768  -4.2639  -4.2356  -4.2276
    -4.1738  -4.1235  -4.1082  -4.0929  -4.0563  -3.7675  -3.7374  -3.7274
    -3.7195  -3.6947  -3.6160  -3.4990  -3.4323  -3.4023  -3.3533  -3.3236
    -3.3006  -3.2471  -3.2274  -3.2079  -3.1702  -3.1515  -3.1093  -3.0923
    -3.0425  -3.0167  -2.9916  -2.9527  -2.9450  -2.9272  -2.9170  -2.9015
    -2.8204  -2.7457  -2.7242  -2.6551  -2.6371  -2.5647  -2.5245  -2.4810
    -2.4676  -2.4402  -2.3882  -2.3636  -2.3168  -2.2223  -2.1861  -2.1660
    -2.1327  -2.1259  -2.0979  -2.0896  -2.0193  -2.0002  -1.9826  -1.9529
    -1.9296  -1.9075  -1.8845  -1.8586  -1.8389  -1.8297  -1.8005  -1.7499
    -1.7372  -1.7203  -1.7108  -1.6800  -1.6725  -1.6239  -1.5968  -1.5762
    -1.5675  -1.5426  -1.5387  -1.5095  -1.4293  -1.3943  -1.3820  -1.3668
    -1.2927  -1.2272  -1.2093  -1.1867  -1.1579  -1.1203  -1.0363  -1.0192
    -0.8758  -0.8491  -0.6826  -0.6730  -0.6397  -0.6323  -0.6167  -0.5425
    -0.5337  -0.4407  -0.3769  -0.2564  -0.2121  -0.2007  -0.1603   0.0707
     0.1392   1.2830   1.5898

     occupation numbers 
     1.0000   1.0000   1.0000   1.0000   1.0000   1.0000   1.0000   1.0000
     1.0000   1.0000   1.0000   1.0000   1.0000   1.0000   1.0000   1.0000
     1.0000   1.0000   1.0000   1.0000   1.0000   1.0000   1.0000   1.0000
     1.0000   1.0000   1.0000   1.0000   1.0000   1.0000   1.0000   1.0000
     1.0000   1.0000   1.0000   1.0000   1.0000   1.0000   1.0000   1.0000
     1.0000   1.0000   1.0000   1.0000   1.0000   1.0000   1.0000   1.0000
     1.0000   1.0000   1.0000   1.0000   1.0000   1.0000   1.0000   1.0000
     1.0000   1.0000   1.0000   1.0000   1.0000   1.0000   1.0000   1.0000
     1.0000   1.0000   1.0000   1.0000   1.0000   1.0000   1.0000   1.0000
     1.0000   1.0000   1.0000   1.0000   1.0000   1.0000   1.0000   1.0000
     1.0000   1.0000   1.0000   1.0000   1.0000   1.0000   1.0000   1.0000
     1.0000   1.0000   1.0000   1.0000   1.0000   1.0000   1.0000   1.0000
     1.0000   1.0000   1.0000   1.0000   1.0000   1.0000   1.0000   1.0000
     1.0000   1.0000   1.0000   1.0000   1.0000   1.0000   1.0000   1.0000
     1.0000   1.0000   1.0000   1.0000   1.0000   1.0000   1.0000   1.0000
     1.0000   1.0000   1.0000   1.0000   1.0000   1.0000   1.0000   1.0000
     1.0000   1.0000   1.0000   1.0000   1.0000   1.0000   1.0000   1.0000
     1.0000   1.0000   1.0000   1.0000   1.0000   1.0000   1.0000   1.0000
     1.0000   1.0000   1.0000   1.0000   1.0000   1.0000   1.0000   1.0000
     1.0000   1.0000   1.0000   1.0000   1.0000   1.0000   1.0000   1.0000
     1.0000   1.0000   1.0000   1.0000   1.0000   1.0000   1.0000   1.0000
     1.0000   1.0000   1.0000   1.0000   1.0000   1.0000   1.0000   1.0000
     1.0000   1.0000   1.0000   1.0000   1.0000   1.0000   1.0000   1.0000
     1.0000   1.0000   1.0000   1.0000   1.0000   1.0000   1.0000   1.0000
     1.0000   1.0000   1.0000   1.0000   1.0000   1.0000   1.0000   1.0000
     1.0000   1.0000   1.0000   1.0000   1.0000   1.0000   1.0000   1.0000
     1.0000   1.0000   1.0000   1.0000   1.0000   1.0000   1.0000   1.0000
     1.0000   1.0000   1.0000   1.0000   1.0000   1.0000   1.0000   1.0000
     1.0000   1.0000   1.0000   1.0000   1.0000   1.0000   1.0000   1.0000
     1.0000   1.0000   1.0000   1.0000   1.0000   1.0000   1.0000   1.0000
     1.0000   1.0000   1.0000

          k = 0.2000 0.5774 0.0000 (112237 PWs)   bands (ev):

   -73.8167 -73.8145 -73.8109 -73.8087 -73.8058 -73.8050 -73.8029 -73.8007
   -73.7962 -73.7942 -73.7910 -73.7895 -73.7874 -73.7547 -73.7499 -73.7404
   -38.2011 -38.1972 -38.1870 -38.1837 -38.1769 -38.1714 -38.1656 -38.1508
   -38.1475 -38.1331 -38.0929 -38.0914 -38.0873 -38.0512 -38.0457 -38.0402
   -38.0341 -38.0308 -38.0178 -38.0174 -38.0076 -38.0052 -38.0029 -38.0012
   -38.0001 -37.9974 -37.9924 -37.9887 -37.9860 -37.9824 -37.9753 -37.9709
   -37.9695 -37.9669 -37.9620 -37.9593 -37.9565 -37.9532 -37.9506 -37.9463
   -37.9427 -37.9380 -37.9321 -37.9293 -37.9178 -37.8976 -37.8887 -37.8754
   -21.5174 -15.4349 -14.3369 -14.2934 -14.1151 -13.5960 -13.3024 -13.2941
   -12.9548 -12.9491 -12.8891 -12.8540 -12.8424 -12.8026 -12.7933 -12.6587
   -12.6314 -12.6036 -12.4927 -12.4848 -12.3845 -12.3729 -12.3594 -12.3239
   -12.3101 -12.2974 -12.2592 -12.2338 -12.2327 -12.1311 -12.1210 -12.1187
   -12.0791 -12.0167  -7.9529  -7.5477  -6.1754  -6.0588  -6.0100  -5.9868
    -5.9220  -5.8968  -5.8766  -5.8505  -5.8099  -5.7441  -5.6876  -5.6248
    -5.6136  -5.5415  -5.3642  -5.2673  -5.2556  -5.2200  -5.2048  -5.1715
    -5.1555  -4.8569  -4.8326  -4.7543  -4.6347  -4.5792  -4.5487  -4.5221
    -4.4753  -4.4190  -4.3995  -4.3199  -4.3126  -4.2398  -4.2333  -4.2134
    -4.1895  -4.1657  -4.1229  -4.0959  -3.9542  -3.9506  -3.7936  -3.6642
    -3.6535  -3.5686  -3.4428  -3.3940  -3.3625  -3.3301  -3.3107  -3.2868
    -3.2735  -3.2624  -3.2454  -3.2351  -3.2164  -3.2019  -3.1443  -3.1263
    -3.1027  -3.0812  -3.0628  -3.0362  -3.0087  -2.9600  -2.8796  -2.8323
    -2.7545  -2.7295  -2.6988  -2.6733  -2.6341  -2.5597  -2.5206  -2.4584
    -2.3994  -2.3344  -2.3208  -2.3091  -2.2554  -2.2075  -2.1803  -2.1364
    -2.1215  -2.1112  -2.0806  -2.0624  -2.0184  -1.9878  -1.9678  -1.9566
    -1.9395  -1.9190  -1.8982  -1.8815  -1.8707  -1.8570  -1.8441  -1.8361
    -1.8247  -1.7830  -1.7631  -1.7378  -1.7068  -1.6879  -1.6815  -1.6520
    -1.6190  -1.5737  -1.5623  -1.5090  -1.4793  -1.4671  -1.4153  -1.3348
    -1.2858  -1.1964  -1.1620  -1.1451  -1.0991  -1.0818  -1.0100  -1.0009
    -0.8144  -0.8001  -0.7028  -0.6919  -0.6608  -0.6461  -0.5934  -0.5838
    -0.5669  -0.4170  -0.2796  -0.2709  -0.1897  -0.1258  -0.0674   0.0890
     0.1877   1.2921   1.6061

     occupation numbers 
     1.0000   1.0000   1.0000   1.0000   1.0000   1.0000   1.0000   1.0000
     1.0000   1.0000   1.0000   1.0000   1.0000   1.0000   1.0000   1.0000
     1.0000   1.0000   1.0000   1.0000   1.0000   1.0000   1.0000   1.0000
     1.0000   1.0000   1.0000   1.0000   1.0000   1.0000   1.0000   1.0000
     1.0000   1.0000   1.0000   1.0000   1.0000   1.0000   1.0000   1.0000
     1.0000   1.0000   1.0000   1.0000   1.0000   1.0000   1.0000   1.0000
     1.0000   1.0000   1.0000   1.0000   1.0000   1.0000   1.0000   1.0000
     1.0000   1.0000   1.0000   1.0000   1.0000   1.0000   1.0000   1.0000
     1.0000   1.0000   1.0000   1.0000   1.0000   1.0000   1.0000   1.0000
     1.0000   1.0000   1.0000   1.0000   1.0000   1.0000   1.0000   1.0000
     1.0000   1.0000   1.0000   1.0000   1.0000   1.0000   1.0000   1.0000
     1.0000   1.0000   1.0000   1.0000   1.0000   1.0000   1.0000   1.0000
     1.0000   1.0000   1.0000   1.0000   1.0000   1.0000   1.0000   1.0000
     1.0000   1.0000   1.0000   1.0000   1.0000   1.0000   1.0000   1.0000
     1.0000   1.0000   1.0000   1.0000   1.0000   1.0000   1.0000   1.0000
     1.0000   1.0000   1.0000   1.0000   1.0000   1.0000   1.0000   1.0000
     1.0000   1.0000   1.0000   1.0000   1.0000   1.0000   1.0000   1.0000
     1.0000   1.0000   1.0000   1.0000   1.0000   1.0000   1.0000   1.0000
     1.0000   1.0000   1.0000   1.0000   1.0000   1.0000   1.0000   1.0000
     1.0000   1.0000   1.0000   1.0000   1.0000   1.0000   1.0000   1.0000
     1.0000   1.0000   1.0000   1.0000   1.0000   1.0000   1.0000   1.0000
     1.0000   1.0000   1.0000   1.0000   1.0000   1.0000   1.0000   1.0000
     1.0000   1.0000   1.0000   1.0000   1.0000   1.0000   1.0000   1.0000
     1.0000   1.0000   1.0000   1.0000   1.0000   1.0000   1.0000   1.0000
     1.0000   1.0000   1.0000   1.0000   1.0000   1.0000   1.0000   1.0000
     1.0000   1.0000   1.0000   1.0000   1.0000   1.0000   1.0000   1.0000
     1.0000   1.0000   1.0000   1.0000   1.0000   1.0000   1.0000   1.0000
     1.0000   1.0000   1.0000   1.0000   1.0000   1.0000   1.0000   1.0000
     1.0000   1.0000   1.0000   1.0000   1.0000   1.0000   1.0000   1.0000
     1.0000   1.0000   1.0000   1.0000   1.0000   1.0000   1.0000   1.0000
     1.0000   1.0000   1.0000

          k =-0.2000 0.1155 0.0000 (112171 PWs)   bands (ev):

   -73.8171 -73.8139 -73.8108 -73.8086 -73.8061 -73.8051 -73.8029 -73.8008
   -73.7960 -73.7942 -73.7913 -73.7892 -73.7874 -73.7547 -73.7499 -73.7404
   -38.2200 -38.2152 -38.2124 -38.1691 -38.1654 -38.1642 -38.1592 -38.1465
   -38.1400 -38.1033 -38.0805 -38.0763 -38.0515 -38.0489 -38.0449 -38.0346
   -38.0285 -38.0279 -38.0253 -38.0241 -38.0170 -38.0162 -38.0139 -38.0126
   -38.0044 -38.0010 -37.9979 -37.9965 -37.9937 -37.9921 -37.9885 -37.9866
   -37.9858 -37.9826 -37.9693 -37.9626 -37.9601 -37.9545 -37.9521 -37.9468
   -37.9331 -37.9250 -37.9211 -37.9108 -37.9088 -37.9007 -37.8751 -37.8719
   -21.5174 -15.4349 -14.5577 -13.9768 -13.8032 -13.7888 -13.4799 -13.4752
   -13.3260 -12.9683 -12.7928 -12.7601 -12.6927 -12.6829 -12.6581 -12.5881
   -12.5658 -12.5224 -12.4985 -12.4796 -12.4707 -12.4332 -12.4225 -12.3088
   -12.2953 -12.2623 -12.2449 -12.2142 -12.1874 -12.1764 -12.1684 -12.1512
   -12.0957 -12.0816  -7.9529  -7.5477  -6.2867  -6.2659  -6.2455  -6.2327
    -6.1659  -5.6800  -5.6408  -5.6263  -5.5506  -5.5329  -5.4937  -5.4701
    -5.4399  -5.4213  -5.3852  -5.3293  -5.3119  -5.2836  -5.2777  -5.0832
    -5.0640  -5.0170  -5.0008  -4.9527  -4.7415  -4.7365  -4.5748  -4.5166
    -4.4517  -4.3737  -4.3415  -4.2817  -4.2095  -4.1634  -4.1488  -4.1239
    -4.1011  -4.0675  -4.0415  -3.9975  -3.9852  -3.9165  -3.9068  -3.8981
    -3.6723  -3.5920  -3.5378  -3.5047  -3.4799  -3.4625  -3.4464  -3.3766
    -3.3675  -3.3216  -3.2968  -3.2805  -3.2668  -3.2076  -3.1962  -3.1561
    -3.1051  -2.9879  -2.9666  -2.9322  -2.8359  -2.8052  -2.7784  -2.7516
    -2.7331  -2.7162  -2.7000  -2.6919  -2.6783  -2.6545  -2.6084  -2.5486
    -2.5225  -2.4866  -2.4716  -2.4492  -2.3720  -2.3149  -2.1997  -2.1773
    -2.1364  -2.0913  -2.0234  -2.0072  -1.9814  -1.9680  -1.9466  -1.9093
    -1.8871  -1.8681  -1.8434  -1.8226  -1.8073  -1.7756  -1.7434  -1.7277
    -1.7116  -1.7012  -1.6868  -1.6685  -1.6552  -1.6105  -1.5780  -1.5575
    -1.5306  -1.5072  -1.4970  -1.4373  -1.4280  -1.3749  -1.3532  -1.3314
    -1.3153  -1.2777  -1.2579  -1.2254  -1.1683  -1.0827  -1.0483  -1.0188
    -0.9016  -0.7776  -0.7605  -0.7421  -0.5876  -0.5705  -0.5542  -0.5348
    -0.5201  -0.5118  -0.4167  -0.3845  -0.3604  -0.2667  -0.1737  -0.1467
     0.1748   1.2821   1.5412

     occupation numbers 
     1.0000   1.0000   1.0000   1.0000   1.0000   1.0000   1.0000   1.0000
     1.0000   1.0000   1.0000   1.0000   1.0000   1.0000   1.0000   1.0000
     1.0000   1.0000   1.0000   1.0000   1.0000   1.0000   1.0000   1.0000
     1.0000   1.0000   1.0000   1.0000   1.0000   1.0000   1.0000   1.0000
     1.0000   1.0000   1.0000   1.0000   1.0000   1.0000   1.0000   1.0000
     1.0000   1.0000   1.0000   1.0000   1.0000   1.0000   1.0000   1.0000
     1.0000   1.0000   1.0000   1.0000   1.0000   1.0000   1.0000   1.0000
     1.0000   1.0000   1.0000   1.0000   1.0000   1.0000   1.0000   1.0000
     1.0000   1.0000   1.0000   1.0000   1.0000   1.0000   1.0000   1.0000
     1.0000   1.0000   1.0000   1.0000   1.0000   1.0000   1.0000   1.0000
     1.0000   1.0000   1.0000   1.0000   1.0000   1.0000   1.0000   1.0000
     1.0000   1.0000   1.0000   1.0000   1.0000   1.0000   1.0000   1.0000
     1.0000   1.0000   1.0000   1.0000   1.0000   1.0000   1.0000   1.0000
     1.0000   1.0000   1.0000   1.0000   1.0000   1.0000   1.0000   1.0000
     1.0000   1.0000   1.0000   1.0000   1.0000   1.0000   1.0000   1.0000
     1.0000   1.0000   1.0000   1.0000   1.0000   1.0000   1.0000   1.0000
     1.0000   1.0000   1.0000   1.0000   1.0000   1.0000   1.0000   1.0000
     1.0000   1.0000   1.0000   1.0000   1.0000   1.0000   1.0000   1.0000
     1.0000   1.0000   1.0000   1.0000   1.0000   1.0000   1.0000   1.0000
     1.0000   1.0000   1.0000   1.0000   1.0000   1.0000   1.0000   1.0000
     1.0000   1.0000   1.0000   1.0000   1.0000   1.0000   1.0000   1.0000
     1.0000   1.0000   1.0000   1.0000   1.0000   1.0000   1.0000   1.0000
     1.0000   1.0000   1.0000   1.0000   1.0000   1.0000   1.0000   1.0000
     1.0000   1.0000   1.0000   1.0000   1.0000   1.0000   1.0000   1.0000
     1.0000   1.0000   1.0000   1.0000   1.0000   1.0000   1.0000   1.0000
     1.0000   1.0000   1.0000   1.0000   1.0000   1.0000   1.0000   1.0000
     1.0000   1.0000   1.0000   1.0000   1.0000   1.0000   1.0000   1.0000
     1.0000   1.0000   1.0000   1.0000   1.0000   1.0000   1.0000   1.0000
     1.0000   1.0000   1.0000   1.0000   1.0000   1.0000   1.0000   1.0000
     1.0000   1.0000   1.0000   1.0000   1.0000   1.0000   1.0000   1.0000
     1.0000   1.0000   1.0000

          k = 0.2000 0.1155 0.0000 (112171 PWs)   bands (ev):

   -73.8170 -73.8141 -73.8108 -73.8083 -73.8062 -73.8052 -73.8029 -73.8008
   -73.7959 -73.7942 -73.7912 -73.7893 -73.7874 -73.7547 -73.7499 -73.7404
   -38.2197 -38.2158 -38.2121 -38.1699 -38.1663 -38.1630 -38.1580 -38.1468
   -38.1401 -38.1035 -38.0803 -38.0767 -38.0516 -38.0492 -38.0454 -38.0347
   -38.0285 -38.0266 -38.0256 -38.0237 -38.0173 -38.0153 -38.0144 -38.0128
   -38.0047 -38.0001 -37.9979 -37.9965 -37.9939 -37.9917 -37.9897 -37.9867
   -37.9857 -37.9825 -37.9692 -37.9619 -37.9608 -37.9547 -37.9520 -37.9468
   -37.9331 -37.9243 -37.9206 -37.9128 -37.9080 -37.9008 -37.8767 -37.8703
   -21.5174 -15.4349 -14.5576 -13.9770 -13.8023 -13.7894 -13.4791 -13.4769
   -13.3252 -12.9683 -12.7930 -12.7594 -12.6923 -12.6841 -12.6585 -12.5881
   -12.5671 -12.5208 -12.4963 -12.4815 -12.4702 -12.4355 -12.4218 -12.3042
   -12.2951 -12.2654 -12.2480 -12.2093 -12.1930 -12.1733 -12.1715 -12.1487
   -12.0929 -12.0840  -7.9529  -7.5477  -6.2812  -6.2676  -6.2482  -6.2343
    -6.1659  -5.6739  -5.6442  -5.6240  -5.5517  -5.5372  -5.4908  -5.4728
    -5.4457  -5.4251  -5.3722  -5.3288  -5.3153  -5.2842  -5.2766  -5.0789
    -5.0718  -5.0148  -5.0045  -4.9472  -4.7424  -4.7372  -4.5704  -4.5125
    -4.4490  -4.3955  -4.3406  -4.2753  -4.2087  -4.1639  -4.1508  -4.1242
    -4.1007  -4.0576  -4.0415  -4.0046  -3.9835  -3.9140  -3.9110  -3.9005
    -3.6648  -3.5720  -3.5534  -3.5117  -3.4700  -3.4588  -3.4427  -3.3854
    -3.3735  -3.3135  -3.3032  -3.2841  -3.2615  -3.2146  -3.1981  -3.1487
    -3.1114  -3.0039  -2.9617  -2.9142  -2.8323  -2.8106  -2.7861  -2.7542
    -2.7397  -2.7141  -2.7005  -2.6940  -2.6698  -2.6403  -2.6012  -2.5517
    -2.5362  -2.5029  -2.4771  -2.4328  -2.3688  -2.3083  -2.2048  -2.1831
    -2.1254  -2.0931  -2.0209  -2.0020  -1.9742  -1.9707  -1.9326  -1.9103
    -1.9023  -1.8795  -1.8402  -1.8270  -1.8095  -1.7831  -1.7448  -1.7358
    -1.7114  -1.6946  -1.6822  -1.6600  -1.6418  -1.6282  -1.5922  -1.5463
    -1.5344  -1.5065  -1.4614  -1.4471  -1.4264  -1.4062  -1.3582  -1.3129
    -1.3069  -1.2985  -1.2527  -1.2128  -1.1725  -1.0680  -1.0481  -1.0312
    -0.9007  -0.7677  -0.7592  -0.7567  -0.5993  -0.5635  -0.5496  -0.5342
    -0.5225  -0.5168  -0.4121  -0.3853  -0.3567  -0.2675  -0.1698  -0.1507
     0.1755   1.2768   1.5477

     occupation numbers 
     1.0000   1.0000   1.0000   1.0000   1.0000   1.0000   1.0000   1.0000
     1.0000   1.0000   1.0000   1.0000   1.0000   1.0000   1.0000   1.0000
     1.0000   1.0000   1.0000   1.0000   1.0000   1.0000   1.0000   1.0000
     1.0000   1.0000   1.0000   1.0000   1.0000   1.0000   1.0000   1.0000
     1.0000   1.0000   1.0000   1.0000   1.0000   1.0000   1.0000   1.0000
     1.0000   1.0000   1.0000   1.0000   1.0000   1.0000   1.0000   1.0000
     1.0000   1.0000   1.0000   1.0000   1.0000   1.0000   1.0000   1.0000
     1.0000   1.0000   1.0000   1.0000   1.0000   1.0000   1.0000   1.0000
     1.0000   1.0000   1.0000   1.0000   1.0000   1.0000   1.0000   1.0000
     1.0000   1.0000   1.0000   1.0000   1.0000   1.0000   1.0000   1.0000
     1.0000   1.0000   1.0000   1.0000   1.0000   1.0000   1.0000   1.0000
     1.0000   1.0000   1.0000   1.0000   1.0000   1.0000   1.0000   1.0000
     1.0000   1.0000   1.0000   1.0000   1.0000   1.0000   1.0000   1.0000
     1.0000   1.0000   1.0000   1.0000   1.0000   1.0000   1.0000   1.0000
     1.0000   1.0000   1.0000   1.0000   1.0000   1.0000   1.0000   1.0000
     1.0000   1.0000   1.0000   1.0000   1.0000   1.0000   1.0000   1.0000
     1.0000   1.0000   1.0000   1.0000   1.0000   1.0000   1.0000   1.0000
     1.0000   1.0000   1.0000   1.0000   1.0000   1.0000   1.0000   1.0000
     1.0000   1.0000   1.0000   1.0000   1.0000   1.0000   1.0000   1.0000
     1.0000   1.0000   1.0000   1.0000   1.0000   1.0000   1.0000   1.0000
     1.0000   1.0000   1.0000   1.0000   1.0000   1.0000   1.0000   1.0000
     1.0000   1.0000   1.0000   1.0000   1.0000   1.0000   1.0000   1.0000
     1.0000   1.0000   1.0000   1.0000   1.0000   1.0000   1.0000   1.0000
     1.0000   1.0000   1.0000   1.0000   1.0000   1.0000   1.0000   1.0000
     1.0000   1.0000   1.0000   1.0000   1.0000   1.0000   1.0000   1.0000
     1.0000   1.0000   1.0000   1.0000   1.0000   1.0000   1.0000   1.0000
     1.0000   1.0000   1.0000   1.0000   1.0000   1.0000   1.0000   1.0000
     1.0000   1.0000   1.0000   1.0000   1.0000   1.0000   1.0000   1.0000
     1.0000   1.0000   1.0000   1.0000   1.0000   1.0000   1.0000   1.0000
     1.0000   1.0000   1.0000   1.0000   1.0000   1.0000   1.0000   1.0000
     1.0000   1.0000   1.0000

          k =-0.4000 0.2309 0.0000 (112236 PWs)   bands (ev):

   -73.8169 -73.8142 -73.8109 -73.8091 -73.8059 -73.8045 -73.8031 -73.8007
   -73.7960 -73.7943 -73.7913 -73.7892 -73.7874 -73.7547 -73.7499 -73.7404
   -38.2079 -38.2022 -38.1907 -38.1844 -38.1833 -38.1646 -38.1615 -38.1474
   -38.1306 -38.1242 -38.1061 -38.1013 -38.0634 -38.0583 -38.0474 -38.0402
   -38.0295 -38.0250 -38.0148 -38.0125 -38.0098 -38.0085 -38.0045 -38.0000
   -37.9989 -37.9977 -37.9956 -37.9930 -37.9879 -37.9862 -37.9826 -37.9797
   -37.9755 -37.9698 -37.9664 -37.9656 -37.9536 -37.9516 -37.9497 -37.9471
   -37.9449 -37.9386 -37.9301 -37.9174 -37.9094 -37.8925 -37.8908 -37.8765
   -21.5174 -15.4350 -14.4364 -14.2334 -13.8703 -13.8585 -13.2502 -13.2445
   -13.0256 -12.9983 -12.9759 -12.9115 -12.8331 -12.7338 -12.7044 -12.6856
   -12.5371 -12.5100 -12.4623 -12.4535 -12.4311 -12.4238 -12.3870 -12.3640
   -12.3535 -12.2826 -12.2227 -12.2008 -12.1763 -12.1620 -12.1553 -12.1527
   -12.0568 -12.0406  -7.9529  -7.5477  -6.1789  -6.1338  -6.1152  -6.0901
    -6.0236  -5.8774  -5.8571  -5.8404  -5.7124  -5.5352  -5.5120  -5.4908
    -5.4552  -5.4475  -5.4383  -5.3899  -5.3805  -5.3181  -5.3107  -5.0832
    -5.0589  -5.0246  -5.0064  -4.8057  -4.6104  -4.5579  -4.4831  -4.4431
    -4.4148  -4.3744  -4.3533  -4.3123  -4.2475  -4.2235  -4.1966  -4.1627
    -4.1232  -4.1150  -4.1027  -4.0758  -4.0696  -4.0550  -4.0438  -3.6942
    -3.5734  -3.5261  -3.4800  -3.4607  -3.4271  -3.4002  -3.3599  -3.3201
    -3.3042  -3.2820  -3.2616  -3.2434  -3.2164  -3.2007  -3.1520  -3.1171
    -3.0746  -3.0500  -3.0159  -2.9744  -2.9399  -2.9081  -2.8426  -2.7829
    -2.7459  -2.7166  -2.6688  -2.6356  -2.6171  -2.5898  -2.5595  -2.5012
    -2.4345  -2.4283  -2.4021  -2.3387  -2.2871  -2.2559  -2.2467  -2.1791
    -2.1296  -2.1199  -2.0618  -2.0335  -2.0199  -1.9961  -1.9664  -1.9384
    -1.9196  -1.9026  -1.8920  -1.8716  -1.8666  -1.8537  -1.8403  -1.8259
    -1.7906  -1.7615  -1.7162  -1.7000  -1.6956  -1.6742  -1.6545  -1.6165
    -1.5943  -1.5654  -1.5072  -1.4801  -1.4539  -1.3615  -1.3347  -1.3037
    -1.2677  -1.2234  -1.1753  -1.1307  -1.1240  -1.1057  -1.0797  -0.9922
    -0.9736  -0.8811  -0.7373  -0.7217  -0.6427  -0.6255  -0.5126  -0.4575
    -0.4517  -0.4264  -0.4055  -0.3788  -0.3061  -0.1029  -0.0007   0.0297
     0.1209   1.3282   1.5532

     occupation numbers 
     1.0000   1.0000   1.0000   1.0000   1.0000   1.0000   1.0000   1.0000
     1.0000   1.0000   1.0000   1.0000   1.0000   1.0000   1.0000   1.0000
     1.0000   1.0000   1.0000   1.0000   1.0000   1.0000   1.0000   1.0000
     1.0000   1.0000   1.0000   1.0000   1.0000   1.0000   1.0000   1.0000
     1.0000   1.0000   1.0000   1.0000   1.0000   1.0000   1.0000   1.0000
     1.0000   1.0000   1.0000   1.0000   1.0000   1.0000   1.0000   1.0000
     1.0000   1.0000   1.0000   1.0000   1.0000   1.0000   1.0000   1.0000
     1.0000   1.0000   1.0000   1.0000   1.0000   1.0000   1.0000   1.0000
     1.0000   1.0000   1.0000   1.0000   1.0000   1.0000   1.0000   1.0000
     1.0000   1.0000   1.0000   1.0000   1.0000   1.0000   1.0000   1.0000
     1.0000   1.0000   1.0000   1.0000   1.0000   1.0000   1.0000   1.0000
     1.0000   1.0000   1.0000   1.0000   1.0000   1.0000   1.0000   1.0000
     1.0000   1.0000   1.0000   1.0000   1.0000   1.0000   1.0000   1.0000
     1.0000   1.0000   1.0000   1.0000   1.0000   1.0000   1.0000   1.0000
     1.0000   1.0000   1.0000   1.0000   1.0000   1.0000   1.0000   1.0000
     1.0000   1.0000   1.0000   1.0000   1.0000   1.0000   1.0000   1.0000
     1.0000   1.0000   1.0000   1.0000   1.0000   1.0000   1.0000   1.0000
     1.0000   1.0000   1.0000   1.0000   1.0000   1.0000   1.0000   1.0000
     1.0000   1.0000   1.0000   1.0000   1.0000   1.0000   1.0000   1.0000
     1.0000   1.0000   1.0000   1.0000   1.0000   1.0000   1.0000   1.0000
     1.0000   1.0000   1.0000   1.0000   1.0000   1.0000   1.0000   1.0000
     1.0000   1.0000   1.0000   1.0000   1.0000   1.0000   1.0000   1.0000
     1.0000   1.0000   1.0000   1.0000   1.0000   1.0000   1.0000   1.0000
     1.0000   1.0000   1.0000   1.0000   1.0000   1.0000   1.0000   1.0000
     1.0000   1.0000   1.0000   1.0000   1.0000   1.0000   1.0000   1.0000
     1.0000   1.0000   1.0000   1.0000   1.0000   1.0000   1.0000   1.0000
     1.0000   1.0000   1.0000   1.0000   1.0000   1.0000   1.0000   1.0000
     1.0000   1.0000   1.0000   1.0000   1.0000   1.0000   1.0000   1.0000
     1.0000   1.0000   1.0000   1.0000   1.0000   1.0000   1.0000   1.0000
     1.0000   1.0000   1.0000   1.0000   1.0000   1.0000   1.0000   1.0000
     1.0000   1.0000   1.0000

          k = 0.4000 0.2309 0.0000 (112236 PWs)   bands (ev):

   -73.8166 -73.8147 -73.8108 -73.8085 -73.8061 -73.8048 -73.8031 -73.8009
   -73.7957 -73.7945 -73.7910 -73.7895 -73.7874 -73.7547 -73.7499 -73.7404
   -38.2063 -38.2042 -38.1904 -38.1871 -38.1807 -38.1635 -38.1619 -38.1472
   -38.1302 -38.1248 -38.1068 -38.1016 -38.0629 -38.0593 -38.0472 -38.0404
   -38.0287 -38.0250 -38.0140 -38.0117 -38.0109 -38.0097 -38.0046 -38.0003
   -37.9981 -37.9968 -37.9951 -37.9918 -37.9898 -37.9863 -37.9823 -37.9796
   -37.9769 -37.9696 -37.9670 -37.9645 -37.9531 -37.9506 -37.9501 -37.9469
   -37.9450 -37.9376 -37.9302 -37.9182 -37.9098 -37.8943 -37.8919 -37.8741
   -21.5174 -15.4349 -14.4363 -14.2336 -13.8696 -13.8590 -13.2501 -13.2456
   -13.0223 -12.9982 -12.9778 -12.9107 -12.8340 -12.7315 -12.7063 -12.6864
   -12.5440 -12.5027 -12.4665 -12.4511 -12.4301 -12.4239 -12.3874 -12.3626
   -12.3511 -12.2826 -12.2294 -12.1987 -12.1783 -12.1610 -12.1557 -12.1502
   -12.0538 -12.0431  -7.9529  -7.5477  -6.1788  -6.1258  -6.1155  -6.0900
    -6.0374  -5.8701  -5.8568  -5.8370  -5.7174  -5.5363  -5.5105  -5.4937
    -5.4498  -5.4491  -5.4409  -5.3893  -5.3838  -5.3159  -5.3098  -5.0745
    -5.0705  -5.0229  -5.0112  -4.7778  -4.6238  -4.5620  -4.4916  -4.4534
    -4.4210  -4.3734  -4.3514  -4.3063  -4.2417  -4.2278  -4.1924  -4.1602
    -4.1267  -4.1165  -4.1039  -4.0777  -4.0646  -4.0526  -4.0443  -3.6816
    -3.5658  -3.5272  -3.4705  -3.4531  -3.4330  -3.4038  -3.3626  -3.3296
    -3.2933  -3.2868  -3.2567  -3.2420  -3.2210  -3.2068  -3.1413  -3.1202
    -3.0927  -3.0585  -3.0224  -2.9726  -2.9421  -2.9077  -2.8542  -2.7834
    -2.7492  -2.6935  -2.6592  -2.6358  -2.6225  -2.6074  -2.5242  -2.5081
    -2.4640  -2.4336  -2.3784  -2.3369  -2.2795  -2.2615  -2.2475  -2.1630
    -2.1282  -2.1210  -2.0469  -2.0181  -2.0124  -1.9886  -1.9818  -1.9662
    -1.9423  -1.9071  -1.8965  -1.8709  -1.8587  -1.8493  -1.8405  -1.8251
    -1.8083  -1.7466  -1.7339  -1.7098  -1.6995  -1.6512  -1.6377  -1.6296
    -1.6007  -1.5586  -1.5148  -1.5017  -1.4276  -1.3652  -1.3163  -1.2965
    -1.2632  -1.2404  -1.1947  -1.1365  -1.1205  -1.0670  -1.0600  -1.0074
    -0.9792  -0.8923  -0.7325  -0.7280  -0.6412  -0.6318  -0.5225  -0.4611
    -0.4504  -0.4246  -0.4065  -0.3689  -0.2998  -0.1046   0.0007   0.0256
     0.1240   1.3113   1.5739

     occupation numbers 
     1.0000   1.0000   1.0000   1.0000   1.0000   1.0000   1.0000   1.0000
     1.0000   1.0000   1.0000   1.0000   1.0000   1.0000   1.0000   1.0000
     1.0000   1.0000   1.0000   1.0000   1.0000   1.0000   1.0000   1.0000
     1.0000   1.0000   1.0000   1.0000   1.0000   1.0000   1.0000   1.0000
     1.0000   1.0000   1.0000   1.0000   1.0000   1.0000   1.0000   1.0000
     1.0000   1.0000   1.0000   1.0000   1.0000   1.0000   1.0000   1.0000
     1.0000   1.0000   1.0000   1.0000   1.0000   1.0000   1.0000   1.0000
     1.0000   1.0000   1.0000   1.0000   1.0000   1.0000   1.0000   1.0000
     1.0000   1.0000   1.0000   1.0000   1.0000   1.0000   1.0000   1.0000
     1.0000   1.0000   1.0000   1.0000   1.0000   1.0000   1.0000   1.0000
     1.0000   1.0000   1.0000   1.0000   1.0000   1.0000   1.0000   1.0000
     1.0000   1.0000   1.0000   1.0000   1.0000   1.0000   1.0000   1.0000
     1.0000   1.0000   1.0000   1.0000   1.0000   1.0000   1.0000   1.0000
     1.0000   1.0000   1.0000   1.0000   1.0000   1.0000   1.0000   1.0000
     1.0000   1.0000   1.0000   1.0000   1.0000   1.0000   1.0000   1.0000
     1.0000   1.0000   1.0000   1.0000   1.0000   1.0000   1.0000   1.0000
     1.0000   1.0000   1.0000   1.0000   1.0000   1.0000   1.0000   1.0000
     1.0000   1.0000   1.0000   1.0000   1.0000   1.0000   1.0000   1.0000
     1.0000   1.0000   1.0000   1.0000   1.0000   1.0000   1.0000   1.0000
     1.0000   1.0000   1.0000   1.0000   1.0000   1.0000   1.0000   1.0000
     1.0000   1.0000   1.0000   1.0000   1.0000   1.0000   1.0000   1.0000
     1.0000   1.0000   1.0000   1.0000   1.0000   1.0000   1.0000   1.0000
     1.0000   1.0000   1.0000   1.0000   1.0000   1.0000   1.0000   1.0000
     1.0000   1.0000   1.0000   1.0000   1.0000   1.0000   1.0000   1.0000
     1.0000   1.0000   1.0000   1.0000   1.0000   1.0000   1.0000   1.0000
     1.0000   1.0000   1.0000   1.0000   1.0000   1.0000   1.0000   1.0000
     1.0000   1.0000   1.0000   1.0000   1.0000   1.0000   1.0000   1.0000
     1.0000   1.0000   1.0000   1.0000   1.0000   1.0000   1.0000   1.0000
     1.0000   1.0000   1.0000   1.0000   1.0000   1.0000   1.0000   1.0000
     1.0000   1.0000   1.0000   1.0000   1.0000   1.0000   1.0000   1.0000
     1.0000   1.0000   1.0000

          k =-0.2000 0.3464 0.0000 (112231 PWs)   bands (ev):

   -73.8169 -73.8142 -73.8109 -73.8089 -73.8059 -73.8050 -73.8029 -73.8007
   -73.7962 -73.7941 -73.7912 -73.7893 -73.7874 -73.7547 -73.7499 -73.7404
   -38.2125 -38.2024 -38.2009 -38.1794 -38.1759 -38.1645 -38.1558 -38.1496
   -38.1330 -38.1257 -38.1133 -38.0773 -38.0611 -38.0558 -38.0482 -38.0374
   -38.0325 -38.0288 -38.0254 -38.0206 -38.0163 -38.0084 -38.0038 -38.0000
   -37.9965 -37.9935 -37.9915 -37.9887 -37.9866 -37.9842 -37.9824 -37.9813
   -37.9769 -37.9738 -37.9698 -37.9654 -37.9586 -37.9556 -37.9520 -37.9474
   -37.9418 -37.9327 -37.9269 -37.9218 -37.9037 -37.8988 -37.8869 -37.8734
   -21.5174 -15.4350 -14.4759 -14.1034 -14.0603 -13.5745 -13.5575 -13.1762
   -13.1197 -13.0101 -12.9359 -12.8090 -12.7920 -12.7070 -12.6731 -12.6205
   -12.5858 -12.5774 -12.5694 -12.4556 -12.4267 -12.3943 -12.3799 -12.3109
   -12.2924 -12.2745 -12.2520 -12.2272 -12.2234 -12.1571 -12.1504 -12.1089
   -12.0960 -12.0359  -7.9529  -7.5477  -6.1942  -6.1791  -6.1447  -6.1225
    -6.1040  -5.7698  -5.7388  -5.7177  -5.7004  -5.6272  -5.6032  -5.5648
    -5.5085  -5.4769  -5.3572  -5.3320  -5.3010  -5.2662  -5.2429  -5.2221
    -5.0985  -4.9149  -4.8956  -4.7977  -4.7568  -4.6100  -4.5185  -4.4490
    -4.3965  -4.3456  -4.3363  -4.3104  -4.2815  -4.2617  -4.2467  -4.2285
    -4.1652  -4.1311  -4.1122  -4.0941  -4.0550  -3.7762  -3.7412  -3.7299
    -3.7099  -3.6932  -3.6178  -3.5093  -3.4247  -3.3841  -3.3754  -3.3107
    -3.2964  -3.2444  -3.2345  -3.2052  -3.1680  -3.1485  -3.1288  -3.0850
    -3.0646  -3.0140  -2.9758  -2.9470  -2.9352  -2.9282  -2.9249  -2.9031
    -2.7997  -2.7464  -2.7241  -2.6791  -2.6322  -2.5669  -2.5332  -2.4795
    -2.4654  -2.4117  -2.3916  -2.3673  -2.3243  -2.2232  -2.1993  -2.1595
    -2.1393  -2.1249  -2.1097  -2.0851  -2.0393  -1.9919  -1.9848  -1.9454
    -1.9219  -1.9030  -1.8708  -1.8567  -1.8275  -1.8192  -1.7988  -1.7753
    -1.7474  -1.7091  -1.7054  -1.6818  -1.6569  -1.6401  -1.5909  -1.5849
    -1.5626  -1.5501  -1.5324  -1.5126  -1.4449  -1.3986  -1.3867  -1.3481
    -1.2916  -1.2499  -1.1986  -1.1748  -1.1599  -1.1250  -1.0488  -1.0076
    -0.8779  -0.8390  -0.6889  -0.6725  -0.6393  -0.6293  -0.6116  -0.5444
    -0.5375  -0.4307  -0.3869  -0.2589  -0.2077  -0.2003  -0.1627   0.0714
     0.1375   1.2909   1.5798

     occupation numbers 
     1.0000   1.0000   1.0000   1.0000   1.0000   1.0000   1.0000   1.0000
     1.0000   1.0000   1.0000   1.0000   1.0000   1.0000   1.0000   1.0000
     1.0000   1.0000   1.0000   1.0000   1.0000   1.0000   1.0000   1.0000
     1.0000   1.0000   1.0000   1.0000   1.0000   1.0000   1.0000   1.0000
     1.0000   1.0000   1.0000   1.0000   1.0000   1.0000   1.0000   1.0000
     1.0000   1.0000   1.0000   1.0000   1.0000   1.0000   1.0000   1.0000
     1.0000   1.0000   1.0000   1.0000   1.0000   1.0000   1.0000   1.0000
     1.0000   1.0000   1.0000   1.0000   1.0000   1.0000   1.0000   1.0000
     1.0000   1.0000   1.0000   1.0000   1.0000   1.0000   1.0000   1.0000
     1.0000   1.0000   1.0000   1.0000   1.0000   1.0000   1.0000   1.0000
     1.0000   1.0000   1.0000   1.0000   1.0000   1.0000   1.0000   1.0000
     1.0000   1.0000   1.0000   1.0000   1.0000   1.0000   1.0000   1.0000
     1.0000   1.0000   1.0000   1.0000   1.0000   1.0000   1.0000   1.0000
     1.0000   1.0000   1.0000   1.0000   1.0000   1.0000   1.0000   1.0000
     1.0000   1.0000   1.0000   1.0000   1.0000   1.0000   1.0000   1.0000
     1.0000   1.0000   1.0000   1.0000   1.0000   1.0000   1.0000   1.0000
     1.0000   1.0000   1.0000   1.0000   1.0000   1.0000   1.0000   1.0000
     1.0000   1.0000   1.0000   1.0000   1.0000   1.0000   1.0000   1.0000
     1.0000   1.0000   1.0000   1.0000   1.0000   1.0000   1.0000   1.0000
     1.0000   1.0000   1.0000   1.0000   1.0000   1.0000   1.0000   1.0000
     1.0000   1.0000   1.0000   1.0000   1.0000   1.0000   1.0000   1.0000
     1.0000   1.0000   1.0000   1.0000   1.0000   1.0000   1.0000   1.0000
     1.0000   1.0000   1.0000   1.0000   1.0000   1.0000   1.0000   1.0000
     1.0000   1.0000   1.0000   1.0000   1.0000   1.0000   1.0000   1.0000
     1.0000   1.0000   1.0000   1.0000   1.0000   1.0000   1.0000   1.0000
     1.0000   1.0000   1.0000   1.0000   1.0000   1.0000   1.0000   1.0000
     1.0000   1.0000   1.0000   1.0000   1.0000   1.0000   1.0000   1.0000
     1.0000   1.0000   1.0000   1.0000   1.0000   1.0000   1.0000   1.0000
     1.0000   1.0000   1.0000   1.0000   1.0000   1.0000   1.0000   1.0000
     1.0000   1.0000   1.0000   1.0000   1.0000   1.0000   1.0000   1.0000
     1.0000   1.0000   1.0000

          k = 0.4000-0.0000 0.0000 (112231 PWs)   bands (ev):

   -73.8168 -73.8143 -73.8109 -73.8087 -73.8061 -73.8047 -73.8031 -73.8008
   -73.7958 -73.7944 -73.7912 -73.7893 -73.7874 -73.7547 -73.7499 -73.7404
   -38.2125 -38.2031 -38.1999 -38.1793 -38.1761 -38.1658 -38.1563 -38.1497
   -38.1323 -38.1243 -38.1128 -38.0770 -38.0620 -38.0564 -38.0480 -38.0381
   -38.0309 -38.0290 -38.0255 -38.0221 -38.0142 -38.0095 -38.0042 -37.9988
   -37.9963 -37.9937 -37.9915 -37.9892 -37.9880 -37.9854 -37.9823 -37.9803
   -37.9754 -37.9749 -37.9696 -37.9657 -37.9586 -37.9551 -37.9518 -37.9471
   -37.9424 -37.9320 -37.9281 -37.9223 -37.9018 -37.8984 -37.8858 -37.8754
   -21.5174 -15.4350 -14.4760 -14.0999 -14.0639 -13.5690 -13.5638 -13.1712
   -13.1230 -13.0140 -12.9297 -12.8050 -12.7960 -12.7117 -12.6823 -12.6027
   -12.5999 -12.5744 -12.5614 -12.4572 -12.4239 -12.4132 -12.3651 -12.3080
   -12.2935 -12.2714 -12.2547 -12.2351 -12.2205 -12.1580 -12.1479 -12.1068
   -12.0974 -12.0364  -7.9529  -7.5477  -6.1866  -6.1820  -6.1489  -6.1199
    -6.1091  -5.7593  -5.7436  -5.7217  -5.6886  -5.6376  -5.6096  -5.5623
    -5.5065  -5.4741  -5.3527  -5.3359  -5.2936  -5.2726  -5.2454  -5.2303
    -5.0982  -4.9028  -4.8875  -4.8111  -4.7570  -4.5732  -4.5400  -4.4669
    -4.4107  -4.3477  -4.3389  -4.3142  -4.2765  -4.2653  -4.2445  -4.2117
    -4.1761  -4.1185  -4.1111  -4.0908  -4.0551  -3.7652  -3.7359  -3.7286
    -3.7091  -3.6997  -3.6294  -3.4875  -3.4320  -3.4040  -3.3736  -3.3282
    -3.2896  -3.2477  -3.2377  -3.2039  -3.1784  -3.1460  -3.1284  -3.0837
    -3.0448  -3.0074  -2.9706  -2.9532  -2.9423  -2.9251  -2.9092  -2.9013
    -2.7910  -2.7604  -2.7242  -2.6636  -2.6348  -2.5863  -2.5500  -2.4733
    -2.4691  -2.4222  -2.3895  -2.3482  -2.3223  -2.2285  -2.1820  -2.1640
    -2.1334  -2.1257  -2.1092  -2.1030  -2.0147  -1.9961  -1.9779  -1.9522
    -1.9284  -1.9023  -1.8843  -1.8664  -1.8542  -1.8229  -1.7926  -1.7703
    -1.7320  -1.7135  -1.6952  -1.6761  -1.6625  -1.6308  -1.5966  -1.5740
    -1.5583  -1.5485  -1.5342  -1.5080  -1.4513  -1.4142  -1.3712  -1.3416
    -1.2893  -1.2687  -1.2032  -1.1806  -1.1534  -1.1128  -1.0518  -1.0059
    -0.8689  -0.8510  -0.6833  -0.6759  -0.6404  -0.6241  -0.6160  -0.5427
    -0.5367  -0.4451  -0.3844  -0.2537  -0.2085  -0.1952  -0.1642   0.0687
     0.1375   1.3206   1.5488

     occupation numbers 
     1.0000   1.0000   1.0000   1.0000   1.0000   1.0000   1.0000   1.0000
     1.0000   1.0000   1.0000   1.0000   1.0000   1.0000   1.0000   1.0000
     1.0000   1.0000   1.0000   1.0000   1.0000   1.0000   1.0000   1.0000
     1.0000   1.0000   1.0000   1.0000   1.0000   1.0000   1.0000   1.0000
     1.0000   1.0000   1.0000   1.0000   1.0000   1.0000   1.0000   1.0000
     1.0000   1.0000   1.0000   1.0000   1.0000   1.0000   1.0000   1.0000
     1.0000   1.0000   1.0000   1.0000   1.0000   1.0000   1.0000   1.0000
     1.0000   1.0000   1.0000   1.0000   1.0000   1.0000   1.0000   1.0000
     1.0000   1.0000   1.0000   1.0000   1.0000   1.0000   1.0000   1.0000
     1.0000   1.0000   1.0000   1.0000   1.0000   1.0000   1.0000   1.0000
     1.0000   1.0000   1.0000   1.0000   1.0000   1.0000   1.0000   1.0000
     1.0000   1.0000   1.0000   1.0000   1.0000   1.0000   1.0000   1.0000
     1.0000   1.0000   1.0000   1.0000   1.0000   1.0000   1.0000   1.0000
     1.0000   1.0000   1.0000   1.0000   1.0000   1.0000   1.0000   1.0000
     1.0000   1.0000   1.0000   1.0000   1.0000   1.0000   1.0000   1.0000
     1.0000   1.0000   1.0000   1.0000   1.0000   1.0000   1.0000   1.0000
     1.0000   1.0000   1.0000   1.0000   1.0000   1.0000   1.0000   1.0000
     1.0000   1.0000   1.0000   1.0000   1.0000   1.0000   1.0000   1.0000
     1.0000   1.0000   1.0000   1.0000   1.0000   1.0000   1.0000   1.0000
     1.0000   1.0000   1.0000   1.0000   1.0000   1.0000   1.0000   1.0000
     1.0000   1.0000   1.0000   1.0000   1.0000   1.0000   1.0000   1.0000
     1.0000   1.0000   1.0000   1.0000   1.0000   1.0000   1.0000   1.0000
     1.0000   1.0000   1.0000   1.0000   1.0000   1.0000   1.0000   1.0000
     1.0000   1.0000   1.0000   1.0000   1.0000   1.0000   1.0000   1.0000
     1.0000   1.0000   1.0000   1.0000   1.0000   1.0000   1.0000   1.0000
     1.0000   1.0000   1.0000   1.0000   1.0000   1.0000   1.0000   1.0000
     1.0000   1.0000   1.0000   1.0000   1.0000   1.0000   1.0000   1.0000
     1.0000   1.0000   1.0000   1.0000   1.0000   1.0000   1.0000   1.0000
     1.0000   1.0000   1.0000   1.0000   1.0000   1.0000   1.0000   1.0000
     1.0000   1.0000   1.0000   1.0000   1.0000   1.0000   1.0000   1.0000
     1.0000   1.0000   1.0000

          k =-0.4000 0.4619 0.0000 (112237 PWs)   bands (ev):

   -73.8167 -73.8144 -73.8109 -73.8090 -73.8059 -73.8045 -73.8031 -73.8007
   -73.7960 -73.7943 -73.7912 -73.7893 -73.7874 -73.7547 -73.7499 -73.7404
   -38.2021 -38.1953 -38.1858 -38.1825 -38.1799 -38.1736 -38.1661 -38.1493
   -38.1465 -38.1329 -38.0946 -38.0904 -38.0852 -38.0523 -38.0450 -38.0414
   -38.0333 -38.0315 -38.0213 -38.0131 -38.0084 -38.0055 -38.0038 -38.0004
   -37.9993 -37.9965 -37.9938 -37.9883 -37.9861 -37.9824 -37.9750 -37.9718
   -37.9698 -37.9682 -37.9614 -37.9580 -37.9548 -37.9531 -37.9501 -37.9480
   -37.9458 -37.9384 -37.9341 -37.9271 -37.9151 -37.8962 -37.8856 -37.8798
   -21.5174 -15.4350 -14.3396 -14.2897 -14.1162 -13.5970 -13.2989 -13.2952
   -12.9621 -12.9500 -12.8871 -12.8571 -12.8280 -12.8015 -12.7967 -12.6661
   -12.6347 -12.5965 -12.4945 -12.4840 -12.3884 -12.3759 -12.3485 -12.3264
   -12.3098 -12.2976 -12.2615 -12.2351 -12.2298 -12.1343 -12.1203 -12.1153
   -12.0803 -12.0168  -7.9529  -7.5477  -6.1752  -6.0604  -6.0255  -5.9700
    -5.9157  -5.8909  -5.8780  -5.8601  -5.8086  -5.7452  -5.6898  -5.6264
    -5.6108  -5.5418  -5.3584  -5.2872  -5.2482  -5.2173  -5.2023  -5.1692
    -5.1582  -4.8551  -4.8334  -4.7465  -4.6209  -4.5907  -4.5452  -4.5258
    -4.4921  -4.4274  -4.3851  -4.3265  -4.3089  -4.2427  -4.2277  -4.2096
    -4.1941  -4.1645  -4.1208  -4.0950  -3.9577  -3.9476  -3.7934  -3.6724
    -3.6292  -3.5904  -3.4351  -3.3985  -3.3643  -3.3268  -3.3095  -3.2822
    -3.2793  -3.2679  -3.2428  -3.2325  -3.2207  -3.2146  -3.1503  -3.1218
    -3.0978  -3.0860  -3.0596  -3.0476  -2.9983  -2.9540  -2.8518  -2.8167
    -2.7454  -2.7315  -2.7134  -2.6830  -2.6324  -2.5993  -2.5125  -2.4210
    -2.4013  -2.3316  -2.3237  -2.3186  -2.2687  -2.1996  -2.1753  -2.1613
    -2.1474  -2.0908  -2.0807  -2.0527  -2.0293  -1.9798  -1.9695  -1.9494
    -1.9331  -1.9190  -1.8954  -1.8844  -1.8693  -1.8557  -1.8455  -1.8427
    -1.8193  -1.7949  -1.7572  -1.7262  -1.7060  -1.6929  -1.6740  -1.6546
    -1.6273  -1.5861  -1.5371  -1.5062  -1.4851  -1.4623  -1.4217  -1.3185
    -1.2853  -1.2374  -1.1714  -1.1172  -1.0950  -1.0787  -1.0455  -0.9751
    -0.8149  -0.7888  -0.7032  -0.6924  -0.6587  -0.6471  -0.6007  -0.5846
    -0.5681  -0.4160  -0.2816  -0.2753  -0.1800  -0.1200  -0.0781   0.0893
     0.1864   1.3290   1.5660

     occupation numbers 
     1.0000   1.0000   1.0000   1.0000   1.0000   1.0000   1.0000   1.0000
     1.0000   1.0000   1.0000   1.0000   1.0000   1.0000   1.0000   1.0000
     1.0000   1.0000   1.0000   1.0000   1.0000   1.0000   1.0000   1.0000
     1.0000   1.0000   1.0000   1.0000   1.0000   1.0000   1.0000   1.0000
     1.0000   1.0000   1.0000   1.0000   1.0000   1.0000   1.0000   1.0000
     1.0000   1.0000   1.0000   1.0000   1.0000   1.0000   1.0000   1.0000
     1.0000   1.0000   1.0000   1.0000   1.0000   1.0000   1.0000   1.0000
     1.0000   1.0000   1.0000   1.0000   1.0000   1.0000   1.0000   1.0000
     1.0000   1.0000   1.0000   1.0000   1.0000   1.0000   1.0000   1.0000
     1.0000   1.0000   1.0000   1.0000   1.0000   1.0000   1.0000   1.0000
     1.0000   1.0000   1.0000   1.0000   1.0000   1.0000   1.0000   1.0000
     1.0000   1.0000   1.0000   1.0000   1.0000   1.0000   1.0000   1.0000
     1.0000   1.0000   1.0000   1.0000   1.0000   1.0000   1.0000   1.0000
     1.0000   1.0000   1.0000   1.0000   1.0000   1.0000   1.0000   1.0000
     1.0000   1.0000   1.0000   1.0000   1.0000   1.0000   1.0000   1.0000
     1.0000   1.0000   1.0000   1.0000   1.0000   1.0000   1.0000   1.0000
     1.0000   1.0000   1.0000   1.0000   1.0000   1.0000   1.0000   1.0000
     1.0000   1.0000   1.0000   1.0000   1.0000   1.0000   1.0000   1.0000
     1.0000   1.0000   1.0000   1.0000   1.0000   1.0000   1.0000   1.0000
     1.0000   1.0000   1.0000   1.0000   1.0000   1.0000   1.0000   1.0000
     1.0000   1.0000   1.0000   1.0000   1.0000   1.0000   1.0000   1.0000
     1.0000   1.0000   1.0000   1.0000   1.0000   1.0000   1.0000   1.0000
     1.0000   1.0000   1.0000   1.0000   1.0000   1.0000   1.0000   1.0000
     1.0000   1.0000   1.0000   1.0000   1.0000   1.0000   1.0000   1.0000
     1.0000   1.0000   1.0000   1.0000   1.0000   1.0000   1.0000   1.0000
     1.0000   1.0000   1.0000   1.0000   1.0000   1.0000   1.0000   1.0000
     1.0000   1.0000   1.0000   1.0000   1.0000   1.0000   1.0000   1.0000
     1.0000   1.0000   1.0000   1.0000   1.0000   1.0000   1.0000   1.0000
     1.0000   1.0000   1.0000   1.0000   1.0000   1.0000   1.0000   1.0000
     1.0000   1.0000   1.0000   1.0000   1.0000   1.0000   1.0000   1.0000
     1.0000   1.0000   1.0000

          k = 0.6000 0.1155 0.0000 (112237 PWs)   bands (ev):

   -73.8165 -73.8147 -73.8109 -73.8086 -73.8060 -73.8047 -73.8032 -73.8008
   -73.7959 -73.7944 -73.7910 -73.7895 -73.7874 -73.7547 -73.7499 -73.7404
   -38.2008 -38.1969 -38.1867 -38.1840 -38.1770 -38.1735 -38.1657 -38.1491
   -38.1473 -38.1327 -38.0940 -38.0923 -38.0848 -38.0519 -38.0451 -38.0412
   -38.0334 -38.0317 -38.0209 -38.0123 -38.0092 -38.0062 -38.0032 -38.0007
   -37.9997 -37.9951 -37.9935 -37.9892 -37.9863 -37.9823 -37.9748 -37.9720
   -37.9697 -37.9690 -37.9612 -37.9579 -37.9553 -37.9534 -37.9505 -37.9478
   -37.9419 -37.9390 -37.9323 -37.9296 -37.9162 -37.8971 -37.8871 -37.8775
   -21.5174 -15.4349 -14.3390 -14.2905 -14.1160 -13.5969 -13.3061 -13.2879
   -12.9680 -12.9439 -12.8821 -12.8607 -12.8284 -12.8019 -12.7973 -12.6686
   -12.6336 -12.5947 -12.5044 -12.4739 -12.3950 -12.3726 -12.3447 -12.3218
   -12.3107 -12.2998 -12.2647 -12.2356 -12.2307 -12.1321 -12.1211 -12.1157
   -12.0795 -12.0170  -7.9529  -7.5477  -6.1752  -6.0573  -6.0205  -5.9691
    -5.9292  -5.9072  -5.8774  -5.8357  -5.8078  -5.7502  -5.6917  -5.6242
    -5.6130  -5.5383  -5.3572  -5.2834  -5.2568  -5.2261  -5.1975  -5.1731
    -5.1490  -4.8571  -4.8401  -4.6965  -4.6479  -4.6105  -4.5523  -4.5151
    -4.4951  -4.4363  -4.3856  -4.3221  -4.3029  -4.2427  -4.2321  -4.2002
    -4.1925  -4.1682  -4.1205  -4.0965  -3.9584  -3.9480  -3.7898  -3.6699
    -3.6308  -3.5812  -3.4369  -3.3770  -3.3682  -3.3356  -3.3039  -3.2879
    -3.2852  -3.2623  -3.2462  -3.2353  -3.2215  -3.2037  -3.1809  -3.1442
    -3.0881  -3.0796  -3.0540  -3.0223  -3.0078  -2.9666  -2.8498  -2.8144
    -2.7535  -2.7330  -2.7267  -2.6589  -2.6418  -2.5620  -2.5219  -2.4689
    -2.3961  -2.3367  -2.3167  -2.2978  -2.2476  -2.2157  -2.1751  -2.1519
    -2.1302  -2.1057  -2.0779  -2.0492  -2.0205  -1.9852  -1.9693  -1.9601
    -1.9390  -1.9137  -1.9038  -1.8828  -1.8734  -1.8630  -1.8542  -1.8452
    -1.8121  -1.7987  -1.7472  -1.7333  -1.7065  -1.6940  -1.6666  -1.6450
    -1.6278  -1.6062  -1.5396  -1.5222  -1.4773  -1.4351  -1.4073  -1.3305
    -1.2941  -1.2315  -1.1617  -1.1404  -1.0968  -1.0594  -1.0240  -0.9944
    -0.8112  -0.7953  -0.6987  -0.6969  -0.6597  -0.6532  -0.6014  -0.5961
    -0.5536  -0.4174  -0.2836  -0.2684  -0.1774  -0.1250  -0.0774   0.0901
     0.1867   1.3188   1.5784

     occupation numbers 
     1.0000   1.0000   1.0000   1.0000   1.0000   1.0000   1.0000   1.0000
     1.0000   1.0000   1.0000   1.0000   1.0000   1.0000   1.0000   1.0000
     1.0000   1.0000   1.0000   1.0000   1.0000   1.0000   1.0000   1.0000
     1.0000   1.0000   1.0000   1.0000   1.0000   1.0000   1.0000   1.0000
     1.0000   1.0000   1.0000   1.0000   1.0000   1.0000   1.0000   1.0000
     1.0000   1.0000   1.0000   1.0000   1.0000   1.0000   1.0000   1.0000
     1.0000   1.0000   1.0000   1.0000   1.0000   1.0000   1.0000   1.0000
     1.0000   1.0000   1.0000   1.0000   1.0000   1.0000   1.0000   1.0000
     1.0000   1.0000   1.0000   1.0000   1.0000   1.0000   1.0000   1.0000
     1.0000   1.0000   1.0000   1.0000   1.0000   1.0000   1.0000   1.0000
     1.0000   1.0000   1.0000   1.0000   1.0000   1.0000   1.0000   1.0000
     1.0000   1.0000   1.0000   1.0000   1.0000   1.0000   1.0000   1.0000
     1.0000   1.0000   1.0000   1.0000   1.0000   1.0000   1.0000   1.0000
     1.0000   1.0000   1.0000   1.0000   1.0000   1.0000   1.0000   1.0000
     1.0000   1.0000   1.0000   1.0000   1.0000   1.0000   1.0000   1.0000
     1.0000   1.0000   1.0000   1.0000   1.0000   1.0000   1.0000   1.0000
     1.0000   1.0000   1.0000   1.0000   1.0000   1.0000   1.0000   1.0000
     1.0000   1.0000   1.0000   1.0000   1.0000   1.0000   1.0000   1.0000
     1.0000   1.0000   1.0000   1.0000   1.0000   1.0000   1.0000   1.0000
     1.0000   1.0000   1.0000   1.0000   1.0000   1.0000   1.0000   1.0000
     1.0000   1.0000   1.0000   1.0000   1.0000   1.0000   1.0000   1.0000
     1.0000   1.0000   1.0000   1.0000   1.0000   1.0000   1.0000   1.0000
     1.0000   1.0000   1.0000   1.0000   1.0000   1.0000   1.0000   1.0000
     1.0000   1.0000   1.0000   1.0000   1.0000   1.0000   1.0000   1.0000
     1.0000   1.0000   1.0000   1.0000   1.0000   1.0000   1.0000   1.0000
     1.0000   1.0000   1.0000   1.0000   1.0000   1.0000   1.0000   1.0000
     1.0000   1.0000   1.0000   1.0000   1.0000   1.0000   1.0000   1.0000
     1.0000   1.0000   1.0000   1.0000   1.0000   1.0000   1.0000   1.0000
     1.0000   1.0000   1.0000   1.0000   1.0000   1.0000   1.0000   1.0000
     1.0000   1.0000   1.0000   1.0000   1.0000   1.0000   1.0000   1.0000
     1.0000   1.0000   1.0000

 ------ SPIN DOWN ----------


          k = 0.0000 0.0000 0.0000 (112117 PWs)   bands (ev):

   -73.8139 -73.8094 -73.8064 -73.8046 -73.8024 -73.8016 -73.7984 -73.7960
   -73.7938 -73.7888 -73.7879 -73.7863 -73.7822 -73.7412 -73.7316 -73.7287
   -38.2160 -38.2148 -38.2128 -38.1568 -38.1561 -38.1520 -38.1473 -38.1462
   -38.1349 -38.0557 -38.0506 -38.0480 -38.0475 -38.0415 -38.0385 -38.0372
   -38.0244 -38.0225 -38.0206 -38.0194 -38.0167 -38.0165 -38.0151 -38.0121
   -38.0090 -38.0057 -38.0043 -37.9993 -37.9925 -37.9890 -37.9865 -37.9850
   -37.9835 -37.9764 -37.9523 -37.9514 -37.9485 -37.9448 -37.9355 -37.9249
   -37.9189 -37.9080 -37.9057 -37.9042 -37.9017 -37.8910 -37.8585 -37.8565
   -21.5161 -15.4338 -14.5947 -13.7059 -13.6913 -13.6713 -13.6425 -13.6286
   -13.6193 -12.9793 -12.7051 -12.6746 -12.6504 -12.6359 -12.6008 -12.5800
   -12.5326 -12.5038 -12.4679 -12.4550 -12.4434 -12.4417 -12.4206 -12.4191
   -12.4153 -12.2204 -12.1982 -12.1884 -12.1717 -12.1561 -12.1522 -12.1479
   -12.1459 -12.1435  -7.9511  -7.5458  -6.3359  -6.3227  -6.3051  -6.2753
    -6.1660  -5.6001  -5.5685  -5.5445  -5.5287  -5.5245  -5.4920  -5.4378
    -5.4050  -5.3863  -5.3110  -5.2798  -5.2598  -5.0990  -5.0899  -5.0619
    -5.0572  -5.0532  -5.0524  -4.9965  -4.9958  -4.9873  -4.5114  -4.4321
    -4.3924  -4.3431  -4.2893  -4.2803  -4.2644  -4.2431  -4.2297  -4.1761
    -4.0771  -4.0064  -3.9753  -3.9602  -3.9339  -3.7883  -3.7557  -3.7518
    -3.6980  -3.6760  -3.6730  -3.5994  -3.5076  -3.4682  -3.4029  -3.3991
    -3.3715  -3.3648  -3.2748  -3.2190  -3.1929  -3.1792  -3.1574  -3.1397
    -3.1267  -3.1218  -3.1075  -3.1051  -3.0396  -2.9244  -2.7919  -2.7478
    -2.6871  -2.6658  -2.6201  -2.5856  -2.5726  -2.5019  -2.4914  -2.4626
    -2.4577  -2.4304  -2.4277  -2.4227  -2.3896  -2.3294  -2.2725  -2.1861
    -2.1152  -2.0537  -1.9641  -1.9591  -1.9298  -1.9163  -1.8651  -1.8223
    -1.7986  -1.7749  -1.7636  -1.7609  -1.7485  -1.7468  -1.7408  -1.7338
    -1.7318  -1.6992  -1.6892  -1.6557  -1.6462  -1.6341  -1.6314  -1.5982
    -1.5727  -1.5257  -1.5156  -1.4883  -1.4478  -1.4088  -1.3693  -1.3518
    -1.2897  -1.2611  -1.1833  -1.0872  -1.0345  -1.0259  -1.0092  -0.9898
    -0.7222  -0.6870  -0.6829  -0.6825  -0.6695  -0.6648  -0.6427  -0.6362
    -0.6198  -0.3925  -0.3811  -0.3712  -0.3560  -0.3392  -0.3298  -0.2946
     0.2183   1.3018   1.6763

     occupation numbers 
     1.0000   1.0000   1.0000   1.0000   1.0000   1.0000   1.0000   1.0000
     1.0000   1.0000   1.0000   1.0000   1.0000   1.0000   1.0000   1.0000
     1.0000   1.0000   1.0000   1.0000   1.0000   1.0000   1.0000   1.0000
     1.0000   1.0000   1.0000   1.0000   1.0000   1.0000   1.0000   1.0000
     1.0000   1.0000   1.0000   1.0000   1.0000   1.0000   1.0000   1.0000
     1.0000   1.0000   1.0000   1.0000   1.0000   1.0000   1.0000   1.0000
     1.0000   1.0000   1.0000   1.0000   1.0000   1.0000   1.0000   1.0000
     1.0000   1.0000   1.0000   1.0000   1.0000   1.0000   1.0000   1.0000
     1.0000   1.0000   1.0000   1.0000   1.0000   1.0000   1.0000   1.0000
     1.0000   1.0000   1.0000   1.0000   1.0000   1.0000   1.0000   1.0000
     1.0000   1.0000   1.0000   1.0000   1.0000   1.0000   1.0000   1.0000
     1.0000   1.0000   1.0000   1.0000   1.0000   1.0000   1.0000   1.0000
     1.0000   1.0000   1.0000   1.0000   1.0000   1.0000   1.0000   1.0000
     1.0000   1.0000   1.0000   1.0000   1.0000   1.0000   1.0000   1.0000
     1.0000   1.0000   1.0000   1.0000   1.0000   1.0000   1.0000   1.0000
     1.0000   1.0000   1.0000   1.0000   1.0000   1.0000   1.0000   1.0000
     1.0000   1.0000   1.0000   1.0000   1.0000   1.0000   1.0000   1.0000
     1.0000   1.0000   1.0000   1.0000   1.0000   1.0000   1.0000   1.0000
     1.0000   1.0000   1.0000   1.0000   1.0000   1.0000   1.0000   1.0000
     1.0000   1.0000   1.0000   1.0000   1.0000   1.0000   1.0000   1.0000
     1.0000   1.0000   1.0000   1.0000   1.0000   1.0000   1.0000   1.0000
     1.0000   1.0000   1.0000   1.0000   1.0000   1.0000   1.0000   1.0000
     1.0000   1.0000   1.0000   1.0000   1.0000   1.0000   1.0000   1.0000
     1.0000   1.0000   1.0000   1.0000   1.0000   1.0000   1.0000   1.0000
     1.0000   1.0000   1.0000   1.0000   1.0000   1.0000   1.0000   1.0000
     1.0000   1.0000   1.0000   1.0000   1.0000   1.0000   1.0000   1.0000
     1.0000   1.0000   1.0000   1.0000   1.0000   1.0000   1.0000   1.0000
     1.0000   1.0000   1.0000   1.0000   1.0000   1.0000   1.0000   1.0000
     1.0000   1.0000   1.0000   1.0000   1.0000   1.0000   1.0000   1.0000
     1.0000   1.0000   1.0000   1.0000   1.0000   1.0000   1.0000   1.0000
     1.0000   1.0000   0.0000

          k = 0.0000 0.2309 0.0000 (112171 PWs)   bands (ev):

   -73.8138 -73.8095 -73.8066 -73.8045 -73.8025 -73.8014 -73.7983 -73.7960
   -73.7939 -73.7888 -73.7879 -73.7863 -73.7822 -73.7413 -73.7316 -73.7287
   -38.2112 -38.2094 -38.2064 -38.1604 -38.1589 -38.1575 -38.1503 -38.1397
   -38.1316 -38.0964 -38.0710 -38.0697 -38.0463 -38.0424 -38.0376 -38.0268
   -38.0254 -38.0202 -38.0172 -38.0160 -38.0132 -38.0103 -38.0087 -38.0053
   -37.9992 -37.9945 -37.9941 -37.9906 -37.9880 -37.9866 -37.9839 -37.9831
   -37.9793 -37.9763 -37.9554 -37.9530 -37.9489 -37.9456 -37.9356 -37.9259
   -37.9253 -37.9145 -37.9106 -37.9027 -37.8987 -37.8895 -37.8642 -37.8592
   -21.5161 -15.4338 -14.5531 -13.9729 -13.7987 -13.7827 -13.4886 -13.4587
   -13.3219 -12.9633 -12.8000 -12.7321 -12.6929 -12.6846 -12.6526 -12.5830
   -12.5520 -12.5390 -12.4917 -12.4749 -12.4537 -12.4330 -12.4219 -12.3137
   -12.2826 -12.2603 -12.2418 -12.2125 -12.1829 -12.1725 -12.1656 -12.1508
   -12.0938 -12.0781  -7.9511  -7.5458  -6.2748  -6.2642  -6.2327  -6.2291
    -6.1637  -5.6590  -5.6395  -5.6229  -5.5529  -5.5143  -5.4858  -5.4669
    -5.4227  -5.4124  -5.3900  -5.3174  -5.3132  -5.2826  -5.2658  -5.0686
    -5.0637  -5.0129  -4.9991  -4.9510  -4.7357  -4.7310  -4.5801  -4.4731
    -4.4445  -4.3806  -4.3179  -4.2806  -4.2027  -4.1571  -4.1421  -4.1160
    -4.0958  -4.0577  -4.0396  -3.9976  -3.9814  -3.9072  -3.9048  -3.8972
    -3.6554  -3.5661  -3.5351  -3.5014  -3.4623  -3.4377  -3.4333  -3.3797
    -3.3606  -3.3093  -3.2885  -3.2748  -3.2614  -3.2027  -3.1887  -3.1459
    -3.0731  -2.9807  -2.9370  -2.9212  -2.8425  -2.7751  -2.7555  -2.7412
    -2.7153  -2.7075  -2.6921  -2.6684  -2.6420  -2.6246  -2.5824  -2.5379
    -2.4994  -2.4947  -2.4635  -2.4282  -2.3474  -2.3014  -2.1851  -2.1565
    -2.1037  -2.0607  -2.0084  -1.9927  -1.9676  -1.9484  -1.9221  -1.9002
    -1.8810  -1.8515  -1.8398  -1.8100  -1.7761  -1.7514  -1.7361  -1.7226
    -1.7146  -1.6927  -1.6770  -1.6513  -1.6358  -1.5994  -1.5782  -1.5380
    -1.5227  -1.4880  -1.4762  -1.4477  -1.4283  -1.3640  -1.3314  -1.3185
    -1.2931  -1.2719  -1.2322  -1.2136  -1.1488  -1.0615  -1.0381  -1.0048
    -0.8871  -0.7734  -0.7551  -0.7386  -0.5631  -0.5589  -0.5418  -0.5279
    -0.5148  -0.5020  -0.4024  -0.3716  -0.3559  -0.2425  -0.1652  -0.1347
     0.2003   1.3077   1.7074

     occupation numbers 
     1.0000   1.0000   1.0000   1.0000   1.0000   1.0000   1.0000   1.0000
     1.0000   1.0000   1.0000   1.0000   1.0000   1.0000   1.0000   1.0000
     1.0000   1.0000   1.0000   1.0000   1.0000   1.0000   1.0000   1.0000
     1.0000   1.0000   1.0000   1.0000   1.0000   1.0000   1.0000   1.0000
     1.0000   1.0000   1.0000   1.0000   1.0000   1.0000   1.0000   1.0000
     1.0000   1.0000   1.0000   1.0000   1.0000   1.0000   1.0000   1.0000
     1.0000   1.0000   1.0000   1.0000   1.0000   1.0000   1.0000   1.0000
     1.0000   1.0000   1.0000   1.0000   1.0000   1.0000   1.0000   1.0000
     1.0000   1.0000   1.0000   1.0000   1.0000   1.0000   1.0000   1.0000
     1.0000   1.0000   1.0000   1.0000   1.0000   1.0000   1.0000   1.0000
     1.0000   1.0000   1.0000   1.0000   1.0000   1.0000   1.0000   1.0000
     1.0000   1.0000   1.0000   1.0000   1.0000   1.0000   1.0000   1.0000
     1.0000   1.0000   1.0000   1.0000   1.0000   1.0000   1.0000   1.0000
     1.0000   1.0000   1.0000   1.0000   1.0000   1.0000   1.0000   1.0000
     1.0000   1.0000   1.0000   1.0000   1.0000   1.0000   1.0000   1.0000
     1.0000   1.0000   1.0000   1.0000   1.0000   1.0000   1.0000   1.0000
     1.0000   1.0000   1.0000   1.0000   1.0000   1.0000   1.0000   1.0000
     1.0000   1.0000   1.0000   1.0000   1.0000   1.0000   1.0000   1.0000
     1.0000   1.0000   1.0000   1.0000   1.0000   1.0000   1.0000   1.0000
     1.0000   1.0000   1.0000   1.0000   1.0000   1.0000   1.0000   1.0000
     1.0000   1.0000   1.0000   1.0000   1.0000   1.0000   1.0000   1.0000
     1.0000   1.0000   1.0000   1.0000   1.0000   1.0000   1.0000   1.0000
     1.0000   1.0000   1.0000   1.0000   1.0000   1.0000   1.0000   1.0000
     1.0000   1.0000   1.0000   1.0000   1.0000   1.0000   1.0000   1.0000
     1.0000   1.0000   1.0000   1.0000   1.0000   1.0000   1.0000   1.0000
     1.0000   1.0000   1.0000   1.0000   1.0000   1.0000   1.0000   1.0000
     1.0000   1.0000   1.0000   1.0000   1.0000   1.0000   1.0000   1.0000
     1.0000   1.0000   1.0000   1.0000   1.0000   1.0000   1.0000   1.0000
     1.0000   1.0000   1.0000   1.0000   1.0000   1.0000   1.0000   1.0000
     1.0000   1.0000   1.0000   1.0000   1.0000   1.0000   1.0000   1.0000
     1.0000   1.0000   0.0000

          k = 0.0000 0.4619 0.0000 (112236 PWs)   bands (ev):

   -73.8136 -73.8096 -73.8069 -73.8044 -73.8027 -73.8011 -73.7982 -73.7959
   -73.7941 -73.7888 -73.7878 -73.7863 -73.7822 -73.7413 -73.7316 -73.7287
   -38.2006 -38.1964 -38.1848 -38.1777 -38.1727 -38.1582 -38.1546 -38.1386
   -38.1241 -38.1169 -38.0960 -38.0933 -38.0564 -38.0501 -38.0427 -38.0331
   -38.0270 -38.0157 -38.0101 -38.0072 -38.0028 -38.0016 -37.9985 -37.9974
   -37.9947 -37.9915 -37.9912 -37.9875 -37.9839 -37.9823 -37.9763 -37.9732
   -37.9669 -37.9605 -37.9585 -37.9505 -37.9450 -37.9412 -37.9388 -37.9335
   -37.9322 -37.9222 -37.9176 -37.9091 -37.8989 -37.8841 -37.8781 -37.8626
   -21.5161 -15.4338 -14.4313 -14.2300 -13.8682 -13.8507 -13.2593 -13.2275
   -13.0148 -12.9961 -12.9673 -12.9134 -12.8301 -12.7263 -12.7020 -12.6862
   -12.5173 -12.5098 -12.4581 -12.4473 -12.4338 -12.4230 -12.3799 -12.3662
   -12.3480 -12.2820 -12.2129 -12.1993 -12.1748 -12.1567 -12.1550 -12.1506
   -12.0546 -12.0372  -7.9511  -7.5458  -6.1757  -6.1187  -6.1051  -6.0860
    -6.0208  -5.8675  -5.8555  -5.8304  -5.7080  -5.5278  -5.4952  -5.4823
    -5.4551  -5.4423  -5.4333  -5.3874  -5.3700  -5.3206  -5.2972  -5.0637
    -5.0584  -5.0256  -5.0062  -4.8026  -4.6212  -4.5165  -4.4789  -4.4349
    -4.3903  -4.3706  -4.3446  -4.3068  -4.2403  -4.2255  -4.1877  -4.1560
    -4.1252  -4.1142  -4.0996  -4.0731  -4.0630  -4.0482  -4.0381  -3.6793
    -3.5650  -3.5033  -3.4718  -3.4370  -3.4124  -3.3830  -3.3626  -3.3062
    -3.2848  -3.2758  -3.2572  -3.2326  -3.2150  -3.1823  -3.1529  -3.1026
    -3.0583  -3.0455  -3.0015  -2.9499  -2.9320  -2.9047  -2.8419  -2.7582
    -2.7224  -2.6928  -2.6427  -2.6274  -2.5924  -2.5527  -2.5242  -2.4779
    -2.4390  -2.4249  -2.3885  -2.3104  -2.2728  -2.2464  -2.2373  -2.1690
    -2.1025  -2.0809  -2.0332  -2.0084  -2.0016  -1.9901  -1.9697  -1.9344
    -1.9177  -1.8967  -1.8740  -1.8637  -1.8489  -1.8368  -1.8273  -1.8212
    -1.7613  -1.7529  -1.7103  -1.7026  -1.6782  -1.6517  -1.6223  -1.6087
    -1.5806  -1.5469  -1.5157  -1.4859  -1.4183  -1.3805  -1.2962  -1.2784
    -1.2222  -1.1952  -1.1850  -1.1381  -1.1117  -1.0909  -1.0384  -0.9908
    -0.9655  -0.8837  -0.7273  -0.7124  -0.6349  -0.6149  -0.4783  -0.4498
    -0.4381  -0.4265  -0.3928  -0.3695  -0.2986  -0.0817   0.0069   0.0365
     0.1538   1.3163   1.7584

     occupation numbers 
     1.0000   1.0000   1.0000   1.0000   1.0000   1.0000   1.0000   1.0000
     1.0000   1.0000   1.0000   1.0000   1.0000   1.0000   1.0000   1.0000
     1.0000   1.0000   1.0000   1.0000   1.0000   1.0000   1.0000   1.0000
     1.0000   1.0000   1.0000   1.0000   1.0000   1.0000   1.0000   1.0000
     1.0000   1.0000   1.0000   1.0000   1.0000   1.0000   1.0000   1.0000
     1.0000   1.0000   1.0000   1.0000   1.0000   1.0000   1.0000   1.0000
     1.0000   1.0000   1.0000   1.0000   1.0000   1.0000   1.0000   1.0000
     1.0000   1.0000   1.0000   1.0000   1.0000   1.0000   1.0000   1.0000
     1.0000   1.0000   1.0000   1.0000   1.0000   1.0000   1.0000   1.0000
     1.0000   1.0000   1.0000   1.0000   1.0000   1.0000   1.0000   1.0000
     1.0000   1.0000   1.0000   1.0000   1.0000   1.0000   1.0000   1.0000
     1.0000   1.0000   1.0000   1.0000   1.0000   1.0000   1.0000   1.0000
     1.0000   1.0000   1.0000   1.0000   1.0000   1.0000   1.0000   1.0000
     1.0000   1.0000   1.0000   1.0000   1.0000   1.0000   1.0000   1.0000
     1.0000   1.0000   1.0000   1.0000   1.0000   1.0000   1.0000   1.0000
     1.0000   1.0000   1.0000   1.0000   1.0000   1.0000   1.0000   1.0000
     1.0000   1.0000   1.0000   1.0000   1.0000   1.0000   1.0000   1.0000
     1.0000   1.0000   1.0000   1.0000   1.0000   1.0000   1.0000   1.0000
     1.0000   1.0000   1.0000   1.0000   1.0000   1.0000   1.0000   1.0000
     1.0000   1.0000   1.0000   1.0000   1.0000   1.0000   1.0000   1.0000
     1.0000   1.0000   1.0000   1.0000   1.0000   1.0000   1.0000   1.0000
     1.0000   1.0000   1.0000   1.0000   1.0000   1.0000   1.0000   1.0000
     1.0000   1.0000   1.0000   1.0000   1.0000   1.0000   1.0000   1.0000
     1.0000   1.0000   1.0000   1.0000   1.0000   1.0000   1.0000   1.0000
     1.0000   1.0000   1.0000   1.0000   1.0000   1.0000   1.0000   1.0000
     1.0000   1.0000   1.0000   1.0000   1.0000   1.0000   1.0000   1.0000
     1.0000   1.0000   1.0000   1.0000   1.0000   1.0000   1.0000   1.0000
     1.0000   1.0000   1.0000   1.0000   1.0000   1.0000   1.0000   1.0000
     1.0000   1.0000   1.0000   1.0000   1.0000   1.0000   1.0000   1.0000
     1.0000   1.0000   1.0000   1.0000   1.0000   1.0000   1.0000   1.0000
     1.0000   1.0000   0.0000

          k = 0.2000 0.3464 0.0000 (112231 PWs)   bands (ev):

   -73.8136 -73.8097 -73.8067 -73.8045 -73.8025 -73.8011 -73.7985 -73.7960
   -73.7938 -73.7889 -73.7878 -73.7864 -73.7822 -73.7413 -73.7316 -73.7287
   -38.2049 -38.1958 -38.1951 -38.1724 -38.1672 -38.1582 -38.1483 -38.1411
   -38.1264 -38.1158 -38.1051 -38.0701 -38.0531 -38.0476 -38.0432 -38.0318
   -38.0270 -38.0223 -38.0170 -38.0143 -38.0108 -38.0053 -37.9986 -37.9970
   -37.9915 -37.9883 -37.9867 -37.9845 -37.9822 -37.9797 -37.9764 -37.9752
   -37.9697 -37.9657 -37.9573 -37.9519 -37.9492 -37.9464 -37.9376 -37.9332
   -37.9266 -37.9203 -37.9173 -37.9090 -37.8958 -37.8890 -37.8738 -37.8613
   -21.5161 -15.4338 -14.4712 -14.0982 -14.0569 -13.5628 -13.5608 -13.1688
   -13.1165 -13.0052 -12.9313 -12.8050 -12.7861 -12.7063 -12.6697 -12.6006
   -12.5912 -12.5739 -12.5688 -12.4537 -12.4221 -12.3877 -12.3736 -12.3098
   -12.2880 -12.2696 -12.2501 -12.2297 -12.2189 -12.1523 -12.1477 -12.1051
   -12.0939 -12.0337  -7.9511  -7.5458  -6.1814  -6.1701  -6.1404  -6.1192
    -6.1010  -5.7538  -5.7307  -5.7158  -5.6753  -5.6401  -5.5980  -5.5596
    -5.5009  -5.4692  -5.3505  -5.3280  -5.2801  -5.2707  -5.2386  -5.2218
    -5.0914  -4.8994  -4.8849  -4.8098  -4.7486  -4.5926  -4.4833  -4.4576
    -4.3907  -4.3612  -4.3335  -4.2980  -4.2725  -4.2592  -4.2290  -4.2212
    -4.1680  -4.1180  -4.1031  -4.0879  -4.0526  -3.7560  -3.7298  -3.7206
    -3.7130  -3.6876  -3.5977  -3.4898  -3.4217  -3.3901  -3.3447  -3.3143
    -3.2802  -3.2397  -3.2171  -3.1986  -3.1620  -3.1458  -3.0939  -3.0873
    -3.0326  -3.0005  -2.9649  -2.9436  -2.9356  -2.9180  -2.9031  -2.8905
    -2.7931  -2.7179  -2.6890  -2.6403  -2.6040  -2.5369  -2.5027  -2.4705
    -2.4540  -2.4250  -2.3802  -2.3538  -2.3042  -2.2086  -2.1711  -2.1534
    -2.1205  -2.1190  -2.0813  -2.0712  -1.9960  -1.9815  -1.9655  -1.9378
    -1.9164  -1.8927  -1.8688  -1.8446  -1.8291  -1.8148  -1.7867  -1.7374
    -1.7225  -1.7073  -1.6978  -1.6630  -1.6567  -1.6095  -1.5819  -1.5685
    -1.5600  -1.5336  -1.5215  -1.4943  -1.4142  -1.3823  -1.3683  -1.3556
    -1.2792  -1.2159  -1.1994  -1.1751  -1.1482  -1.1037  -1.0214  -0.9925
    -0.8679  -0.8363  -0.6744  -0.6646  -0.6305  -0.6212  -0.6079  -0.5329
    -0.5242  -0.4191  -0.3679  -0.2493  -0.2002  -0.1909  -0.1430   0.0804
     0.1656   1.3301   1.7286

     occupation numbers 
     1.0000   1.0000   1.0000   1.0000   1.0000   1.0000   1.0000   1.0000
     1.0000   1.0000   1.0000   1.0000   1.0000   1.0000   1.0000   1.0000
     1.0000   1.0000   1.0000   1.0000   1.0000   1.0000   1.0000   1.0000
     1.0000   1.0000   1.0000   1.0000   1.0000   1.0000   1.0000   1.0000
     1.0000   1.0000   1.0000   1.0000   1.0000   1.0000   1.0000   1.0000
     1.0000   1.0000   1.0000   1.0000   1.0000   1.0000   1.0000   1.0000
     1.0000   1.0000   1.0000   1.0000   1.0000   1.0000   1.0000   1.0000
     1.0000   1.0000   1.0000   1.0000   1.0000   1.0000   1.0000   1.0000
     1.0000   1.0000   1.0000   1.0000   1.0000   1.0000   1.0000   1.0000
     1.0000   1.0000   1.0000   1.0000   1.0000   1.0000   1.0000   1.0000
     1.0000   1.0000   1.0000   1.0000   1.0000   1.0000   1.0000   1.0000
     1.0000   1.0000   1.0000   1.0000   1.0000   1.0000   1.0000   1.0000
     1.0000   1.0000   1.0000   1.0000   1.0000   1.0000   1.0000   1.0000
     1.0000   1.0000   1.0000   1.0000   1.0000   1.0000   1.0000   1.0000
     1.0000   1.0000   1.0000   1.0000   1.0000   1.0000   1.0000   1.0000
     1.0000   1.0000   1.0000   1.0000   1.0000   1.0000   1.0000   1.0000
     1.0000   1.0000   1.0000   1.0000   1.0000   1.0000   1.0000   1.0000
     1.0000   1.0000   1.0000   1.0000   1.0000   1.0000   1.0000   1.0000
     1.0000   1.0000   1.0000   1.0000   1.0000   1.0000   1.0000   1.0000
     1.0000   1.0000   1.0000   1.0000   1.0000   1.0000   1.0000   1.0000
     1.0000   1.0000   1.0000   1.0000   1.0000   1.0000   1.0000   1.0000
     1.0000   1.0000   1.0000   1.0000   1.0000   1.0000   1.0000   1.0000
     1.0000   1.0000   1.0000   1.0000   1.0000   1.0000   1.0000   1.0000
     1.0000   1.0000   1.0000   1.0000   1.0000   1.0000   1.0000   1.0000
     1.0000   1.0000   1.0000   1.0000   1.0000   1.0000   1.0000   1.0000
     1.0000   1.0000   1.0000   1.0000   1.0000   1.0000   1.0000   1.0000
     1.0000   1.0000   1.0000   1.0000   1.0000   1.0000   1.0000   1.0000
     1.0000   1.0000   1.0000   1.0000   1.0000   1.0000   1.0000   1.0000
     1.0000   1.0000   1.0000   1.0000   1.0000   1.0000   1.0000   1.0000
     1.0000   1.0000   1.0000   1.0000   1.0000   1.0000   1.0000   1.0000
     1.0000   1.0000   0.0000

          k = 0.2000 0.5774 0.0000 (112237 PWs)   bands (ev):

   -73.8136 -73.8097 -73.8069 -73.8045 -73.8025 -73.8011 -73.7983 -73.7959
   -73.7940 -73.7889 -73.7878 -73.7863 -73.7822 -73.7413 -73.7316 -73.7287
   -38.1957 -38.1887 -38.1800 -38.1759 -38.1702 -38.1663 -38.1582 -38.1429
   -38.1389 -38.1228 -38.0855 -38.0842 -38.0763 -38.0448 -38.0410 -38.0345
   -38.0290 -38.0226 -38.0133 -38.0097 -38.0037 -37.9999 -37.9980 -37.9961
   -37.9950 -37.9931 -37.9884 -37.9843 -37.9818 -37.9762 -37.9690 -37.9650
   -37.9599 -37.9556 -37.9533 -37.9504 -37.9493 -37.9417 -37.9380 -37.9345
   -37.9312 -37.9243 -37.9202 -37.9161 -37.9043 -37.8867 -37.8744 -37.8659
   -21.5161 -15.4338 -14.3314 -14.2894 -14.1114 -13.5917 -13.2957 -13.2909
   -12.9475 -12.9442 -12.8851 -12.8498 -12.8375 -12.7996 -12.7901 -12.6548
   -12.6275 -12.5997 -12.4880 -12.4815 -12.3798 -12.3683 -12.3548 -12.3213
   -12.3068 -12.2949 -12.2555 -12.2311 -12.2300 -12.1280 -12.1179 -12.1156
   -12.0768 -12.0142  -7.9511  -7.5458  -6.1728  -6.0442  -5.9980  -5.9813
    -5.9147  -5.8897  -5.8704  -5.8437  -5.8049  -5.7397  -5.6814  -5.6181
    -5.6095  -5.5368  -5.3579  -5.2602  -5.2501  -5.2132  -5.1980  -5.1660
    -5.1498  -4.8506  -4.8268  -4.7433  -4.6268  -4.5708  -4.5411  -4.5140
    -4.4683  -4.4113  -4.3917  -4.3116  -4.3054  -4.2352  -4.2279  -4.2078
    -4.1816  -4.1608  -4.1185  -4.0921  -3.9490  -3.9455  -3.7841  -3.6563
    -3.6344  -3.5597  -3.4268  -3.3830  -3.3499  -3.3175  -3.2976  -3.2791
    -3.2644  -3.2552  -3.2372  -3.2276  -3.2102  -3.1947  -3.1353  -3.1162
    -3.0919  -3.0740  -3.0561  -3.0239  -2.9920  -2.9219  -2.8676  -2.8117
    -2.7290  -2.6979  -2.6786  -2.6558  -2.5993  -2.5405  -2.4933  -2.4415
    -2.3843  -2.3266  -2.3143  -2.3001  -2.2447  -2.1894  -2.1669  -2.1239
    -2.1078  -2.0930  -2.0679  -2.0464  -2.0062  -1.9728  -1.9536  -1.9426
    -1.9244  -1.9049  -1.8854  -1.8690  -1.8605  -1.8479  -1.8375  -1.8279
    -1.8104  -1.7711  -1.7505  -1.7253  -1.6947  -1.6714  -1.6578  -1.6355
    -1.6020  -1.5606  -1.5430  -1.4902  -1.4721  -1.4575  -1.3917  -1.3204
    -1.2656  -1.1847  -1.1517  -1.1337  -1.0870  -1.0726  -0.9981  -0.9746
    -0.8064  -0.7913  -0.6950  -0.6827  -0.6497  -0.6355  -0.5854  -0.5744
    -0.5564  -0.3923  -0.2714  -0.2621  -0.1800  -0.1169  -0.0564   0.1209
     0.1971   1.3382   1.7417

     occupation numbers 
     1.0000   1.0000   1.0000   1.0000   1.0000   1.0000   1.0000   1.0000
     1.0000   1.0000   1.0000   1.0000   1.0000   1.0000   1.0000   1.0000
     1.0000   1.0000   1.0000   1.0000   1.0000   1.0000   1.0000   1.0000
     1.0000   1.0000   1.0000   1.0000   1.0000   1.0000   1.0000   1.0000
     1.0000   1.0000   1.0000   1.0000   1.0000   1.0000   1.0000   1.0000
     1.0000   1.0000   1.0000   1.0000   1.0000   1.0000   1.0000   1.0000
     1.0000   1.0000   1.0000   1.0000   1.0000   1.0000   1.0000   1.0000
     1.0000   1.0000   1.0000   1.0000   1.0000   1.0000   1.0000   1.0000
     1.0000   1.0000   1.0000   1.0000   1.0000   1.0000   1.0000   1.0000
     1.0000   1.0000   1.0000   1.0000   1.0000   1.0000   1.0000   1.0000
     1.0000   1.0000   1.0000   1.0000   1.0000   1.0000   1.0000   1.0000
     1.0000   1.0000   1.0000   1.0000   1.0000   1.0000   1.0000   1.0000
     1.0000   1.0000   1.0000   1.0000   1.0000   1.0000   1.0000   1.0000
     1.0000   1.0000   1.0000   1.0000   1.0000   1.0000   1.0000   1.0000
     1.0000   1.0000   1.0000   1.0000   1.0000   1.0000   1.0000   1.0000
     1.0000   1.0000   1.0000   1.0000   1.0000   1.0000   1.0000   1.0000
     1.0000   1.0000   1.0000   1.0000   1.0000   1.0000   1.0000   1.0000
     1.0000   1.0000   1.0000   1.0000   1.0000   1.0000   1.0000   1.0000
     1.0000   1.0000   1.0000   1.0000   1.0000   1.0000   1.0000   1.0000
     1.0000   1.0000   1.0000   1.0000   1.0000   1.0000   1.0000   1.0000
     1.0000   1.0000   1.0000   1.0000   1.0000   1.0000   1.0000   1.0000
     1.0000   1.0000   1.0000   1.0000   1.0000   1.0000   1.0000   1.0000
     1.0000   1.0000   1.0000   1.0000   1.0000   1.0000   1.0000   1.0000
     1.0000   1.0000   1.0000   1.0000   1.0000   1.0000   1.0000   1.0000
     1.0000   1.0000   1.0000   1.0000   1.0000   1.0000   1.0000   1.0000
     1.0000   1.0000   1.0000   1.0000   1.0000   1.0000   1.0000   1.0000
     1.0000   1.0000   1.0000   1.0000   1.0000   1.0000   1.0000   1.0000
     1.0000   1.0000   1.0000   1.0000   1.0000   1.0000   1.0000   1.0000
     1.0000   1.0000   1.0000   1.0000   1.0000   1.0000   1.0000   1.0000
     1.0000   1.0000   1.0000   1.0000   1.0000   1.0000   1.0000   1.0000
     1.0000   1.0000   0.0000

          k =-0.2000 0.1155 0.0000 (112171 PWs)   bands (ev):

   -73.8138 -73.8095 -73.8065 -73.8047 -73.8022 -73.8016 -73.7983 -73.7960
   -73.7938 -73.7889 -73.7878 -73.7863 -73.7822 -73.7413 -73.7316 -73.7287
   -38.2108 -38.2105 -38.2058 -38.1620 -38.1587 -38.1561 -38.1505 -38.1390
   -38.1319 -38.0958 -38.0719 -38.0697 -38.0464 -38.0426 -38.0374 -38.0283
   -38.0222 -38.0204 -38.0195 -38.0181 -38.0115 -38.0098 -38.0085 -38.0051
   -37.9992 -37.9943 -37.9927 -37.9913 -37.9882 -37.9868 -37.9845 -37.9827
   -37.9792 -37.9763 -37.9553 -37.9523 -37.9496 -37.9456 -37.9356 -37.9276
   -37.9238 -37.9139 -37.9098 -37.9034 -37.8993 -37.8893 -37.8636 -37.8597
   -21.5161 -15.4338 -14.5531 -13.9721 -13.7978 -13.7854 -13.4754 -13.4707
   -13.3221 -12.9636 -12.7873 -12.7529 -12.6886 -12.6788 -12.6548 -12.5837
   -12.5615 -12.5181 -12.4937 -12.4761 -12.4656 -12.4303 -12.4210 -12.3045
   -12.2919 -12.2592 -12.2420 -12.2106 -12.1844 -12.1729 -12.1659 -12.1495
   -12.0931 -12.0789  -7.9511  -7.5458  -6.2787  -6.2583  -6.2381  -6.2255
    -6.1638  -5.6679  -5.6319  -5.6192  -5.5437  -5.5257  -5.4853  -5.4655
    -5.4325  -5.4137  -5.3798  -5.3240  -5.3081  -5.2779  -5.2726  -5.0758
    -5.0592  -5.0114  -4.9970  -4.9476  -4.7359  -4.7323  -4.5626  -4.5037
    -4.4396  -4.3665  -4.3351  -4.2729  -4.2010  -4.1572  -4.1423  -4.1189
    -4.0957  -4.0608  -4.0366  -3.9924  -3.9797  -3.9112  -3.9010  -3.8924
    -3.6502  -3.5809  -3.5286  -3.4960  -3.4709  -3.4549  -3.4403  -3.3703
    -3.3617  -3.3077  -3.2906  -3.2735  -3.2533  -3.2007  -3.1893  -3.1489
    -3.0741  -2.9678  -2.9445  -2.9116  -2.8135  -2.7886  -2.7640  -2.7383
    -2.7155  -2.7027  -2.6900  -2.6807  -2.6624  -2.6342  -2.5803  -2.5381
    -2.4938  -2.4765  -2.4610  -2.4262  -2.3544  -2.3007  -2.1778  -2.1647
    -2.1128  -2.0652  -2.0127  -1.9912  -1.9638  -1.9533  -1.9228  -1.8987
    -1.8735  -1.8539  -1.8301  -1.8102  -1.7896  -1.7615  -1.7315  -1.7182
    -1.7024  -1.6905  -1.6733  -1.6527  -1.6429  -1.5982  -1.5646  -1.5431
    -1.5140  -1.4945  -1.4879  -1.4305  -1.4220  -1.3577  -1.3426  -1.3217
    -1.3049  -1.2713  -1.2433  -1.2129  -1.1463  -1.0711  -1.0351  -0.9919
    -0.8932  -0.7685  -0.7506  -0.7305  -0.5777  -0.5621  -0.5415  -0.5266
    -0.5101  -0.5013  -0.4051  -0.3749  -0.3502  -0.2415  -0.1646  -0.1369
     0.1990   1.3299   1.6819

     occupation numbers 
     1.0000   1.0000   1.0000   1.0000   1.0000   1.0000   1.0000   1.0000
     1.0000   1.0000   1.0000   1.0000   1.0000   1.0000   1.0000   1.0000
     1.0000   1.0000   1.0000   1.0000   1.0000   1.0000   1.0000   1.0000
     1.0000   1.0000   1.0000   1.0000   1.0000   1.0000   1.0000   1.0000
     1.0000   1.0000   1.0000   1.0000   1.0000   1.0000   1.0000   1.0000
     1.0000   1.0000   1.0000   1.0000   1.0000   1.0000   1.0000   1.0000
     1.0000   1.0000   1.0000   1.0000   1.0000   1.0000   1.0000   1.0000
     1.0000   1.0000   1.0000   1.0000   1.0000   1.0000   1.0000   1.0000
     1.0000   1.0000   1.0000   1.0000   1.0000   1.0000   1.0000   1.0000
     1.0000   1.0000   1.0000   1.0000   1.0000   1.0000   1.0000   1.0000
     1.0000   1.0000   1.0000   1.0000   1.0000   1.0000   1.0000   1.0000
     1.0000   1.0000   1.0000   1.0000   1.0000   1.0000   1.0000   1.0000
     1.0000   1.0000   1.0000   1.0000   1.0000   1.0000   1.0000   1.0000
     1.0000   1.0000   1.0000   1.0000   1.0000   1.0000   1.0000   1.0000
     1.0000   1.0000   1.0000   1.0000   1.0000   1.0000   1.0000   1.0000
     1.0000   1.0000   1.0000   1.0000   1.0000   1.0000   1.0000   1.0000
     1.0000   1.0000   1.0000   1.0000   1.0000   1.0000   1.0000   1.0000
     1.0000   1.0000   1.0000   1.0000   1.0000   1.0000   1.0000   1.0000
     1.0000   1.0000   1.0000   1.0000   1.0000   1.0000   1.0000   1.0000
     1.0000   1.0000   1.0000   1.0000   1.0000   1.0000   1.0000   1.0000
     1.0000   1.0000   1.0000   1.0000   1.0000   1.0000   1.0000   1.0000
     1.0000   1.0000   1.0000   1.0000   1.0000   1.0000   1.0000   1.0000
     1.0000   1.0000   1.0000   1.0000   1.0000   1.0000   1.0000   1.0000
     1.0000   1.0000   1.0000   1.0000   1.0000   1.0000   1.0000   1.0000
     1.0000   1.0000   1.0000   1.0000   1.0000   1.0000   1.0000   1.0000
     1.0000   1.0000   1.0000   1.0000   1.0000   1.0000   1.0000   1.0000
     1.0000   1.0000   1.0000   1.0000   1.0000   1.0000   1.0000   1.0000
     1.0000   1.0000   1.0000   1.0000   1.0000   1.0000   1.0000   1.0000
     1.0000   1.0000   1.0000   1.0000   1.0000   1.0000   1.0000   1.0000
     1.0000   1.0000   1.0000   1.0000   1.0000   1.0000   1.0000   1.0000
     1.0000   1.0000   0.0000

          k = 0.2000 0.1155 0.0000 (112171 PWs)   bands (ev):

   -73.8138 -73.8096 -73.8064 -73.8046 -73.8023 -73.8014 -73.7985 -73.7960
   -73.7937 -73.7889 -73.7878 -73.7863 -73.7822 -73.7413 -73.7316 -73.7287
   -38.2114 -38.2092 -38.2064 -38.1633 -38.1582 -38.1553 -38.1497 -38.1391
   -38.1325 -38.0960 -38.0721 -38.0695 -38.0465 -38.0415 -38.0389 -38.0282
   -38.0227 -38.0205 -38.0188 -38.0172 -38.0124 -38.0096 -38.0077 -38.0052
   -37.9996 -37.9943 -37.9933 -37.9899 -37.9879 -37.9870 -37.9857 -37.9826
   -37.9792 -37.9762 -37.9544 -37.9534 -37.9497 -37.9452 -37.9356 -37.9277
   -37.9234 -37.9134 -37.9104 -37.9034 -37.8992 -37.8896 -37.8655 -37.8579
   -21.5161 -15.4338 -14.5531 -13.9722 -13.7971 -13.7859 -13.4743 -13.4726
   -13.3214 -12.9637 -12.7871 -12.7523 -12.6879 -12.6805 -12.6552 -12.5835
   -12.5626 -12.5168 -12.4914 -12.4780 -12.4655 -12.4323 -12.4201 -12.3001
   -12.2917 -12.2620 -12.2450 -12.2062 -12.1900 -12.1705 -12.1684 -12.1466
   -12.0904 -12.0814  -7.9511  -7.5458  -6.2728  -6.2608  -6.2412  -6.2264
    -6.1637  -5.6608  -5.6374  -5.6158  -5.5436  -5.5309  -5.4843  -5.4671
    -5.4369  -5.4187  -5.3668  -5.3234  -5.3109  -5.2783  -5.2712  -5.0731
    -5.0662  -5.0098  -5.0002  -4.9417  -4.7372  -4.7326  -4.5563  -4.5038
    -4.4344  -4.3873  -4.3344  -4.2674  -4.1999  -4.1580  -4.1445  -4.1194
    -4.0952  -4.0517  -4.0361  -3.9991  -3.9788  -3.9085  -3.9047  -3.8947
    -3.6426  -3.5618  -3.5438  -3.5018  -3.4621  -3.4525  -3.4353  -3.3773
    -3.3675  -3.3044  -3.2950  -3.2777  -3.2447  -3.2068  -3.1922  -3.1427
    -3.0824  -2.9814  -2.9345  -2.9001  -2.8106  -2.7900  -2.7691  -2.7401
    -2.7268  -2.7034  -2.6921  -2.6814  -2.6480  -2.6218  -2.5733  -2.5416
    -2.5180  -2.4823  -2.4647  -2.4138  -2.3509  -2.2935  -2.1885  -2.1630
    -2.1067  -2.0660  -2.0105  -1.9828  -1.9582  -1.9460  -1.9146  -1.9005
    -1.8928  -1.8665  -1.8283  -1.8101  -1.7959  -1.7651  -1.7322  -1.7268
    -1.7012  -1.6833  -1.6700  -1.6464  -1.6277  -1.6093  -1.5834  -1.5309
    -1.5250  -1.4963  -1.4476  -1.4376  -1.4182  -1.3930  -1.3449  -1.3052
    -1.3008  -1.2898  -1.2388  -1.1968  -1.1522  -1.0515  -1.0361  -1.0084
    -0.8905  -0.7588  -0.7492  -0.7446  -0.5886  -0.5532  -0.5412  -0.5261
    -0.5129  -0.5054  -0.4009  -0.3763  -0.3452  -0.2424  -0.1607  -0.1406
     0.1996   1.3247   1.6885

     occupation numbers 
     1.0000   1.0000   1.0000   1.0000   1.0000   1.0000   1.0000   1.0000
     1.0000   1.0000   1.0000   1.0000   1.0000   1.0000   1.0000   1.0000
     1.0000   1.0000   1.0000   1.0000   1.0000   1.0000   1.0000   1.0000
     1.0000   1.0000   1.0000   1.0000   1.0000   1.0000   1.0000   1.0000
     1.0000   1.0000   1.0000   1.0000   1.0000   1.0000   1.0000   1.0000
     1.0000   1.0000   1.0000   1.0000   1.0000   1.0000   1.0000   1.0000
     1.0000   1.0000   1.0000   1.0000   1.0000   1.0000   1.0000   1.0000
     1.0000   1.0000   1.0000   1.0000   1.0000   1.0000   1.0000   1.0000
     1.0000   1.0000   1.0000   1.0000   1.0000   1.0000   1.0000   1.0000
     1.0000   1.0000   1.0000   1.0000   1.0000   1.0000   1.0000   1.0000
     1.0000   1.0000   1.0000   1.0000   1.0000   1.0000   1.0000   1.0000
     1.0000   1.0000   1.0000   1.0000   1.0000   1.0000   1.0000   1.0000
     1.0000   1.0000   1.0000   1.0000   1.0000   1.0000   1.0000   1.0000
     1.0000   1.0000   1.0000   1.0000   1.0000   1.0000   1.0000   1.0000
     1.0000   1.0000   1.0000   1.0000   1.0000   1.0000   1.0000   1.0000
     1.0000   1.0000   1.0000   1.0000   1.0000   1.0000   1.0000   1.0000
     1.0000   1.0000   1.0000   1.0000   1.0000   1.0000   1.0000   1.0000
     1.0000   1.0000   1.0000   1.0000   1.0000   1.0000   1.0000   1.0000
     1.0000   1.0000   1.0000   1.0000   1.0000   1.0000   1.0000   1.0000
     1.0000   1.0000   1.0000   1.0000   1.0000   1.0000   1.0000   1.0000
     1.0000   1.0000   1.0000   1.0000   1.0000   1.0000   1.0000   1.0000
     1.0000   1.0000   1.0000   1.0000   1.0000   1.0000   1.0000   1.0000
     1.0000   1.0000   1.0000   1.0000   1.0000   1.0000   1.0000   1.0000
     1.0000   1.0000   1.0000   1.0000   1.0000   1.0000   1.0000   1.0000
     1.0000   1.0000   1.0000   1.0000   1.0000   1.0000   1.0000   1.0000
     1.0000   1.0000   1.0000   1.0000   1.0000   1.0000   1.0000   1.0000
     1.0000   1.0000   1.0000   1.0000   1.0000   1.0000   1.0000   1.0000
     1.0000   1.0000   1.0000   1.0000   1.0000   1.0000   1.0000   1.0000
     1.0000   1.0000   1.0000   1.0000   1.0000   1.0000   1.0000   1.0000
     1.0000   1.0000   1.0000   1.0000   1.0000   1.0000   1.0000   1.0000
     1.0000   1.0000   0.0000

          k =-0.4000 0.2309 0.0000 (112236 PWs)   bands (ev):

   -73.8136 -73.8098 -73.8067 -73.8047 -73.8020 -73.8016 -73.7983 -73.7960
   -73.7938 -73.7890 -73.7878 -73.7863 -73.7822 -73.7413 -73.7316 -73.7287
   -38.2002 -38.1976 -38.1842 -38.1790 -38.1723 -38.1567 -38.1545 -38.1385
   -38.1230 -38.1169 -38.0973 -38.0934 -38.0567 -38.0505 -38.0426 -38.0341
   -38.0238 -38.0198 -38.0072 -38.0068 -38.0050 -38.0031 -37.9991 -37.9961
   -37.9937 -37.9910 -37.9901 -37.9884 -37.9849 -37.9813 -37.9762 -37.9740
   -37.9672 -37.9599 -37.9572 -37.9510 -37.9447 -37.9419 -37.9393 -37.9361
   -37.9285 -37.9228 -37.9168 -37.9090 -37.8997 -37.8848 -37.8773 -37.8630
   -21.5161 -15.4338 -14.4316 -14.2292 -13.8651 -13.8549 -13.2452 -13.2399
   -13.0196 -12.9934 -12.9717 -12.9075 -12.8298 -12.7286 -12.7008 -12.6825
   -12.5301 -12.5040 -12.4581 -12.4500 -12.4279 -12.4225 -12.3835 -12.3607
   -12.3501 -12.2800 -12.2186 -12.1967 -12.1739 -12.1589 -12.1529 -12.1500
   -12.0542 -12.0381  -7.9511  -7.5458  -6.1753  -6.1246  -6.1026  -6.0843
    -6.0178  -5.8708  -5.8518  -5.8325  -5.7064  -5.5249  -5.5061  -5.4806
    -5.4496  -5.4419  -5.4339  -5.3851  -5.3758  -5.3127  -5.3051  -5.0753
    -5.0533  -5.0199  -5.0031  -4.7979  -4.5992  -4.5444  -4.4718  -4.4359
    -4.4081  -4.3681  -4.3482  -4.3044  -4.2406  -4.2172  -4.1918  -4.1566
    -4.1182  -4.1095  -4.0976  -4.0717  -4.0646  -4.0483  -4.0375  -3.6728
    -3.5627  -3.5150  -3.4691  -3.4501  -3.4201  -3.3904  -3.3521  -3.3129
    -3.2844  -3.2751  -3.2553  -3.2379  -3.2097  -3.1917  -3.1412  -3.1117
    -3.0627  -3.0324  -3.0060  -2.9448  -2.9258  -2.8940  -2.8197  -2.7593
    -2.7149  -2.6962  -2.6458  -2.6227  -2.5888  -2.5742  -2.5449  -2.4761
    -2.4234  -2.4176  -2.3881  -2.3259  -2.2744  -2.2466  -2.2382  -2.1608
    -2.1147  -2.0927  -2.0476  -2.0247  -2.0055  -1.9867  -1.9504  -1.9165
    -1.9028  -1.8899  -1.8797  -1.8618  -1.8534  -1.8453  -1.8339  -1.8155
    -1.7733  -1.7453  -1.7034  -1.6836  -1.6804  -1.6549  -1.6403  -1.6066
    -1.5802  -1.5479  -1.4917  -1.4628  -1.4414  -1.3476  -1.3191  -1.2901
    -1.2582  -1.2066  -1.1681  -1.1223  -1.1121  -1.0932  -1.0666  -0.9800
    -0.9537  -0.8693  -0.7276  -0.7114  -0.6334  -0.6161  -0.4966  -0.4480
    -0.4406  -0.4186  -0.3978  -0.3676  -0.2859  -0.0917   0.0080   0.0391
     0.1492   1.3763   1.6894

     occupation numbers 
     1.0000   1.0000   1.0000   1.0000   1.0000   1.0000   1.0000   1.0000
     1.0000   1.0000   1.0000   1.0000   1.0000   1.0000   1.0000   1.0000
     1.0000   1.0000   1.0000   1.0000   1.0000   1.0000   1.0000   1.0000
     1.0000   1.0000   1.0000   1.0000   1.0000   1.0000   1.0000   1.0000
     1.0000   1.0000   1.0000   1.0000   1.0000   1.0000   1.0000   1.0000
     1.0000   1.0000   1.0000   1.0000   1.0000   1.0000   1.0000   1.0000
     1.0000   1.0000   1.0000   1.0000   1.0000   1.0000   1.0000   1.0000
     1.0000   1.0000   1.0000   1.0000   1.0000   1.0000   1.0000   1.0000
     1.0000   1.0000   1.0000   1.0000   1.0000   1.0000   1.0000   1.0000
     1.0000   1.0000   1.0000   1.0000   1.0000   1.0000   1.0000   1.0000
     1.0000   1.0000   1.0000   1.0000   1.0000   1.0000   1.0000   1.0000
     1.0000   1.0000   1.0000   1.0000   1.0000   1.0000   1.0000   1.0000
     1.0000   1.0000   1.0000   1.0000   1.0000   1.0000   1.0000   1.0000
     1.0000   1.0000   1.0000   1.0000   1.0000   1.0000   1.0000   1.0000
     1.0000   1.0000   1.0000   1.0000   1.0000   1.0000   1.0000   1.0000
     1.0000   1.0000   1.0000   1.0000   1.0000   1.0000   1.0000   1.0000
     1.0000   1.0000   1.0000   1.0000   1.0000   1.0000   1.0000   1.0000
     1.0000   1.0000   1.0000   1.0000   1.0000   1.0000   1.0000   1.0000
     1.0000   1.0000   1.0000   1.0000   1.0000   1.0000   1.0000   1.0000
     1.0000   1.0000   1.0000   1.0000   1.0000   1.0000   1.0000   1.0000
     1.0000   1.0000   1.0000   1.0000   1.0000   1.0000   1.0000   1.0000
     1.0000   1.0000   1.0000   1.0000   1.0000   1.0000   1.0000   1.0000
     1.0000   1.0000   1.0000   1.0000   1.0000   1.0000   1.0000   1.0000
     1.0000   1.0000   1.0000   1.0000   1.0000   1.0000   1.0000   1.0000
     1.0000   1.0000   1.0000   1.0000   1.0000   1.0000   1.0000   1.0000
     1.0000   1.0000   1.0000   1.0000   1.0000   1.0000   1.0000   1.0000
     1.0000   1.0000   1.0000   1.0000   1.0000   1.0000   1.0000   1.0000
     1.0000   1.0000   1.0000   1.0000   1.0000   1.0000   1.0000   1.0000
     1.0000   1.0000   1.0000   1.0000   1.0000   1.0000   1.0000   1.0000
     1.0000   1.0000   1.0000   1.0000   1.0000   1.0000   1.0000   1.0000
     1.0000   1.0000   0.0000

          k = 0.4000 0.2309 0.0000 (112236 PWs)   bands (ev):

   -73.8136 -73.8099 -73.8066 -73.8047 -73.8021 -73.8011 -73.7987 -73.7961
   -73.7936 -73.7890 -73.7877 -73.7864 -73.7822 -73.7413 -73.7316 -73.7287
   -38.1989 -38.1984 -38.1847 -38.1804 -38.1707 -38.1560 -38.1549 -38.1392
   -38.1224 -38.1168 -38.0983 -38.0936 -38.0552 -38.0518 -38.0425 -38.0343
   -38.0242 -38.0181 -38.0076 -38.0067 -38.0056 -38.0032 -37.9992 -37.9966
   -37.9919 -37.9914 -37.9896 -37.9874 -37.9860 -37.9816 -37.9762 -37.9737
   -37.9688 -37.9593 -37.9574 -37.9506 -37.9436 -37.9420 -37.9396 -37.9351
   -37.9273 -37.9237 -37.9177 -37.9100 -37.8977 -37.8858 -37.8807 -37.8604
   -21.5161 -15.4338 -14.4315 -14.2294 -13.8646 -13.8554 -13.2448 -13.2411
   -13.0165 -12.9931 -12.9738 -12.9067 -12.8305 -12.7263 -12.7027 -12.6833
   -12.5377 -12.4962 -12.4623 -12.4473 -12.4269 -12.4224 -12.3841 -12.3592
   -12.3478 -12.2799 -12.2257 -12.1946 -12.1756 -12.1579 -12.1531 -12.1474
   -12.0513 -12.0406  -7.9511  -7.5458  -6.1752  -6.1152  -6.1062  -6.0829
    -6.0305  -5.8636  -5.8518  -5.8293  -5.7110  -5.5266  -5.5052  -5.4834
    -5.4448  -5.4436  -5.4357  -5.3848  -5.3776  -5.3103  -5.3039  -5.0680
    -5.0646  -5.0183  -5.0074  -4.7709  -4.6085  -4.5531  -4.4782  -4.4460
    -4.4143  -4.3673  -4.3444  -4.3007  -4.2349  -4.2215  -4.1875  -4.1538
    -4.1216  -4.1119  -4.0986  -4.0731  -4.0600  -4.0461  -4.0387  -3.6598
    -3.5568  -3.5159  -3.4579  -3.4443  -3.4240  -3.3943  -3.3543  -3.3211
    -3.2867  -3.2712  -3.2494  -3.2319  -3.2145  -3.1989  -3.1308  -3.1125
    -3.0718  -3.0523  -3.0125  -2.9455  -2.9239  -2.8982  -2.8282  -2.7600
    -2.7121  -2.6788  -2.6344  -2.6124  -2.6086  -2.5928  -2.5031  -2.4875
    -2.4489  -2.4245  -2.3663  -2.3255  -2.2686  -2.2530  -2.2378  -2.1414
    -2.1109  -2.0992  -2.0327  -2.0050  -1.9961  -1.9775  -1.9678  -1.9521
    -1.9256  -1.8950  -1.8807  -1.8600  -1.8471  -1.8417  -1.8332  -1.8107
    -1.7931  -1.7335  -1.7155  -1.6941  -1.6842  -1.6329  -1.6210  -1.6145
    -1.5909  -1.5440  -1.5012  -1.4886  -1.4068  -1.3553  -1.3028  -1.2836
    -1.2460  -1.2279  -1.1857  -1.1301  -1.1133  -1.0546  -1.0418  -0.9902
    -0.9659  -0.8770  -0.7238  -0.7178  -0.6328  -0.6224  -0.5044  -0.4516
    -0.4427  -0.4160  -0.4003  -0.3562  -0.2803  -0.0925   0.0100   0.0353
     0.1518   1.3602   1.7098

     occupation numbers 
     1.0000   1.0000   1.0000   1.0000   1.0000   1.0000   1.0000   1.0000
     1.0000   1.0000   1.0000   1.0000   1.0000   1.0000   1.0000   1.0000
     1.0000   1.0000   1.0000   1.0000   1.0000   1.0000   1.0000   1.0000
     1.0000   1.0000   1.0000   1.0000   1.0000   1.0000   1.0000   1.0000
     1.0000   1.0000   1.0000   1.0000   1.0000   1.0000   1.0000   1.0000
     1.0000   1.0000   1.0000   1.0000   1.0000   1.0000   1.0000   1.0000
     1.0000   1.0000   1.0000   1.0000   1.0000   1.0000   1.0000   1.0000
     1.0000   1.0000   1.0000   1.0000   1.0000   1.0000   1.0000   1.0000
     1.0000   1.0000   1.0000   1.0000   1.0000   1.0000   1.0000   1.0000
     1.0000   1.0000   1.0000   1.0000   1.0000   1.0000   1.0000   1.0000
     1.0000   1.0000   1.0000   1.0000   1.0000   1.0000   1.0000   1.0000
     1.0000   1.0000   1.0000   1.0000   1.0000   1.0000   1.0000   1.0000
     1.0000   1.0000   1.0000   1.0000   1.0000   1.0000   1.0000   1.0000
     1.0000   1.0000   1.0000   1.0000   1.0000   1.0000   1.0000   1.0000
     1.0000   1.0000   1.0000   1.0000   1.0000   1.0000   1.0000   1.0000
     1.0000   1.0000   1.0000   1.0000   1.0000   1.0000   1.0000   1.0000
     1.0000   1.0000   1.0000   1.0000   1.0000   1.0000   1.0000   1.0000
     1.0000   1.0000   1.0000   1.0000   1.0000   1.0000   1.0000   1.0000
     1.0000   1.0000   1.0000   1.0000   1.0000   1.0000   1.0000   1.0000
     1.0000   1.0000   1.0000   1.0000   1.0000   1.0000   1.0000   1.0000
     1.0000   1.0000   1.0000   1.0000   1.0000   1.0000   1.0000   1.0000
     1.0000   1.0000   1.0000   1.0000   1.0000   1.0000   1.0000   1.0000
     1.0000   1.0000   1.0000   1.0000   1.0000   1.0000   1.0000   1.0000
     1.0000   1.0000   1.0000   1.0000   1.0000   1.0000   1.0000   1.0000
     1.0000   1.0000   1.0000   1.0000   1.0000   1.0000   1.0000   1.0000
     1.0000   1.0000   1.0000   1.0000   1.0000   1.0000   1.0000   1.0000
     1.0000   1.0000   1.0000   1.0000   1.0000   1.0000   1.0000   1.0000
     1.0000   1.0000   1.0000   1.0000   1.0000   1.0000   1.0000   1.0000
     1.0000   1.0000   1.0000   1.0000   1.0000   1.0000   1.0000   1.0000
     1.0000   1.0000   1.0000   1.0000   1.0000   1.0000   1.0000   1.0000
     1.0000   1.0000   0.0000

          k =-0.2000 0.3464 0.0000 (112231 PWs)   bands (ev):

   -73.8137 -73.8096 -73.8068 -73.8045 -73.8024 -73.8013 -73.7982 -73.7959
   -73.7940 -73.7889 -73.7878 -73.7863 -73.7822 -73.7413 -73.7316 -73.7287
   -38.2052 -38.1966 -38.1941 -38.1720 -38.1669 -38.1588 -38.1484 -38.1417
   -38.1259 -38.1177 -38.1023 -38.0695 -38.0544 -38.0480 -38.0435 -38.0314
   -38.0271 -38.0220 -38.0167 -38.0155 -38.0105 -38.0044 -37.9987 -37.9963
   -37.9930 -37.9885 -37.9867 -37.9842 -37.9825 -37.9783 -37.9763 -37.9752
   -37.9692 -37.9673 -37.9572 -37.9518 -37.9489 -37.9466 -37.9372 -37.9339
   -37.9266 -37.9200 -37.9169 -37.9113 -37.8944 -37.8879 -37.8724 -37.8632
   -21.5161 -15.4338 -14.4713 -14.0976 -14.0575 -13.5699 -13.5532 -13.1697
   -13.1168 -13.0052 -12.9312 -12.8040 -12.7872 -12.7020 -12.6704 -12.6151
   -12.5813 -12.5742 -12.5661 -12.4513 -12.4233 -12.3899 -12.3762 -12.3071
   -12.2894 -12.2709 -12.2486 -12.2243 -12.2210 -12.1540 -12.1473 -12.1059
   -12.0939 -12.0334  -7.9511  -7.5458  -6.1866  -6.1738  -6.1345  -6.1171
    -6.0981  -5.7574  -5.7299  -5.7122  -5.6935  -5.6227  -5.5983  -5.5567
    -5.5030  -5.4720  -5.3513  -5.3255  -5.2949  -5.2615  -5.2371  -5.2149
    -5.0933  -4.9084  -4.8895  -4.7909  -4.7531  -4.5973  -4.5041  -4.4382
    -4.3904  -4.3396  -4.3297  -4.3039  -4.2772  -4.2554  -4.2402  -4.2214
    -4.1596  -4.1252  -4.1068  -4.0899  -4.0506  -3.7648  -3.7340  -3.7230
    -3.7036  -3.6861  -3.5988  -3.4993  -3.4139  -3.3756  -3.3645  -3.3002
    -3.2797  -3.2361  -3.2230  -3.1970  -3.1592  -3.1434  -3.1106  -3.0787
    -3.0521  -3.0012  -2.9557  -2.9381  -2.9232  -2.9185  -2.9079  -2.8940
    -2.7750  -2.7174  -2.6861  -2.6646  -2.5969  -2.5436  -2.5117  -2.4674
    -2.4518  -2.3998  -2.3796  -2.3557  -2.3120  -2.2072  -2.1894  -2.1454
    -2.1236  -2.1163  -2.0979  -2.0657  -2.0219  -1.9768  -1.9646  -1.9278
    -1.9021  -1.8896  -1.8582  -1.8419  -1.8158  -1.8089  -1.7863  -1.7618
    -1.7313  -1.7008  -1.6866  -1.6666  -1.6404  -1.6242  -1.5789  -1.5764
    -1.5543  -1.5431  -1.5179  -1.4927  -1.4254  -1.3884  -1.3774  -1.3376
    -1.2740  -1.2379  -1.1871  -1.1674  -1.1498  -1.1075  -1.0364  -0.9791
    -0.8706  -0.8265  -0.6814  -0.6646  -0.6283  -0.6182  -0.6028  -0.5333
    -0.5291  -0.4088  -0.3776  -0.2514  -0.1986  -0.1900  -0.1446   0.0810
     0.1640   1.3380   1.7184

     occupation numbers 
     1.0000   1.0000   1.0000   1.0000   1.0000   1.0000   1.0000   1.0000
     1.0000   1.0000   1.0000   1.0000   1.0000   1.0000   1.0000   1.0000
     1.0000   1.0000   1.0000   1.0000   1.0000   1.0000   1.0000   1.0000
     1.0000   1.0000   1.0000   1.0000   1.0000   1.0000   1.0000   1.0000
     1.0000   1.0000   1.0000   1.0000   1.0000   1.0000   1.0000   1.0000
     1.0000   1.0000   1.0000   1.0000   1.0000   1.0000   1.0000   1.0000
     1.0000   1.0000   1.0000   1.0000   1.0000   1.0000   1.0000   1.0000
     1.0000   1.0000   1.0000   1.0000   1.0000   1.0000   1.0000   1.0000
     1.0000   1.0000   1.0000   1.0000   1.0000   1.0000   1.0000   1.0000
     1.0000   1.0000   1.0000   1.0000   1.0000   1.0000   1.0000   1.0000
     1.0000   1.0000   1.0000   1.0000   1.0000   1.0000   1.0000   1.0000
     1.0000   1.0000   1.0000   1.0000   1.0000   1.0000   1.0000   1.0000
     1.0000   1.0000   1.0000   1.0000   1.0000   1.0000   1.0000   1.0000
     1.0000   1.0000   1.0000   1.0000   1.0000   1.0000   1.0000   1.0000
     1.0000   1.0000   1.0000   1.0000   1.0000   1.0000   1.0000   1.0000
     1.0000   1.0000   1.0000   1.0000   1.0000   1.0000   1.0000   1.0000
     1.0000   1.0000   1.0000   1.0000   1.0000   1.0000   1.0000   1.0000
     1.0000   1.0000   1.0000   1.0000   1.0000   1.0000   1.0000   1.0000
     1.0000   1.0000   1.0000   1.0000   1.0000   1.0000   1.0000   1.0000
     1.0000   1.0000   1.0000   1.0000   1.0000   1.0000   1.0000   1.0000
     1.0000   1.0000   1.0000   1.0000   1.0000   1.0000   1.0000   1.0000
     1.0000   1.0000   1.0000   1.0000   1.0000   1.0000   1.0000   1.0000
     1.0000   1.0000   1.0000   1.0000   1.0000   1.0000   1.0000   1.0000
     1.0000   1.0000   1.0000   1.0000   1.0000   1.0000   1.0000   1.0000
     1.0000   1.0000   1.0000   1.0000   1.0000   1.0000   1.0000   1.0000
     1.0000   1.0000   1.0000   1.0000   1.0000   1.0000   1.0000   1.0000
     1.0000   1.0000   1.0000   1.0000   1.0000   1.0000   1.0000   1.0000
     1.0000   1.0000   1.0000   1.0000   1.0000   1.0000   1.0000   1.0000
     1.0000   1.0000   1.0000   1.0000   1.0000   1.0000   1.0000   1.0000
     1.0000   1.0000   1.0000   1.0000   1.0000   1.0000   1.0000   1.0000
     1.0000   1.0000   0.0000

          k = 0.4000-0.0000 0.0000 (112231 PWs)   bands (ev):

   -73.8136 -73.8098 -73.8066 -73.8047 -73.8020 -73.8015 -73.7985 -73.7960
   -73.7937 -73.7890 -73.7878 -73.7863 -73.7822 -73.7413 -73.7316 -73.7287
   -38.2053 -38.1963 -38.1945 -38.1718 -38.1680 -38.1586 -38.1482 -38.1407
   -38.1246 -38.1162 -38.1057 -38.0704 -38.0533 -38.0476 -38.0433 -38.0323
   -38.0258 -38.0225 -38.0175 -38.0155 -38.0104 -38.0054 -37.9990 -37.9947
   -37.9924 -37.9888 -37.9864 -37.9849 -37.9819 -37.9793 -37.9762 -37.9753
   -37.9687 -37.9655 -37.9578 -37.9523 -37.9498 -37.9456 -37.9371 -37.9353
   -37.9248 -37.9200 -37.9169 -37.9098 -37.8958 -37.8893 -37.8733 -37.8616
   -21.5161 -15.4338 -14.4713 -14.0954 -14.0597 -13.5635 -13.5603 -13.1658
   -13.1190 -13.0089 -12.9256 -12.8012 -12.7901 -12.7061 -12.6780 -12.5995
   -12.5957 -12.5716 -12.5571 -12.4536 -12.4197 -12.4084 -12.3616 -12.3053
   -12.2898 -12.2677 -12.2508 -12.2330 -12.2181 -12.1548 -12.1445 -12.1044
   -12.0948 -12.0339  -7.9511  -7.5458  -6.1805  -6.1738  -6.1405  -6.1126
    -6.1042  -5.7500  -5.7351  -5.7163  -5.6812  -5.6300  -5.6038  -5.5554
    -5.5008  -5.4694  -5.3476  -5.3308  -5.2861  -5.2674  -5.2393  -5.2239
    -5.0926  -4.8958  -4.8828  -4.8044  -4.7524  -4.5606  -4.5279  -4.4531
    -4.4029  -4.3416  -4.3337  -4.3070  -4.2720  -4.2600  -4.2378  -4.2048
    -4.1709  -4.1138  -4.1056  -4.0862  -4.0501  -3.7551  -3.7286  -3.7219
    -3.7020  -3.6926  -3.6094  -3.4784  -3.4231  -3.3913  -3.3649  -3.3110
    -3.2761  -3.2396  -3.2271  -3.1967  -3.1686  -3.1385  -3.1184  -3.0749
    -3.0319  -2.9852  -2.9619  -2.9433  -2.9348  -2.9120  -2.8970  -2.8882
    -2.7626  -2.7336  -2.6884  -2.6385  -2.6097  -2.5645  -2.5254  -2.4611
    -2.4551  -2.4095  -2.3787  -2.3347  -2.3111  -2.2139  -2.1733  -2.1450
    -2.1214  -2.1170  -2.0956  -2.0833  -1.9943  -1.9773  -1.9640  -1.9311
    -1.9157  -1.8903  -1.8677  -1.8545  -1.8376  -1.8125  -1.7750  -1.7538
    -1.7244  -1.6993  -1.6808  -1.6646  -1.6437  -1.6167  -1.5861  -1.5665
    -1.5473  -1.5381  -1.5183  -1.4911  -1.4399  -1.4020  -1.3577  -1.3293
    -1.2766  -1.2521  -1.1928  -1.1711  -1.1443  -1.0966  -1.0373  -0.9783
    -0.8602  -0.8407  -0.6758  -0.6670  -0.6284  -0.6147  -0.6067  -0.5327
    -0.5280  -0.4269  -0.3711  -0.2442  -0.1994  -0.1853  -0.1476   0.0786
     0.1636   1.3683   1.6857

     occupation numbers 
     1.0000   1.0000   1.0000   1.0000   1.0000   1.0000   1.0000   1.0000
     1.0000   1.0000   1.0000   1.0000   1.0000   1.0000   1.0000   1.0000
     1.0000   1.0000   1.0000   1.0000   1.0000   1.0000   1.0000   1.0000
     1.0000   1.0000   1.0000   1.0000   1.0000   1.0000   1.0000   1.0000
     1.0000   1.0000   1.0000   1.0000   1.0000   1.0000   1.0000   1.0000
     1.0000   1.0000   1.0000   1.0000   1.0000   1.0000   1.0000   1.0000
     1.0000   1.0000   1.0000   1.0000   1.0000   1.0000   1.0000   1.0000
     1.0000   1.0000   1.0000   1.0000   1.0000   1.0000   1.0000   1.0000
     1.0000   1.0000   1.0000   1.0000   1.0000   1.0000   1.0000   1.0000
     1.0000   1.0000   1.0000   1.0000   1.0000   1.0000   1.0000   1.0000
     1.0000   1.0000   1.0000   1.0000   1.0000   1.0000   1.0000   1.0000
     1.0000   1.0000   1.0000   1.0000   1.0000   1.0000   1.0000   1.0000
     1.0000   1.0000   1.0000   1.0000   1.0000   1.0000   1.0000   1.0000
     1.0000   1.0000   1.0000   1.0000   1.0000   1.0000   1.0000   1.0000
     1.0000   1.0000   1.0000   1.0000   1.0000   1.0000   1.0000   1.0000
     1.0000   1.0000   1.0000   1.0000   1.0000   1.0000   1.0000   1.0000
     1.0000   1.0000   1.0000   1.0000   1.0000   1.0000   1.0000   1.0000
     1.0000   1.0000   1.0000   1.0000   1.0000   1.0000   1.0000   1.0000
     1.0000   1.0000   1.0000   1.0000   1.0000   1.0000   1.0000   1.0000
     1.0000   1.0000   1.0000   1.0000   1.0000   1.0000   1.0000   1.0000
     1.0000   1.0000   1.0000   1.0000   1.0000   1.0000   1.0000   1.0000
     1.0000   1.0000   1.0000   1.0000   1.0000   1.0000   1.0000   1.0000
     1.0000   1.0000   1.0000   1.0000   1.0000   1.0000   1.0000   1.0000
     1.0000   1.0000   1.0000   1.0000   1.0000   1.0000   1.0000   1.0000
     1.0000   1.0000   1.0000   1.0000   1.0000   1.0000   1.0000   1.0000
     1.0000   1.0000   1.0000   1.0000   1.0000   1.0000   1.0000   1.0000
     1.0000   1.0000   1.0000   1.0000   1.0000   1.0000   1.0000   1.0000
     1.0000   1.0000   1.0000   1.0000   1.0000   1.0000   1.0000   1.0000
     1.0000   1.0000   1.0000   1.0000   1.0000   1.0000   1.0000   1.0000
     1.0000   1.0000   1.0000   1.0000   1.0000   1.0000   1.0000   1.0000
     1.0000   1.0000   0.0000

          k =-0.4000 0.4619 0.0000 (112237 PWs)   bands (ev):

   -73.8135 -73.8098 -73.8068 -73.8046 -73.8021 -73.8014 -73.7983 -73.7960
   -73.7938 -73.7890 -73.7878 -73.7863 -73.7822 -73.7413 -73.7316 -73.7287
   -38.1956 -38.1895 -38.1797 -38.1772 -38.1695 -38.1656 -38.1576 -38.1427
   -38.1389 -38.1227 -38.0864 -38.0832 -38.0773 -38.0443 -38.0408 -38.0351
   -38.0279 -38.0241 -38.0155 -38.0073 -38.0047 -37.9999 -37.9978 -37.9957
   -37.9938 -37.9927 -37.9893 -37.9848 -37.9815 -37.9762 -37.9689 -37.9656
   -37.9600 -37.9552 -37.9524 -37.9507 -37.9491 -37.9424 -37.9378 -37.9360
   -37.9303 -37.9237 -37.9193 -37.9159 -37.9052 -37.8867 -37.8741 -37.8662
   -21.5161 -15.4338 -14.3332 -14.2870 -14.1120 -13.5924 -13.2938 -13.2909
   -12.9550 -12.9446 -12.8820 -12.8535 -12.8242 -12.7987 -12.7934 -12.6605
   -12.6314 -12.5929 -12.4902 -12.4805 -12.3839 -12.3715 -12.3438 -12.3224
   -12.3076 -12.2957 -12.2578 -12.2323 -12.2271 -12.1308 -12.1178 -12.1122
   -12.0776 -12.0144  -7.9511  -7.5458  -6.1726  -6.0451  -6.0116  -5.9648
    -5.9096  -5.8856  -5.8723  -5.8538  -5.8048  -5.7403  -5.6814  -5.6206
    -5.6052  -5.5373  -5.3534  -5.2779  -5.2423  -5.2118  -5.1961  -5.1637
    -5.1524  -4.8481  -4.8275  -4.7370  -4.6157  -4.5799  -4.5381  -4.5172
    -4.4842  -4.4188  -4.3770  -4.3190  -4.3017  -4.2374  -4.2226  -4.2030
    -4.1884  -4.1588  -4.1170  -4.0903  -3.9512  -3.9433  -3.7841  -3.6614
    -3.6102  -3.5826  -3.4214  -3.3853  -3.3498  -3.3171  -3.2979  -3.2741
    -3.2691  -3.2605  -3.2368  -3.2254  -3.2152  -3.2071  -3.1394  -3.1156
    -3.0901  -3.0734  -3.0532  -3.0349  -2.9807  -2.9180  -2.8365  -2.7965
    -2.7290  -2.7016  -2.6845  -2.6607  -2.6049  -2.5787  -2.4846  -2.4040
    -2.3883  -2.3195  -2.3153  -2.3089  -2.2584  -2.1794  -2.1651  -2.1485
    -2.1278  -2.0826  -2.0679  -2.0391  -2.0168  -1.9636  -1.9502  -1.9342
    -1.9215  -1.9080  -1.8844  -1.8705  -1.8572  -1.8465  -1.8393  -1.8319
    -1.8051  -1.7804  -1.7443  -1.7156  -1.6910  -1.6767  -1.6543  -1.6381
    -1.6121  -1.5708  -1.5184  -1.4933  -1.4734  -1.4515  -1.4019  -1.3003
    -1.2654  -1.2254  -1.1578  -1.1085  -1.0860  -1.0661  -1.0326  -0.9509
    -0.8080  -0.7800  -0.6940  -0.6832  -0.6493  -0.6363  -0.5932  -0.5738
    -0.5571  -0.3924  -0.2714  -0.2666  -0.1682  -0.1121  -0.0694   0.1217
     0.1955   1.3760   1.7001

     occupation numbers 
     1.0000   1.0000   1.0000   1.0000   1.0000   1.0000   1.0000   1.0000
     1.0000   1.0000   1.0000   1.0000   1.0000   1.0000   1.0000   1.0000
     1.0000   1.0000   1.0000   1.0000   1.0000   1.0000   1.0000   1.0000
     1.0000   1.0000   1.0000   1.0000   1.0000   1.0000   1.0000   1.0000
     1.0000   1.0000   1.0000   1.0000   1.0000   1.0000   1.0000   1.0000
     1.0000   1.0000   1.0000   1.0000   1.0000   1.0000   1.0000   1.0000
     1.0000   1.0000   1.0000   1.0000   1.0000   1.0000   1.0000   1.0000
     1.0000   1.0000   1.0000   1.0000   1.0000   1.0000   1.0000   1.0000
     1.0000   1.0000   1.0000   1.0000   1.0000   1.0000   1.0000   1.0000
     1.0000   1.0000   1.0000   1.0000   1.0000   1.0000   1.0000   1.0000
     1.0000   1.0000   1.0000   1.0000   1.0000   1.0000   1.0000   1.0000
     1.0000   1.0000   1.0000   1.0000   1.0000   1.0000   1.0000   1.0000
     1.0000   1.0000   1.0000   1.0000   1.0000   1.0000   1.0000   1.0000
     1.0000   1.0000   1.0000   1.0000   1.0000   1.0000   1.0000   1.0000
     1.0000   1.0000   1.0000   1.0000   1.0000   1.0000   1.0000   1.0000
     1.0000   1.0000   1.0000   1.0000   1.0000   1.0000   1.0000   1.0000
     1.0000   1.0000   1.0000   1.0000   1.0000   1.0000   1.0000   1.0000
     1.0000   1.0000   1.0000   1.0000   1.0000   1.0000   1.0000   1.0000
     1.0000   1.0000   1.0000   1.0000   1.0000   1.0000   1.0000   1.0000
     1.0000   1.0000   1.0000   1.0000   1.0000   1.0000   1.0000   1.0000
     1.0000   1.0000   1.0000   1.0000   1.0000   1.0000   1.0000   1.0000
     1.0000   1.0000   1.0000   1.0000   1.0000   1.0000   1.0000   1.0000
     1.0000   1.0000   1.0000   1.0000   1.0000   1.0000   1.0000   1.0000
     1.0000   1.0000   1.0000   1.0000   1.0000   1.0000   1.0000   1.0000
     1.0000   1.0000   1.0000   1.0000   1.0000   1.0000   1.0000   1.0000
     1.0000   1.0000   1.0000   1.0000   1.0000   1.0000   1.0000   1.0000
     1.0000   1.0000   1.0000   1.0000   1.0000   1.0000   1.0000   1.0000
     1.0000   1.0000   1.0000   1.0000   1.0000   1.0000   1.0000   1.0000
     1.0000   1.0000   1.0000   1.0000   1.0000   1.0000   1.0000   1.0000
     1.0000   1.0000   1.0000   1.0000   1.0000   1.0000   1.0000   1.0000
     1.0000   1.0000   0.0000

          k = 0.6000 0.1155 0.0000 (112237 PWs)   bands (ev):

   -73.8135 -73.8099 -73.8067 -73.8046 -73.8022 -73.8012 -73.7986 -73.7960
   -73.7937 -73.7890 -73.7877 -73.7864 -73.7822 -73.7413 -73.7316 -73.7287
   -38.1947 -38.1904 -38.1805 -38.1773 -38.1690 -38.1652 -38.1574 -38.1427
   -38.1394 -38.1224 -38.0863 -38.0837 -38.0778 -38.0430 -38.0409 -38.0354
   -38.0278 -38.0245 -38.0145 -38.0078 -38.0052 -37.9996 -37.9982 -37.9964
   -37.9939 -37.9914 -37.9892 -37.9852 -37.9815 -37.9762 -37.9690 -37.9650
   -37.9613 -37.9550 -37.9523 -37.9510 -37.9484 -37.9429 -37.9374 -37.9348
   -37.9293 -37.9241 -37.9192 -37.9172 -37.9047 -37.8876 -37.8763 -37.8639
   -21.5161 -15.4338 -14.3327 -14.2876 -14.1119 -13.5924 -13.3012 -13.2834
   -12.9615 -12.9378 -12.8772 -12.8572 -12.8243 -12.7988 -12.7942 -12.6635
   -12.6300 -12.5911 -12.5003 -12.4700 -12.3907 -12.3677 -12.3401 -12.3186
   -12.3079 -12.2977 -12.2612 -12.2327 -12.2280 -12.1287 -12.1185 -12.1125
   -12.0771 -12.0146  -7.9511  -7.5458  -6.1726  -6.0417  -6.0082  -5.9629
    -5.9202  -5.9023  -5.8731  -5.8308  -5.8036  -5.7453  -5.6836  -5.6182
    -5.6075  -5.5336  -5.3518  -5.2750  -5.2508  -5.2190  -5.1929  -5.1666
    -5.1436  -4.8504  -4.8341  -4.6870  -4.6400  -4.6020  -4.5448  -4.5083
    -4.4846  -4.4291  -4.3767  -4.3163  -4.2943  -4.2376  -4.2278  -4.1943
    -4.1855  -4.1629  -4.1164  -4.0922  -3.9530  -3.9423  -3.7808  -3.6592
    -3.6121  -3.5741  -3.4225  -3.3629  -3.3534  -3.3251  -3.2906  -3.2811
    -3.2780  -3.2540  -3.2388  -3.2276  -3.2157  -3.1956  -3.1700  -3.1354
    -3.0811  -3.0722  -3.0492  -3.0136  -2.9845  -2.9295  -2.8330  -2.7958
    -2.7342  -2.7120  -2.6902  -2.6348  -2.6167  -2.5423  -2.4951  -2.4498
    -2.3838  -2.3259  -2.3105  -2.2883  -2.2391  -2.1910  -2.1671  -2.1355
    -2.1120  -2.0927  -2.0703  -2.0301  -2.0054  -1.9728  -1.9573  -1.9447
    -1.9254  -1.8957  -1.8913  -1.8741  -1.8635  -1.8547  -1.8473  -1.8318
    -1.7982  -1.7843  -1.7357  -1.7205  -1.6887  -1.6793  -1.6483  -1.6288
    -1.6115  -1.5913  -1.5231  -1.5099  -1.4647  -1.4243  -1.3877  -1.3121
    -1.2739  -1.2179  -1.1513  -1.1305  -1.0902  -1.0454  -1.0093  -0.9705
    -0.8045  -0.7840  -0.6904  -0.6881  -0.6499  -0.6440  -0.5925  -0.5862
    -0.5430  -0.3938  -0.2740  -0.2602  -0.1659  -0.1154  -0.0687   0.1221
     0.1960   1.3664   1.7120

     occupation numbers 
     1.0000   1.0000   1.0000   1.0000   1.0000   1.0000   1.0000   1.0000
     1.0000   1.0000   1.0000   1.0000   1.0000   1.0000   1.0000   1.0000
     1.0000   1.0000   1.0000   1.0000   1.0000   1.0000   1.0000   1.0000
     1.0000   1.0000   1.0000   1.0000   1.0000   1.0000   1.0000   1.0000
     1.0000   1.0000   1.0000   1.0000   1.0000   1.0000   1.0000   1.0000
     1.0000   1.0000   1.0000   1.0000   1.0000   1.0000   1.0000   1.0000
     1.0000   1.0000   1.0000   1.0000   1.0000   1.0000   1.0000   1.0000
     1.0000   1.0000   1.0000   1.0000   1.0000   1.0000   1.0000   1.0000
     1.0000   1.0000   1.0000   1.0000   1.0000   1.0000   1.0000   1.0000
     1.0000   1.0000   1.0000   1.0000   1.0000   1.0000   1.0000   1.0000
     1.0000   1.0000   1.0000   1.0000   1.0000   1.0000   1.0000   1.0000
     1.0000   1.0000   1.0000   1.0000   1.0000   1.0000   1.0000   1.0000
     1.0000   1.0000   1.0000   1.0000   1.0000   1.0000   1.0000   1.0000
     1.0000   1.0000   1.0000   1.0000   1.0000   1.0000   1.0000   1.0000
     1.0000   1.0000   1.0000   1.0000   1.0000   1.0000   1.0000   1.0000
     1.0000   1.0000   1.0000   1.0000   1.0000   1.0000   1.0000   1.0000
     1.0000   1.0000   1.0000   1.0000   1.0000   1.0000   1.0000   1.0000
     1.0000   1.0000   1.0000   1.0000   1.0000   1.0000   1.0000   1.0000
     1.0000   1.0000   1.0000   1.0000   1.0000   1.0000   1.0000   1.0000
     1.0000   1.0000   1.0000   1.0000   1.0000   1.0000   1.0000   1.0000
     1.0000   1.0000   1.0000   1.0000   1.0000   1.0000   1.0000   1.0000
     1.0000   1.0000   1.0000   1.0000   1.0000   1.0000   1.0000   1.0000
     1.0000   1.0000   1.0000   1.0000   1.0000   1.0000   1.0000   1.0000
     1.0000   1.0000   1.0000   1.0000   1.0000   1.0000   1.0000   1.0000
     1.0000   1.0000   1.0000   1.0000   1.0000   1.0000   1.0000   1.0000
     1.0000   1.0000   1.0000   1.0000   1.0000   1.0000   1.0000   1.0000
     1.0000   1.0000   1.0000   1.0000   1.0000   1.0000   1.0000   1.0000
     1.0000   1.0000   1.0000   1.0000   1.0000   1.0000   1.0000   1.0000
     1.0000   1.0000   1.0000   1.0000   1.0000   1.0000   1.0000   1.0000
     1.0000   1.0000   1.0000   1.0000   1.0000   1.0000   1.0000   1.0000
     1.0000   1.0000   0.0000

     highest occupied, lowest unoccupied level (ev):     1.6176    1.6763

!    total energy              =  -16138.55545289 Ry
     total all-electron energy =   -595550.628658 Ry
     estimated scf accuracy    <          9.2E-11 Ry

     The total energy is the sum of the following terms:
     one-electron contribution =  -18311.95659021 Ry
     hartree contribution      =    9259.76511534 Ry
     xc contribution           =    -931.74066974 Ry
     ewald contribution        =    6415.36663426 Ry
     DFT-D3 Dispersion         =      -0.65558316 Ry
     one-center paw contrib.   =  -12569.33435939 Ry
      -> PAW hartree energy AE =      92.00279830 Ry
      -> PAW hartree energy PS =     -91.51074441 Ry
      -> PAW xc energy AE      =    -644.66491041 Ry
      -> PAW xc energy PS      =      38.62151155 Ry
      -> total E_H with PAW    =    9260.25716924 Ry
      -> total E_XC with PAW   =   -1537.78406860 Ry

     total magnetization       =     1.00 Bohr mag/cell
     absolute magnetization    =     1.12 Bohr mag/cell

     convergence has been achieved in  29 iterations

     negative rho (up, down):  4.796E-03 5.164E-03

     Forces acting on atoms (cartesian axes, Ry/au):

     atom    1 type  2   force =    -0.00000527   -0.00008125   -0.00014789
     atom    2 type  2   force =    -0.00019105    0.00001858    0.00012831
     atom    3 type  2   force =    -0.00025748   -0.00016286   -0.00000935
     atom    4 type  2   force =     0.00028206    0.00027589    0.00004919
     atom    5 type  2   force =    -0.00001167   -0.00022882    0.00000279
     atom    6 type  2   force =    -0.00001483    0.00005993   -0.00000678
     atom    7 type  2   force =     0.00005815   -0.00002389    0.00008464
     atom    8 type  2   force =     0.00013800    0.00007649    0.00006842
     atom    9 type  2   force =    -0.00021302   -0.00007567    0.00005342
     atom   10 type  2   force =     0.00009089    0.00010387    0.00009456
     atom   11 type  2   force =    -0.00005459    0.00020525   -0.00001112
     atom   12 type  2   force =    -0.00000924    0.00007011   -0.00013217
     atom   13 type  2   force =    -0.00013567    0.00015716    0.00008101
     atom   14 type  2   force =     0.00011305    0.00001271    0.00000128
     atom   15 type  2   force =    -0.00000051   -0.00016827   -0.00006955
     atom   16 type  2   force =    -0.00023823   -0.00015886   -0.00004697
     atom   17 type  1   force =    -0.00008993    0.00017395   -0.00002259
     atom   18 type  1   force =    -0.00005838   -0.00018578   -0.00006553
     atom   19 type  1   force =    -0.00010901    0.00010909   -0.00003102
     atom   20 type  1   force =     0.00012517   -0.00002134   -0.00006660
     atom   21 type  1   force =    -0.00008587    0.00000595    0.00005464
     atom   22 type  1   force =    -0.00003079    0.00000233   -0.00034049
     atom   23 type  1   force =    -0.00006116    0.00002111    0.00003976
     atom   24 type  1   force =     0.00012318    0.00000200    0.00001526
     atom   25 type  1   force =    -0.00002002   -0.00003919    0.00001787
     atom   26 type  1   force =     0.00004986   -0.00007517   -0.00008332
     atom   27 type  1   force =     0.00009494    0.00006951   -0.00002708
     atom   28 type  1   force =    -0.00027804    0.00002907   -0.00036443
     atom   29 type  1   force =    -0.00002093   -0.00012655   -0.00012749
     atom   30 type  1   force =    -0.00007535   -0.00000660    0.00008307
     atom   31 type  1   force =    -0.00020882   -0.00006515   -0.00004093
     atom   32 type  1   force =     0.00025296    0.00008031   -0.00016910
     atom   33 type  1   force =     0.00002521    0.00005077   -0.00015714
     atom   34 type  1   force =     0.00001010    0.00006407    0.00004288
     atom   35 type  1   force =     0.00002250    0.00000020   -0.00003483
     atom   36 type  1   force =    -0.00003587   -0.00004554    0.00004731
     atom   37 type  1   force =    -0.00011212    0.00001551   -0.00012321
     atom   38 type  1   force =     0.00009076   -0.00016002    0.00000937
     atom   39 type  1   force =     0.00014614    0.00003291    0.00003107
     atom   40 type  1   force =     0.00011146   -0.00003080    0.00007092
     atom   41 type  1   force =    -0.00011706    0.00005050    0.00006633
     atom   42 type  1   force =     0.00004404    0.00005768    0.00000085
     atom   43 type  1   force =    -0.00025006    0.00000674    0.00014856
     atom   44 type  1   force =    -0.00007734    0.00009918   -0.00036737
     atom   45 type  1   force =    -0.00009857   -0.00004363    0.00005385
     atom   46 type  1   force =     0.00000914    0.00003954   -0.00015375
     atom   47 type  1   force =    -0.00004642   -0.00017279   -0.00016029
     atom   48 type  1   force =    -0.00002861    0.00004785    0.00015232
     atom   49 type  3   force =     0.00097962    0.00000393   -0.00031512
     atom   50 type  3   force =    -0.00032546   -0.00078522    0.00057009
     atom   51 type  3   force =    -0.00035452   -0.00010130   -0.00015258
     atom   52 type  3   force =     0.00045015    0.00032804    0.00054792
     atom   53 type  3   force =    -0.00014980    0.00022528    0.00030035
     atom   54 type  4   force =    -0.00353868    0.00413758   -0.00245438
     atom   55 type  5   force =    -0.00217374    0.00216407   -0.00216572
     atom   56 type  6   force =     0.00040207    0.00030029   -0.00013256
     atom   57 type  6   force =    -0.00023743    0.00015647    0.00058577
     atom   58 type  6   force =     0.00609605   -0.00649517    0.00457754
     The non-local contrib.  to forces
     atom    1 type  2   force =    -0.00047593    0.00023695   -0.00009344
     atom    2 type  2   force =     0.00035709   -0.00015180   -0.00019617
     atom    3 type  2   force =    -0.00390151   -0.00385716    0.00603407
     atom    4 type  2   force =    -0.00236939   -0.00004792    0.00309548
     atom    5 type  2   force =    -0.00054949    0.00926443    0.00835815
     atom    6 type  2   force =     0.00405597   -0.00044811    0.01270406
     atom    7 type  2   force =     0.00359994   -0.00281920    0.00571498
     atom    8 type  2   force =     0.00048186    0.00022293    0.00051644
     atom    9 type  2   force =     0.00018557    0.00103360    0.00331594
     atom   10 type  2   force =    -0.00362745    0.00166199    0.01381788
     atom   11 type  2   force =    -0.00040212   -0.00030743    0.01550761
     atom   12 type  2   force =     0.00589274   -0.00340715    0.00757455
     atom   13 type  2   force =    -0.00013348    0.00028650   -0.00031726
     atom   14 type  2   force =     0.00074417    0.00161970    0.00307668
     atom   15 type  2   force =    -0.00071972   -0.00209897    0.00704283
     atom   16 type  2   force =    -0.00286157   -0.00023530    0.00573642
     atom   17 type  1   force =     0.00083966    0.00126794   -0.27570957
     atom   18 type  1   force =     0.00429130    0.00240409   -0.27657249
     atom   19 type  1   force =     0.00095057    0.00009427   -0.27534244
     atom   20 type  1   force =    -0.00088233   -0.00063950   -0.27641134
     atom   21 type  1   force =    -0.00026989    0.00141495   -0.27545585
     atom   22 type  1   force =     0.01184563    0.02357584   -0.15678103
     atom   23 type  1   force =    -0.00170523   -0.00216817   -0.18674807
     atom   24 type  1   force =     0.00274087   -0.00128472   -0.27539565
     atom   25 type  1   force =     0.00010856   -0.00086678   -0.27674831
     atom   26 type  1   force =     0.00287123    0.00953046   -0.25648553
     atom   27 type  1   force =     0.01822138    0.00618732   -0.22551920
     atom   28 type  1   force =     0.01935367   -0.01740969   -0.19305102
     atom   29 type  1   force =     0.00088921   -0.00184476   -0.27491209
     atom   30 type  1   force =    -0.00195864    0.00125194   -0.27604337
     atom   31 type  1   force =    -0.02394236   -0.01162391   -0.21283189
     atom   32 type  1   force =    -0.00973699   -0.00786407   -0.24420946
     atom   33 type  1   force =    -0.00022904    0.00031001    0.27622623
     atom   34 type  1   force =     0.00171866    0.00243360    0.27673120
     atom   35 type  1   force =     0.00154159   -0.00049408    0.27628027
     atom   36 type  1   force =    -0.00083356   -0.00082572    0.27581298
     atom   37 type  1   force =     0.00033214    0.00197136    0.27561693
     atom   38 type  1   force =     0.00295797    0.00258476    0.27716134
     atom   39 type  1   force =     0.00248519    0.00066902    0.27703051
     atom   40 type  1   force =     0.00205305   -0.00164124    0.27530398
     atom   41 type  1   force =     0.00021994    0.00048320    0.27665056
     atom   42 type  1   force =    -0.00264300    0.00247087    0.27559931
     atom   43 type  1   force =    -0.00192245   -0.00055876    0.27975283
     atom   44 type  1   force =     0.00088785   -0.00429576    0.27701582
     atom   45 type  1   force =    -0.00063594   -0.00172490    0.27610073
     atom   46 type  1   force =    -0.00124731   -0.00047826    0.27627955
     atom   47 type  1   force =    -0.00342308   -0.00009047    0.27526310
     atom   48 type  1   force =    -0.00234626   -0.00163651    0.27540737
     atom   49 type  3   force =    -0.18435912    0.03148975   -0.06015142
     atom   50 type  3   force =    -0.00822843   -0.13025748   -0.07500446
     atom   51 type  3   force =     0.19384562   -0.01617420   -0.09587901
     atom   52 type  3   force =     0.02016301    0.14046611   -0.09333502
     atom   53 type  3   force =     0.02028580    0.02869907    0.14886053
     atom   54 type  4   force =    -0.87832821   -0.26776753    0.92887069
     atom   55 type  5   force =     1.87883938    0.54685006   -1.51274149
     atom   56 type  6   force =    -0.00672644   -0.07206951   -0.06510221
     atom   57 type  6   force =     0.01166315   -0.01481460    0.09895009
     atom   58 type  6   force =    -0.02813950    0.08565609   -0.04197186
     The ionic contribution  to forces
     atom    1 type  2   force =    -0.93931036   -0.19565518   -8.51229185
     atom    2 type  2   force =    -0.97119126   -1.15702779   -8.88005515
     atom    3 type  2   force =     1.92216143    0.65020145   -9.43973159
     atom    4 type  2   force =     1.76656181    1.72471511   -9.24156091
     atom    5 type  2   force =    -0.76020506   -3.39392860  -10.32549803
     atom    6 type  2   force =    -3.93384591   -3.11186434  -14.38146240
     atom    7 type  2   force =    -3.78914126    1.11544210  -12.06318035
     atom    8 type  2   force =    -0.45960592    0.22265167   -8.34411447
     atom    9 type  2   force =     1.12831214   -2.55043034  -10.29912637
     atom   10 type  2   force =     1.18904968   -3.57202989  -19.43158841
     atom   11 type  2   force =    -2.00123721    2.17447588  -20.50216409
     atom   12 type  2   force =    -1.90160283    2.98576226  -10.56667131
     atom   13 type  2   force =     0.52968592    0.57647204   -8.41983899
     atom   14 type  2   force =     3.83218915   -2.05744926  -11.86142839
     atom   15 type  2   force =     3.84719317    1.90209995  -17.31820815
     atom   16 type  2   force =     0.57169175    4.70758411  -12.98740721
     atom   17 type  1   force =    -0.14011837   -0.66150955   32.26070352
     atom   18 type  1   force =    -2.24124556   -1.69656916   31.29312401
     atom   19 type  1   force =    -1.12791869    0.05271554   31.69846693
     atom   20 type  1   force =     1.01147820    0.86395816   32.41886707
     atom   21 type  1   force =     0.17396201   -1.94591952   32.03457173
     atom   22 type  1   force =    -2.23765399   -5.30488833   25.62160285
     atom   23 type  1   force =    -4.76110802    0.06298612   24.69056588
     atom   24 type  1   force =    -2.11322973    1.73126059   31.40499211
     atom   25 type  1   force =    -0.02605352    0.43244243   32.25587325
     atom   26 type  1   force =     2.91763262   -4.06820458   28.41136125
     atom   27 type  1   force =     1.27443242   -0.00851842   20.49381055
     atom   28 type  1   force =    -2.26272556    5.24404292   26.48523994
     atom   29 type  1   force =     0.01960178    1.75652317   32.08041392
     atom   30 type  1   force =     1.12861346   -0.96855531   32.14838810
     atom   31 type  1   force =     4.85875936    0.33655781   28.22805108
     atom   32 type  1   force =     3.17851341    3.98390052   28.83926769
     atom   33 type  1   force =    -0.05126554   -0.12671526  -39.08007016
     atom   34 type  1   force =    -0.56948866   -0.42788697  -39.19374077
     atom   35 type  1   force =    -0.28921811   -0.04255988  -39.24754281
     atom   36 type  1   force =     0.27299631    0.22244114  -39.08995766
     atom   37 type  1   force =    -0.01842614   -0.48724962  -39.20273246
     atom   38 type  1   force =    -0.41728178   -0.93189038  -40.31571537
     atom   39 type  1   force =    -0.90996744   -0.05707076  -40.68654106
     atom   40 type  1   force =    -0.52225586    0.40402522  -39.34399693
     atom   41 type  1   force =     0.05822636    0.12836768  -39.16754283
     atom   42 type  1   force =     0.64042496   -0.72202875  -40.20943063
     atom   43 type  1   force =     0.29420606    0.05132132  -41.17797869
     atom   44 type  1   force =    -0.25863305    0.97340708  -40.32984932
     atom   45 type  1   force =     0.01553294    0.50323539  -39.10191708
     atom   46 type  1   force =     0.32785543   -0.23270970  -39.01141292
     atom   47 type  1   force =     0.87994113   -0.02485331  -39.93817896
     atom   48 type  1   force =     0.55134455    0.76660603  -40.07738909
     atom   49 type  3   force =   -21.26947369    3.68358360   58.89143064
     atom   50 type  3   force =    -1.57869584  -20.68468842   58.08459954
     atom   51 type  3   force =    21.71758311   -2.58760082   61.19849191
     atom   52 type  3   force =     2.76371619   20.98034293   58.84367158
     atom   53 type  3   force =     7.92513665    2.06747375   63.37437386
     atom   54 type  4   force =     4.45824472    0.05802966   20.55964147
     atom   55 type  5   force =   -13.34771662   -2.90582515   24.84764981
     atom   56 type  6   force =     0.54424652    2.65582686    5.38827370
     atom   57 type  6   force =    -2.24608003    0.17441326    1.35129306
     atom   58 type  6   force =     1.34540276   -3.26923646    4.84359893
     The local contribution  to forces
     atom    1 type  2   force =     0.93938095    0.19579419    8.51221571
     atom    2 type  2   force =     0.97068625    1.15667010    8.88013023
     atom    3 type  2   force =    -1.91886304   -0.64714723    9.43445146
     atom    4 type  2   force =    -1.76431176   -1.72427108    9.23882865
     atom    5 type  2   force =     0.76035042    3.38450050   10.31676736
     atom    6 type  2   force =     3.92905392    3.11089714   14.36636301
     atom    7 type  2   force =     3.78425742   -1.11231885   12.05584363
     atom    8 type  2   force =     0.45921104   -0.22289127    8.34405987
     atom    9 type  2   force =    -1.12846405    2.54883867   10.29535440
     atom   10 type  2   force =    -1.18520396    3.57089998   19.41487344
     atom   11 type  2   force =     2.00233899   -2.17378462   20.48175158
     atom   12 type  2   force =     1.89591535   -2.98214174   10.55871036
     atom   13 type  2   force =    -0.52946302   -0.57631544    8.41996820
     atom   14 type  2   force =    -3.83131114    2.05560421   11.85623508
     atom   15 type  2   force =    -3.84591593   -1.89997008   17.30655059
     atom   16 type  2   force =    -0.56917455   -4.70588407   12.97933798
     atom   17 type  1   force =     0.13915789    0.66017751  -31.98639898
     atom   18 type  1   force =     2.23625483    1.69347999  -31.01844983
     atom   19 type  1   force =     1.12656676   -0.05263783  -31.42477995
     atom   20 type  1   force =    -1.01010987   -0.86303384  -32.14392091
     atom   21 type  1   force =    -0.17367341    1.94390028  -31.76052314
     atom   22 type  1   force =     2.22570738    5.28058355  -25.46466706
     atom   23 type  1   force =     4.76136504   -0.06085463  -24.50345953
     atom   24 type  1   force =     2.10991474   -1.72941279  -31.13136948
     atom   25 type  1   force =     0.02581706   -0.43147388  -31.98049442
     atom   26 type  1   force =    -2.92062858    4.05908801  -28.15490595
     atom   27 type  1   force =    -1.29119299    0.00203008  -20.26669148
     atom   28 type  1   force =     2.24361737   -5.22598372  -26.29241537
     atom   29 type  1   force =    -0.02044100   -1.75429258  -31.80705915
     atom   30 type  1   force =    -1.12637667    0.96700978  -31.87372190
     atom   31 type  1   force =    -4.83509288   -0.32543258  -28.01477041
     atom   32 type  1   force =    -3.16928974   -3.97558084  -28.59541837
     atom   33 type  1   force =     0.05148709    0.12644468   38.80465968
     atom   34 type  1   force =     0.56778464    0.42556828   38.91805199
     atom   35 type  1   force =     0.28770623    0.04301734   38.97218924
     atom   36 type  1   force =    -0.27222991   -0.22169406   38.81516700
     atom   37 type  1   force =     0.01799446    0.48537622   38.92795058
     atom   38 type  1   force =     0.41440434    0.92912670   40.03933888
     atom   39 type  1   force =     0.90758075    0.05642315   40.41031228
     atom   40 type  1   force =     0.52040841   -0.40243702   39.06970616
     atom   41 type  1   force =    -0.05852417   -0.12876918   38.89194563
     atom   42 type  1   force =    -0.63770803    0.71962583   39.93464285
     atom   43 type  1   force =    -0.29254519   -0.05075453   40.89915360
     atom   44 type  1   force =     0.25767836   -0.96900819   40.05326455
     atom   45 type  1   force =    -0.01501366   -0.50156367   38.82685737
     atom   46 type  1   force =    -0.32664012    0.23320346   38.73598266
     atom   47 type  1   force =    -0.87660596    0.02473608   39.66354844
     atom   48 type  1   force =    -0.54902261   -0.76490509   39.80291119
     atom   49 type  3   force =    21.45142615   -3.71385420  -58.82063614
     atom   50 type  3   force =     1.59046128   20.81386489  -57.99983372
     atom   51 type  3   force =   -21.90853892    2.60223711  -61.09565887
     atom   52 type  3   force =    -2.78069995  -21.11831730  -58.74143563
     atom   53 type  3   force =    -7.94406908   -2.09500990  -63.51731678
     atom   54 type  4   force =    -3.60160086    0.20953582  -21.47807754
     atom   55 type  5   force =    11.48542204    2.36597011  -23.34799708
     atom   56 type  6   force =    -0.53717327   -2.58358714   -5.32351320
     atom   57 type  6   force =     2.23439390   -0.15930320   -1.44973685
     atom   58 type  6   force =    -1.31127190    3.17730177   -4.79718479
     The core correction contribution to forces
     atom    1 type  2   force =     0.00025943   -0.00048989   -0.00037523
     atom    2 type  2   force =    -0.00015584    0.00035585   -0.00024289
     atom    3 type  2   force =     0.00079724    0.00078252   -0.00149986
     atom    4 type  2   force =     0.00075020    0.00026065   -0.00095105
     atom    5 type  2   force =     0.00021018   -0.00077933   -0.00060679
     atom    6 type  2   force =    -0.00028736    0.00076969   -0.00009492
     atom    7 type  2   force =     0.00050991   -0.00013698    0.00031902
     atom    8 type  2   force =    -0.00002361    0.00012222   -0.00061763
     atom    9 type  2   force =     0.00000895   -0.00005600   -0.00027207
     atom   10 type  2   force =    -0.00007215   -0.00142550    0.00039463
     atom   11 type  2   force =    -0.00121348    0.00051066    0.00110304
     atom   12 type  2   force =    -0.00068028    0.00050179   -0.00079338
     atom   13 type  2   force =    -0.00018205   -0.00017972   -0.00006085
     atom   14 type  2   force =    -0.00063538   -0.00026361    0.00047233
     atom   15 type  2   force =     0.00047359    0.00032364    0.00113482
     atom   16 type  2   force =     0.00025930   -0.00056087    0.00045808
     atom   17 type  1   force =    -0.00005243   -0.00000714    0.00196463
     atom   18 type  1   force =    -0.00015898   -0.00008385    0.00203943
     atom   19 type  1   force =    -0.00004833   -0.00005478    0.00197248
     atom   20 type  1   force =    -0.00000397    0.00000145    0.00199030
     atom   21 type  1   force =    -0.00003853   -0.00003565    0.00197247
     atom   22 type  1   force =    -0.00009367   -0.00041936   -0.00040083
     atom   23 type  1   force =     0.00004791    0.00007000   -0.00004071
     atom   24 type  1   force =    -0.00006723    0.00004262    0.00198177
     atom   25 type  1   force =     0.00005173    0.00002263    0.00198626
     atom   26 type  1   force =    -0.00002165   -0.00024227    0.00142928
     atom   27 type  1   force =    -0.00046141   -0.00005888    0.00111634
     atom   28 type  1   force =    -0.00030219    0.00037716    0.00019941
     atom   29 type  1   force =    -0.00002115    0.00009994    0.00197924
     atom   30 type  1   force =     0.00007971   -0.00003682    0.00200944
     atom   31 type  1   force =     0.00052083    0.00026239    0.00063859
     atom   32 type  1   force =     0.00016312    0.00019610    0.00123018
     atom   33 type  1   force =     0.00001673   -0.00000374   -0.00193204
     atom   34 type  1   force =    -0.00003150   -0.00005385   -0.00198905
     atom   35 type  1   force =     0.00000257    0.00003606   -0.00193386
     atom   36 type  1   force =     0.00001931    0.00002513   -0.00191728
     atom   37 type  1   force =     0.00000513   -0.00004338   -0.00192642
     atom   38 type  1   force =     0.00001027    0.00001099   -0.00197468
     atom   39 type  1   force =     0.00002952    0.00002700   -0.00198058
     atom   40 type  1   force =    -0.00005812    0.00000898   -0.00192224
     atom   41 type  1   force =    -0.00003620   -0.00001292   -0.00194786
     atom   42 type  1   force =    -0.00002442   -0.00003878   -0.00193341
     atom   43 type  1   force =     0.00000259   -0.00001119   -0.00220897
     atom   44 type  1   force =    -0.00002581    0.00001937   -0.00198805
     atom   45 type  1   force =     0.00001193    0.00001601   -0.00195961
     atom   46 type  1   force =     0.00003334    0.00000919   -0.00196697
     atom   47 type  1   force =     0.00004973    0.00003148   -0.00190573
     atom   48 type  1   force =     0.00002346    0.00000559   -0.00189412
     atom   49 type  3   force =     0.00425022   -0.00133392   -0.00310517
     atom   50 type  3   force =    -0.00144985    0.00370031   -0.00371284
     atom   51 type  3   force =    -0.00463910    0.00092680   -0.00153711
     atom   52 type  3   force =    -0.00175296   -0.00488823   -0.00188456
     atom   53 type  3   force =    -0.00268526   -0.00112003   -0.00366068
     atom   54 type  4   force =     0.01804210    0.00426414   -0.01214542
     atom   55 type  5   force =    -0.01842587   -0.00488431    0.01190391
     atom   56 type  6   force =     0.00000000    0.00000000    0.00000000
     atom   57 type  6   force =     0.00000000    0.00000000    0.00000000
     atom   58 type  6   force =     0.00000000    0.00000000    0.00000000
     The Hubbard contrib.    to forces
     atom    1 type  2   force =     0.00000000    0.00000000    0.00000000
     atom    2 type  2   force =     0.00000000    0.00000000    0.00000000
     atom    3 type  2   force =     0.00000000    0.00000000    0.00000000
     atom    4 type  2   force =     0.00000000    0.00000000    0.00000000
     atom    5 type  2   force =     0.00000000    0.00000000    0.00000000
     atom    6 type  2   force =     0.00000000    0.00000000    0.00000000
     atom    7 type  2   force =     0.00000000    0.00000000    0.00000000
     atom    8 type  2   force =     0.00000000    0.00000000    0.00000000
     atom    9 type  2   force =     0.00000000    0.00000000    0.00000000
     atom   10 type  2   force =     0.00000000    0.00000000    0.00000000
     atom   11 type  2   force =     0.00000000    0.00000000    0.00000000
     atom   12 type  2   force =     0.00000000    0.00000000    0.00000000
     atom   13 type  2   force =     0.00000000    0.00000000    0.00000000
     atom   14 type  2   force =     0.00000000    0.00000000    0.00000000
     atom   15 type  2   force =     0.00000000    0.00000000    0.00000000
     atom   16 type  2   force =     0.00000000    0.00000000    0.00000000
     atom   17 type  1   force =     0.00000000    0.00000000    0.00000000
     atom   18 type  1   force =     0.00000000    0.00000000    0.00000000
     atom   19 type  1   force =     0.00000000    0.00000000    0.00000000
     atom   20 type  1   force =     0.00000000    0.00000000    0.00000000
     atom   21 type  1   force =     0.00000000    0.00000000    0.00000000
     atom   22 type  1   force =     0.00000000    0.00000000    0.00000000
     atom   23 type  1   force =     0.00000000    0.00000000    0.00000000
     atom   24 type  1   force =     0.00000000    0.00000000    0.00000000
     atom   25 type  1   force =     0.00000000    0.00000000    0.00000000
     atom   26 type  1   force =     0.00000000    0.00000000    0.00000000
     atom   27 type  1   force =     0.00000000    0.00000000    0.00000000
     atom   28 type  1   force =     0.00000000    0.00000000    0.00000000
     atom   29 type  1   force =     0.00000000    0.00000000    0.00000000
     atom   30 type  1   force =     0.00000000    0.00000000    0.00000000
     atom   31 type  1   force =     0.00000000    0.00000000    0.00000000
     atom   32 type  1   force =     0.00000000    0.00000000    0.00000000
     atom   33 type  1   force =     0.00000000    0.00000000    0.00000000
     atom   34 type  1   force =     0.00000000    0.00000000    0.00000000
     atom   35 type  1   force =     0.00000000    0.00000000    0.00000000
     atom   36 type  1   force =     0.00000000    0.00000000    0.00000000
     atom   37 type  1   force =     0.00000000    0.00000000    0.00000000
     atom   38 type  1   force =     0.00000000    0.00000000    0.00000000
     atom   39 type  1   force =     0.00000000    0.00000000    0.00000000
     atom   40 type  1   force =     0.00000000    0.00000000    0.00000000
     atom   41 type  1   force =     0.00000000    0.00000000    0.00000000
     atom   42 type  1   force =     0.00000000    0.00000000    0.00000000
     atom   43 type  1   force =     0.00000000    0.00000000    0.00000000
     atom   44 type  1   force =     0.00000000    0.00000000    0.00000000
     atom   45 type  1   force =     0.00000000    0.00000000    0.00000000
     atom   46 type  1   force =     0.00000000    0.00000000    0.00000000
     atom   47 type  1   force =     0.00000000    0.00000000    0.00000000
     atom   48 type  1   force =     0.00000000    0.00000000    0.00000000
     atom   49 type  3   force =     0.00000000    0.00000000    0.00000000
     atom   50 type  3   force =     0.00000000    0.00000000    0.00000000
     atom   51 type  3   force =     0.00000000    0.00000000    0.00000000
     atom   52 type  3   force =     0.00000000    0.00000000    0.00000000
     atom   53 type  3   force =     0.00000000    0.00000000    0.00000000
     atom   54 type  4   force =     0.00000000    0.00000000    0.00000000
     atom   55 type  5   force =     0.00000000    0.00000000    0.00000000
     atom   56 type  6   force =     0.00000000    0.00000000    0.00000000
     atom   57 type  6   force =     0.00000000    0.00000000    0.00000000
     atom   58 type  6   force =     0.00000000    0.00000000    0.00000000
     The SCF correction term to forces
     atom    1 type  2   force =     0.00000016    0.00000223   -0.00000028
     atom    2 type  2   force =    -0.00000006    0.00000369   -0.00000078
     atom    3 type  2   force =     0.00000596   -0.00000107   -0.00000003
     atom    4 type  2   force =     0.00000399    0.00000119   -0.00000028
     atom    5 type  2   force =    -0.00000247   -0.00000401   -0.00000068
     atom    6 type  2   force =    -0.00000799   -0.00000155   -0.00000146
     atom    7 type  2   force =    -0.00000508   -0.00000008   -0.00000071
     atom    8 type  2   force =    -0.00000008   -0.00000336    0.00000017
     atom    9 type  2   force =     0.00000070   -0.00000487   -0.00000008
     atom   10 type  2   force =    -0.00000024   -0.00000545   -0.00000132
     atom   11 type  2   force =    -0.00000781    0.00000444   -0.00000063
     atom   12 type  2   force =    -0.00000335    0.00000037   -0.00000037
     atom   13 type  2   force =     0.00000015    0.00000205    0.00000070
     atom   14 type  2   force =     0.00000844   -0.00000066   -0.00000077
     atom   15 type  2   force =     0.00000847    0.00000354   -0.00000084
     atom   16 type  2   force =    -0.00000073    0.00000542   -0.00000089
     atom   17 type  1   force =     0.00000035    0.00000028   -0.00000170
     atom   18 type  1   force =    -0.00000087    0.00000081   -0.00000200
     atom   19 type  1   force =    -0.00000020    0.00000032   -0.00000326
     atom   20 type  1   force =     0.00000156   -0.00000083   -0.00000259
     atom   21 type  1   force =    -0.00000030   -0.00000168   -0.00000203
     atom   22 type  1   force =    -0.00000293   -0.00000248   -0.00000012
     atom   23 type  1   force =    -0.00000414   -0.00000010   -0.00000069
     atom   24 type  1   force =    -0.00000094   -0.00000048   -0.00000255
     atom   25 type  1   force =    -0.00000015   -0.00000079   -0.00000148
     atom   26 type  1   force =     0.00000258   -0.00000203    0.00000056
     atom   27 type  1   force =    -0.00000002    0.00000079    0.00000269
     atom   28 type  1   force =    -0.00000175    0.00000244   -0.00000004
     atom   29 type  1   force =     0.00000005    0.00000069   -0.00000099
     atom   30 type  1   force =     0.00000122    0.00000107   -0.00000169
     atom   31 type  1   force =     0.00000439   -0.00000001   -0.00000076
     atom   32 type  1   force =     0.00000114    0.00000216    0.00000037
     atom   33 type  1   force =     0.00000037    0.00000038    0.00000177
     atom   34 type  1   force =    -0.00000064    0.00000100    0.00000203
     atom   35 type  1   force =    -0.00000016    0.00000028    0.00000353
     atom   36 type  1   force =     0.00000148   -0.00000099    0.00000280
     atom   37 type  1   force =    -0.00000039   -0.00000143    0.00000219
     atom   38 type  1   force =    -0.00000274   -0.00000192   -0.00000020
     atom   39 type  1   force =    -0.00000365   -0.00000032    0.00000063
     atom   40 type  1   force =    -0.00000090   -0.00000067    0.00000286
     atom   41 type  1   force =    -0.00000009   -0.00000071    0.00000162
     atom   42 type  1   force =     0.00000224   -0.00000168   -0.00000068
     atom   43 type  1   force =    -0.00000026    0.00000073   -0.00000346
     atom   44 type  1   force =    -0.00000153    0.00000194    0.00000009
     atom   45 type  1   force =     0.00000006    0.00000064    0.00000109
     atom   46 type  1   force =     0.00000114    0.00000115    0.00000175
     atom   47 type  1   force =     0.00000409   -0.00000003    0.00000089
     atom   48 type  1   force =     0.00000095    0.00000178   -0.00000041
     atom   49 type  3   force =    -0.00000280    0.00000045    0.00000189
     atom   50 type  3   force =    -0.00000093   -0.00000119    0.00000271
     atom   51 type  3   force =     0.00000261   -0.00000006    0.00000279
     atom   52 type  3   force =    -0.00000032    0.00000218    0.00000237
     atom   53 type  3   force =    -0.00000024    0.00000044    0.00000159
     atom   54 type  4   force =    -0.00000074   -0.00000001   -0.00000001
     atom   55 type  5   force =     0.00000060    0.00000012    0.00000029
     atom   56 type  6   force =    -0.00000005    0.00000004    0.00000006
     atom   57 type  6   force =     0.00000001    0.00000002    0.00000008
     atom   58 type  6   force =    -0.00000003   -0.00000005    0.00000005

     DFT-D3 dispersion contribution to forces:
     atom    1 type  2   force =     0.00014031    0.00003169    0.00039726
     atom    2 type  2   force =     0.00011260    0.00016976    0.00049312
     atom    3 type  2   force =    -0.00045774   -0.00014013    0.00073665
     atom    4 type  2   force =    -0.00035297   -0.00038083    0.00063736
     atom    5 type  2   force =     0.00018456    0.00071942    0.00098283
     atom    6 type  2   force =     0.00101636    0.00070834    0.00248499
     atom    7 type  2   force =     0.00083703   -0.00018965    0.00138813
     atom    8 type  2   force =     0.00007452   -0.00002447    0.00022410
     atom    9 type  2   force =    -0.00025652    0.00054451    0.00078166
     atom   10 type  2   force =    -0.00005515    0.00100398    0.00259839
     atom   11 type  2   force =     0.00046686   -0.00069245    0.00379143
     atom   12 type  2   force =     0.00046896   -0.00064419    0.00104804
     atom   13 type  2   force =    -0.00004338   -0.00010704    0.00032927
     atom   14 type  2   force =    -0.00088236    0.00050355    0.00164641
     atom   15 type  2   force =    -0.00104027   -0.00052511    0.00341125
     atom   16 type  2   force =    -0.00015262   -0.00106691    0.00182870
     atom   17 type  1   force =     0.00008280    0.00024614   -0.00058043
     atom   18 type  1   force =     0.00080072    0.00058356   -0.00020460
     atom   19 type  1   force =     0.00034071   -0.00000720   -0.00034472
     atom   20 type  1   force =    -0.00035860   -0.00030555   -0.00058909
     atom   21 type  1   force =    -0.00006592    0.00064881   -0.00050850
     atom   22 type  1   force =     0.00016661    0.00115435   -0.00009425
     atom   23 type  1   force =     0.00134311   -0.00001088   -0.00027706
     atom   24 type  1   force =     0.00076529   -0.00060199   -0.00019089
     atom   25 type  1   force =     0.00005611   -0.00016156   -0.00059738
     atom   26 type  1   force =     0.00019349   -0.00024353   -0.00148287
     atom   27 type  1   force =    -0.00090463    0.00042984   -0.00274593
     atom   28 type  1   force =    -0.00021976   -0.00099880   -0.00033728
     atom   29 type  1   force =    -0.00005000   -0.00061178   -0.00054836
     atom   30 type  1   force =    -0.00043461    0.00032398   -0.00054745
     atom   31 type  1   force =    -0.00045834    0.00017238   -0.00112747
     atom   32 type  1   force =     0.00060185   -0.00057232   -0.00103946
     atom   33 type  1   force =     0.00001542    0.00001594    0.00095744
     atom   34 type  1   force =     0.00002742    0.00000324    0.00098753
     atom   35 type  1   force =    -0.00000980    0.00000171    0.00096885
     atom   36 type  1   force =     0.00001032    0.00001019    0.00093951
     atom   37 type  1   force =    -0.00001751   -0.00003640    0.00096603
     atom   38 type  1   force =     0.00000252    0.00001106    0.00119945
     atom   39 type  1   force =     0.00002160   -0.00001393    0.00120935
     atom   40 type  1   force =    -0.00003531    0.00001516    0.00097713
     atom   41 type  1   force =    -0.00000308   -0.00001634    0.00095927
     atom   42 type  1   force =    -0.00000790    0.00003142    0.00112347
     atom   43 type  1   force =     0.00000900    0.00001039    0.00143329
     atom   44 type  1   force =     0.00001666   -0.00002404    0.00118960
     atom   45 type  1   force =     0.00000591   -0.00000586    0.00097140
     atom   46 type  1   force =     0.00000648    0.00001492    0.00096223
     atom   47 type  1   force =    -0.00001251    0.00000469    0.00111201
     atom   48 type  1   force =    -0.00002887   -0.00002271    0.00111744
     atom   49 type  3   force =    -0.00086132    0.00011948   -0.00785486
     atom   50 type  3   force =    -0.00241187   -0.00340210   -0.00548108
     atom   51 type  3   force =     0.00139197    0.00051110   -0.00557223
     atom   52 type  3   force =    -0.00097601    0.00272358   -0.00647076
     atom   53 type  3   force =     0.00118215    0.00018318   -0.00195812
     atom   54 type  4   force =     0.00010413    0.00007673   -0.00074353
     atom   55 type  5   force =    -0.00029345    0.00005448   -0.00098112
     atom   56 type  6   force =     0.00005512    0.00013126    0.00020915
     atom   57 type  6   force =    -0.00021465   -0.00013778    0.00007944
     atom   58 type  6   force =     0.00010454   -0.00021529    0.00013526

     Total force =     0.012482     Total SCF correction =     0.000029

     DFT-D3 dispersion Force =     0.017431


     Computing stress (Cartesian axis) and pressure


     negative rho (up, down):  4.796E-03 5.164E-03
          total   stress  (Ry/bohr**3)                   (kbar)     P=       -1.43
  -0.00000984  -0.00000139   0.00000094           -1.45       -0.20        0.14
  -0.00000139  -0.00000889  -0.00000023           -0.20       -1.31       -0.03
   0.00000094  -0.00000023  -0.00001039            0.14       -0.03       -1.53

     kinetic stress (kbar)   7256.58     -1.31     -9.27
                               -1.31   7272.91     -0.25
                               -9.27     -0.25   7301.53

     local   stress (kbar)-135461.24    -64.41    519.55
                              -64.41-134008.55    220.23
                              519.55    220.23 134099.23

     nonloc. stress (kbar)  -1419.21     -0.12      0.32
                               -0.12  -1420.44      0.32
                                0.32      0.32  -1427.28

     hartree stress (kbar)  68217.36     29.64   -249.33
                               29.64  67561.50   -102.90
                             -249.33   -102.90 -63300.77

     exc-cor stress (kbar)   2000.75      0.01     -0.00
                                0.01   2000.33     -0.04
                               -0.00     -0.04   2000.28

     corecor stress (kbar)  -3626.56      0.04      0.05
                                0.04  -3626.83      0.01
                                0.05      0.01  -3627.24

     ewald   stress (kbar)  63035.13     35.93   -261.14
                               35.93  62223.99   -117.40
                             -261.14   -117.40 -75044.72

     hubbard stress (kbar)      0.00      0.00      0.00
                                0.00      0.00      0.00
                                0.00      0.00      0.00

     DFT-D   stress (kbar)     -4.26      0.02     -0.04
                                0.02     -4.22      0.01
                               -0.04      0.01     -2.55

     XDM     stress (kbar)      0.00      0.00      0.00
                                0.00      0.00      0.00
                                0.00      0.00      0.00

     dft-nl  stress (kbar)      0.00      0.00      0.00
                                0.00      0.00      0.00
                                0.00      0.00      0.00

     TS-vdW  stress (kbar)      0.00      0.00      0.00
                                0.00      0.00      0.00
                                0.00      0.00      0.00

     MDB     stress (kbar)      0.00      0.00      0.00
                                0.00      0.00      0.00
                                0.00      0.00      0.00

     3D-RISM stress (kbar)      0.00      0.00      0.00
                                0.00      0.00      0.00
                                0.00      0.00      0.00


     Writing all to output data dir ./Ag-WS2-H2NOH.save/ :
     XML data file, charge density, pseudopotentials, collected wavefunctions

     init_run     :    161.04s CPU    164.56s WALL (       1 calls)
     electrons    :   9826.41s CPU  10011.56s WALL (       1 calls)
     forces       :     42.58s CPU     44.15s WALL (       1 calls)
     force_dftd3  :      0.14s CPU      0.16s WALL (       1 calls)
     stress       :    151.78s CPU    156.35s WALL (       1 calls)
     stres_dftd3  :      0.14s CPU      0.15s WALL (       1 calls)

     Called by init_run:
     wfcinit      :    153.34s CPU    156.23s WALL (       1 calls)
     wfcinit:atom :      0.64s CPU      0.65s WALL (      26 calls)
     wfcinit:wfcr :    149.13s CPU    151.90s WALL (      26 calls)
     potinit      :      2.60s CPU      2.72s WALL (       1 calls)
     hinit0       :      1.42s CPU      1.51s WALL (       1 calls)

     Called by electrons:
     c_bands      :   8498.38s CPU   8642.26s WALL (      30 calls)
     sum_band     :   1230.68s CPU   1260.41s WALL (      30 calls)
     v_of_rho     :     16.09s CPU     17.02s WALL (      30 calls)
     v_h          :      0.79s CPU      0.89s WALL (      30 calls)
     v_xc         :     16.34s CPU     17.22s WALL (      32 calls)
     newd         :     47.04s CPU     56.82s WALL (      30 calls)
     PAW_pot      :     30.68s CPU     31.04s WALL (      30 calls)
     mix_rho      :      4.18s CPU      4.41s WALL (      30 calls)
     energy_dftd3 :      0.05s CPU      0.05s WALL (       1 calls)

     Called by c_bands:
     init_us_2    :    108.45s CPU    111.52s WALL (    1638 calls)
     cegterg      :   8359.52s CPU   8500.43s WALL (     780 calls)

     Called by sum_band:
     sum_band:wei :      0.01s CPU      0.01s WALL (      30 calls)
     sum_band:loo :   1141.59s CPU   1159.79s WALL (      30 calls)
     sum_band:buf :      9.44s CPU      9.68s WALL (     780 calls)
     sum_band:ini :     51.12s CPU     52.52s WALL (     780 calls)
     sum_band:cal :    245.60s CPU    252.32s WALL (     780 calls)
     sum_band:bec :      3.04s CPU      3.11s WALL (     780 calls)
     addusdens    :     86.71s CPU     98.09s WALL (      30 calls)
                                        0.00s GPU  (      30 calls)
     addusd:skk   :      1.32s CPU      1.36s WALL (     180 calls)
                                        0.00s GPU  (     180 calls)

     Called by *egterg:
     cdiaghg      :    480.03s CPU    496.72s WALL (    5614 calls)
     cegterg:over :    453.69s CPU    465.05s WALL (    4860 calls)
     cegterg:upda :    218.80s CPU    222.32s WALL (    4860 calls)
     cegterg:last :    382.89s CPU    390.09s WALL (    1564 calls)
     cdiaghg:chol :     39.56s CPU     39.93s WALL (    5614 calls)
     cdiaghg:inve :      6.71s CPU      6.78s WALL (    5614 calls)
     cdiaghg:para :    136.86s CPU    146.65s WALL (   11228 calls)
     h_psi        :   6234.13s CPU   6326.35s WALL (    5666 calls)
     s_psi        :    589.30s CPU    596.29s WALL (    5666 calls)
     g_psi        :      8.72s CPU      9.03s WALL (    4860 calls)

     Called by h_psi:
     h_psi:calbec :    786.13s CPU    807.03s WALL (    5666 calls)
     vloc_psi     :   4810.32s CPU   4873.39s WALL (    5666 calls)
     add_vuspsi   :    612.99s CPU    620.63s WALL (    5666 calls)

     General routines
     calbec       :   1169.64s CPU   1201.41s WALL (    6888 calls)
     fft          :     16.52s CPU     17.79s WALL (     790 calls)
     ffts         :      1.60s CPU      1.71s WALL (     120 calls)
     fftw         :   5149.43s CPU   5209.07s WALL ( 1161832 calls)
     interpolate  :      2.50s CPU      2.64s WALL (      60 calls)

     Parallel routines

     PAW routines
     PAW_pot      :     30.68s CPU     31.04s WALL (      30 calls)

     PWSCF        :  10191.83s CPU  10423.78s WALL


   This run was terminated on:   2:41:42   2Aug2026            

=------------------------------------------------------------------------------=
   JOB DONE.
=------------------------------------------------------------------------------=
