
     Program PWSCF v.7.4.1 starts on  2Aug2026 at  4:47:43 

     This program is part of the open-source Quantum ESPRESSO suite
     for quantum simulation of materials; please cite
         "P. Giannozzi et al., J. Phys.:Condens. Matter 21 395502 (2009);
         "P. Giannozzi et al., J. Phys.:Condens. Matter 29 465901 (2017);
         "P. Giannozzi et al., J. Chem. Phys. 152 154105 (2020);
          URL http://www.quantum-espresso.org", 
     in publications or presentations arising from this work. More details at
     http://www.quantum-espresso.org/quote

     Parallel version (MPI & OpenMP), running on      64 processor cores
     Number of MPI processes:                64
     Threads/MPI process:                     1

     MPI processes distributed on     1 nodes
     97119 MiB available memory on the printing compute node when the environment starts

     Reading input from disp_030_atom58_-1z.in

     Current dimensions of program PWSCF are:
     Max number of different atomic species (ntypx) = 10
     Max number of k-points (npk) =  40000
     Max angular momentum in pseudopotentials (lmaxx) =  4
     file S.pbe-n-kjpaw_psl.1.0.0.UPF: wavefunction(s)  3S 3P renormalized
     file W.pbe-spn-kjpaw_psl.1.0.0.UPF: wavefunction(s)  6S 5P 5D renormalized
     file Ag.pbe-n-kjpaw_psl.1.0.0.UPF: wavefunction(s)  5S 5P renormalized
     file N.pbe-n-kjpaw_psl.1.0.0.UPF: wavefunction(s)  2S renormalized
     file O.pbe-n-kjpaw_psl.1.0.0.UPF: wavefunction(s)  2S 2P renormalized
     file H.pbe-kjpaw_psl.1.0.0.UPF: wavefunction(s)  1S renormalized
     Message from routine setup:
     the system is metallic, specify occupations

     R & G space division:  proc/nbgrp/npool/nimage =      64
     Subspace diagonalization in iterative solution of the eigenvalue problem:
     one sub-group per band group will be used
     ELPA distributed-memory algorithm (size of sub-group:  2*  2 procs)


     Parallelization info
     --------------------
     sticks:   dense  smooth     PW     G-vecs:    dense   smooth      PW
     Min         247     123     32                39673    14017    1874
     Max         248     124     33                39680    14030    1885
     Sum       15841    7909   2065              2539249   897387  120111

     Using Slab Decomposition



     bravais-lattice index     =            0
     lattice parameter (alat)  =      23.9624  a.u.
     unit-cell volume          =   18794.0729 (a.u.)^3
     number of atoms/cell      =           58
     number of atomic types    =            6
     number of electrons       =       485.00 (up: 243.00, down: 242.00)
     number of Kohn-Sham states=          243
     kinetic-energy cutoff     =      50.0000  Ry
     charge density cutoff     =     400.0000  Ry
     scf convergence threshold =      1.0E-10
     mixing beta               =       0.4000
     number of iterations used =            8  plain     mixing
     Exchange-correlation= SLA  PW   PBX  PBC
                           (   1   4   3   4   0   0   0)

     celldm(1)=  23.962422  celldm(2)=   0.000000  celldm(3)=   0.000000
     celldm(4)=   0.000000  celldm(5)=   0.000000  celldm(6)=   0.000000

     crystal axes: (cart. coord. in units of alat)
               a(1) = (   1.000000   0.000000   0.000000 )  
               a(2) = (  -0.500000   0.866025   0.000000 )  
               a(3) = (   0.000000   0.000000   1.577241 )  

     reciprocal axes: (cart. coord. in units 2 pi/alat)
               b(1) = (  1.000000  0.577350 -0.000000 )  
               b(2) = (  0.000000  1.154701  0.000000 )  
               b(3) = (  0.000000 -0.000000  0.634018 )  


     PseudoPot. # 1 for S  read from file:
     /share/work_r640/fmigm008/pseudo/S.pbe-n-kjpaw_psl.1.0.0.UPF
     MD5 check sum: fb45dfebcf3e72a4e1bd4a866ec2e262
     Pseudo is Projector augmented-wave + core cor, Zval =  6.0
     Generated using &quot;atomic&quot; code by A. Dal Corso  v.6.3
     Shape of augmentation charge: PSQ
     Using radial grid of 1151 points,  6 beta functions with: 
                l(1) =   0
                l(2) =   0
                l(3) =   1
                l(4) =   1
                l(5) =   2
                l(6) =   2
     Q(r) pseudized with 0 coefficients 


     PseudoPot. # 2 for W  read from file:
     /share/work_r640/fmigm008/pseudo/W.pbe-spn-kjpaw_psl.1.0.0.UPF
     MD5 check sum: 03c3df5b60893f488392c7401945500a
     Pseudo is Projector augmented-wave + core cor, Zval = 14.0
     Generated using &quot;atomic&quot; code by A. Dal Corso  v.6.2.2
     Shape of augmentation charge: PSQ
     Using radial grid of 1273 points,  6 beta functions with: 
                l(1) =   0
                l(2) =   0
                l(3) =   1
                l(4) =   1
                l(5) =   2
                l(6) =   2
     Q(r) pseudized with 0 coefficients 


     PseudoPot. # 3 for Ag read from file:
     /share/work_r640/fmigm008/pseudo/Ag.pbe-n-kjpaw_psl.1.0.0.UPF
     MD5 check sum: 51099775af2a3182a6a1caffb86952a3
     Pseudo is Projector augmented-wave + core cor, Zval = 11.0
     Generated using &quot;atomic&quot; code by A. Dal Corso  v.6.2.2
     Shape of augmentation charge: PSQ
     Using radial grid of 1237 points,  6 beta functions with: 
                l(1) =   0
                l(2) =   0
                l(3) =   1
                l(4) =   1
                l(5) =   2
                l(6) =   2
     Q(r) pseudized with 0 coefficients 


     PseudoPot. # 4 for N  read from file:
     /share/work_r640/fmigm008/pseudo/N.pbe-n-kjpaw_psl.1.0.0.UPF
     MD5 check sum: 14c48229446f9f2d411169a3abcbc3fa
     Pseudo is Projector augmented-wave + core cor, Zval =  5.0
     Generated using &quot;atomic&quot; code by A. Dal Corso  v.6.3
     Shape of augmentation charge: PSQ
     Using radial grid of 1085 points,  4 beta functions with: 
                l(1) =   0
                l(2) =   0
                l(3) =   1
                l(4) =   1
     Q(r) pseudized with 0 coefficients 


     PseudoPot. # 5 for O  read from file:
     /share/work_r640/fmigm008/pseudo/O.pbe-n-kjpaw_psl.1.0.0.UPF
     MD5 check sum: e99d9cef9b487d1ca56f5b95ecd0fd7a
     Pseudo is Projector augmented-wave + core cor, Zval =  6.0
     Generated using &quot;atomic&quot; code by A. Dal Corso  v.6.3
     Shape of augmentation charge: PSQ
     Using radial grid of 1095 points,  4 beta functions with: 
                l(1) =   0
                l(2) =   0
                l(3) =   1
                l(4) =   1
     Q(r) pseudized with 0 coefficients 


     PseudoPot. # 6 for H  read from file:
     /share/work_r640/fmigm008/pseudo/H.pbe-kjpaw_psl.1.0.0.UPF
     MD5 check sum: d81a744832360e4a8af0b0b5b123bc2a
     Pseudo is Projector augmented-wave, Zval =  1.0
     Generated using &quot;atomic&quot; code by A. Dal Corso  v.6.3MaX
     Shape of augmentation charge: PSQ
     Using radial grid of  929 points,  2 beta functions with: 
                l(1) =   0
                l(2) =   0
     Q(r) pseudized with 0 coefficients 


     atomic species   valence    mass     pseudopotential
     S                 6.00    32.06500     S ( 1.00)
     W                14.00   183.84000     W ( 1.00)
     Ag               11.00   107.87000     Ag( 1.00)
     N                 5.00    14.00700     N ( 1.00)
     O                 6.00    15.99900     O ( 1.00)
     H                 1.00     1.00800     H ( 1.00)

     Starting magnetic structure 
     atomic species   magnetization
     S               0.000
     W               0.000
     Ag              0.000
     N               0.000
     O               0.000
     H               0.000

     No symmetry found


                                    s                        frac. trans.

      isym =  1     identity                                     

 cryst.   s( 1) = (     1          0          0      )
                  (     0          1          0      )
                  (     0          0          1      )

 cart.    s( 1) = (  1.0000000  0.0000000  0.0000000 )
                  (  0.0000000  1.0000000  0.0000000 )
                  (  0.0000000  0.0000000  1.0000000 )


   Cartesian axes

     site n.     atom                  positions (alat units)
         1        W      tau(   1) = (  -0.0028587   0.1395947   0.2444812  )
         2        W      tau(   2) = (  -0.1282026   0.3564836   0.2443568  )
         3        W      tau(   3) = (  -0.2537731   0.5727289   0.2442261  )
         4        W      tau(   4) = (  -0.3783723   0.7888166   0.2441498  )
         5        W      tau(   5) = (   0.2469096   0.1395426   0.2440120  )
         6        W      tau(   6) = (   0.1225026   0.3570726   0.2432304  )
         7        W      tau(   7) = (  -0.0034888   0.5727502   0.2429844  )
         8        W      tau(   8) = (  -0.1283671   0.7891505   0.2439766  )
         9        W      tau(   9) = (   0.4969194   0.1397378   0.2430413  )
        10        W      tau(  10) = (   0.3721499   0.3552416   0.2405337  )
        11        W      tau(  11) = (   0.2452295   0.5727639   0.2402480  )
        12        W      tau(  12) = (   0.1220165   0.7890246   0.2436243  )
        13        W      tau(  13) = (   0.7467445   0.1394449   0.2440642  )
        14        W      tau(  14) = (   0.6211264   0.3563823   0.2436826  )
        15        W      tau(  15) = (   0.4971469   0.5732720   0.2421413  )
        16        W      tau(  16) = (   0.3721785   0.7886524   0.2428338  )
        17        S      tau(  17) = (   0.1219502   0.0672380   0.3684592  )
        18        S      tau(  18) = (  -0.0024014   0.2846735   0.3681910  )
        19        S      tau(  19) = (  -0.1281525   0.5008469   0.3682441  )
        20        S      tau(  20) = (  -0.2533258   0.7170167   0.3685687  )
        21        S      tau(  21) = (   0.3722606   0.0676427   0.3679766  )
        22        S      tau(  22) = (   0.2484890   0.2849851   0.3676532  )
        23        S      tau(  23) = (   0.1218721   0.5017515   0.3660861  )
        24        S      tau(  24) = (  -0.0030403   0.7167922   0.3679041  )
        25        S      tau(  25) = (   0.6215745   0.0674060   0.3678624  )
        26        S      tau(  26) = (   0.4959803   0.2843589   0.3667029  )
        27        S      tau(  27) = (   0.3710177   0.5007270   0.3638206  )
        28        S      tau(  28) = (   0.2481984   0.7153351   0.3669892  )
        29        S      tau(  29) = (   0.8717811   0.0668114   0.3679626  )
        30        S      tau(  30) = (   0.7463862   0.2840842   0.3681041  )
        31        S      tau(  31) = (   0.6195449   0.5004430   0.3687043  )
        32        S      tau(  32) = (   0.4956231   0.7159829   0.3681683  )
        33        S      tau(  33) = (   0.1218639   0.0672424   0.1203644  )
        34        S      tau(  34) = (  -0.0031686   0.2839920   0.1203246  )
        35        S      tau(  35) = (  -0.1290559   0.5005458   0.1199474  )
        36        S      tau(  36) = (  -0.2533637   0.7168463   0.1201865  )
        37        S      tau(  37) = (   0.3715067   0.0672515   0.1197328  )
        38        S      tau(  38) = (   0.2459712   0.2831895   0.1185177  )
        39        S      tau(  39) = (   0.1200987   0.4999851   0.1172124  )
        40        S      tau(  40) = (  -0.0034124   0.7174366   0.1195727  )
        41        S      tau(  41) = (   0.6220409   0.0671938   0.1195919  )
        42        S      tau(  42) = (   0.4978914   0.2834015   0.1177695  )
        43        S      tau(  43) = (   0.3720771   0.5008174   0.1169455  )
        44        S      tau(  44) = (   0.2466393   0.7180153   0.1180007  )
        45        S      tau(  45) = (   0.8722199   0.0680125   0.1199081  )
        46        S      tau(  46) = (   0.7469729   0.2840633   0.1202901  )
        47        S      tau(  47) = (   0.6222799   0.5003741   0.1191499  )
        48        S      tau(  48) = (   0.4972527   0.7176301   0.1185580  )
        49        Ag     tau(  49) = (   0.1547683   0.5150674   0.5753024  )
        50        Ag     tau(  50) = (   0.3069329   0.3595674   0.5464056  )
        51        Ag     tau(  51) = (   0.5024756   0.4743393   0.5615070  )
        52        Ag     tau(  52) = (   0.3399570   0.6321033   0.5430870  )
        53        Ag     tau(  53) = (   0.3428646   0.4953663   0.7084671  )
        54        N      tau(  54) = (   0.2596825   0.4648737   0.8674395  )
        55        O      tau(  55) = (   0.1477385   0.4509631   0.8500100  )
        56        H      tau(  56) = (   0.2650389   0.5234661   0.9229976  )
        57        H      tau(  57) = (   0.1408570   0.4629232   0.7729758  )
        58        H      tau(  58) = (   0.2837088   0.3964009   0.9016322  )

     --------------------------------------------
     DFT-D3 Dispersion Correction (3-body terms):
     --------------------------------------------
       Reference C6 values for interpolation: 

         atom   Coordination number   C6
         H          0.912             6.05
         H          0.000            15.18
         N          0.000            50.54
         N          0.994            44.25
         N          2.014            39.35
         N          2.990            31.16
         O          0.000            31.01
         O          0.993            25.63
         O          1.989            20.74
         S          0.000           268.01
         S          0.995           261.99
         S          1.990           251.62
         Ag         0.000           853.49
         Ag         0.968           537.23
         W          0.000          1628.72
         W          1.929          1086.81
         W         10.915           796.19

       Values used:

         atom   Coordination number  R0_AB[au]  C6      C8
         W          9.805            3.766    796.19 128250.55
         W          9.806            3.766    796.19 128250.55
         W          9.854            3.766    796.19 128250.55
         W          9.866            3.766    796.19 128250.55
         W          9.842            3.766    796.19 128250.55
         W          9.851            3.766    796.19 128250.55
         W          9.870            3.766    796.19 128250.55
         W          9.833            3.766    796.19 128250.55
         W          9.854            3.766    796.19 128250.55
         W          9.880            3.766    796.19 128250.55
         W          9.879            3.766    796.19 128250.55
         W          9.846            3.766    796.19 128250.55
         W          9.811            3.766    796.19 128250.55
         W          9.849            3.766    796.19 128250.55
         W          9.870            3.766    796.19 128250.55
         W          9.855            3.766    796.19 128250.55
         S          3.670            3.128    251.62  12327.25
         S          3.672            3.128    251.62  12327.25
         S          3.679            3.128    251.62  12327.25
         S          3.675            3.128    251.62  12327.25
         S          3.690            3.128    251.62  12327.25
         S          4.579            3.128    251.62  12327.25
         S          4.512            3.128    251.62  12327.25
         S          3.693            3.128    251.62  12327.25
         S          3.676            3.128    251.62  12327.25
         S          3.843            3.128    251.62  12327.25
         S          4.976            3.128    251.62  12327.25
         S          4.443            3.128    251.62  12327.25
         S          3.677            3.128    251.62  12327.25
         S          3.672            3.128    251.62  12327.25
         S          4.198            3.128    251.62  12327.25
         S          3.918            3.128    251.62  12327.25
         S          3.700            3.128    251.62  12327.25
         S          3.699            3.128    251.62  12327.25
         S          3.697            3.128    251.62  12327.25
         S          3.697            3.128    251.62  12327.25
         S          3.689            3.128    251.62  12327.25
         S          3.673            3.128    251.62  12327.25
         S          3.669            3.128    251.62  12327.25
         S          3.689            3.128    251.62  12327.25
         S          3.693            3.128    251.62  12327.25
         S          3.672            3.128    251.62  12327.25
         S          3.662            3.128    251.62  12327.25
         S          3.672            3.128    251.62  12327.25
         S          3.693            3.128    251.62  12327.25
         S          3.697            3.128    251.62  12327.25
         S          3.686            3.128    251.62  12327.25
         S          3.680            3.128    251.62  12327.25
         Ag         3.221            3.147    537.23  47741.54
         Ag         3.973            3.147    537.23  47741.54
         Ag         3.317            3.147    537.23  47741.54
         Ag         4.158            3.147    537.23  47741.54
         Ag         4.123            3.147    537.23  47741.54
         N          3.752            2.478     31.16    687.50
         O          2.001            2.345     20.82    420.12
         H          1.005            2.062      6.18     74.66
         H          1.030            2.062      6.16     74.42
         H          1.008            2.062      6.17     74.64

         Molecular C6 ( Ry / a.u.^6 ) =   1190031.13


   Crystallographic axes

     site n.     atom                  positions (cryst. coord.)
         1        W      tau(   1) = (  0.0777364  0.1611901  0.1550056  )
         2        W      tau(   2) = (  0.0776133  0.4116318  0.1549267  )
         3        W      tau(   3) = (  0.0768921  0.6613303  0.1548438  )
         4        W      tau(   4) = (  0.0770512  0.9108469  0.1547955  )
         5        W      tau(   5) = (  0.3274746  0.1611299  0.1547081  )
         6        W      tau(   6) = (  0.3286586  0.4123119  0.1542125  )
         7        W      tau(   7) = (  0.3271886  0.6613549  0.1540566  )
         8        W      tau(   8) = (  0.3272492  0.9112326  0.1546856  )
         9        W      tau(   9) = (  0.5775970  0.1613553  0.1540926  )
        10        W      tau(  10) = (  0.5772488  0.4101977  0.1525028  )
        11        W      tau(  11) = (  0.5759149  0.6613708  0.1523217  )
        12        W      tau(  12) = (  0.5775601  0.9110871  0.1544623  )
        13        W      tau(  13) = (  0.8272530  0.1610171  0.1547412  )
        14        W      tau(  14) = (  0.8268839  0.4115149  0.1544993  )
        15        W      tau(  15) = (  0.8281256  0.6619575  0.1535220  )
        16        W      tau(  16) = (  0.8275072  0.9106573  0.1539611  )
        17        S      tau(  17) = (  0.1607701  0.0776397  0.2336099  )
        18        S      tau(  18) = (  0.1619549  0.3287126  0.2334399  )
        19        S      tau(  19) = (  0.1610116  0.5783281  0.2334735  )
        20        S      tau(  20) = (  0.1606439  0.8279395  0.2336794  )
        21        S      tau(  21) = (  0.4113141  0.0781070  0.2333040  )
        22        S      tau(  22) = (  0.4130252  0.3290725  0.2330989  )
        23        S      tau(  23) = (  0.4115585  0.5793727  0.2321053  )
        24        S      tau(  24) = (  0.4107998  0.8276803  0.2332579  )
        25        S      tau(  25) = (  0.6604913  0.0778337  0.2332315  )
        26        S      tau(  26) = (  0.6601550  0.3283494  0.2324963  )
        27        S      tau(  27) = (  0.6601125  0.5781897  0.2306689  )
        28        S      tau(  28) = (  0.6611973  0.8259978  0.2326779  )
        29        S      tau(  29) = (  0.9103547  0.0771472  0.2332950  )
        30        S      tau(  30) = (  0.9104023  0.3280322  0.2333848  )
        31        S      tau(  31) = (  0.9084758  0.5778618  0.2337653  )
        32        S      tau(  32) = (  0.9089960  0.8267459  0.2334255  )
        33        S      tau(  33) = (  0.1606863  0.0776448  0.0763132  )
        34        S      tau(  34) = (  0.1607942  0.3279257  0.0762880  )
        35        S      tau(  35) = (  0.1599344  0.5779805  0.0760488  )
        36        S      tau(  36) = (  0.1605077  0.8277428  0.0762004  )
        37        S      tau(  37) = (  0.4103343  0.0776554  0.0759128  )
        38        S      tau(  38) = (  0.4094707  0.3269991  0.0751424  )
        39        S      tau(  39) = (  0.4087652  0.5773330  0.0743148  )
        40        S      tau(  40) = (  0.4107999  0.8284245  0.0758113  )
        41        S      tau(  41) = (  0.6608352  0.0775887  0.0758235  )
        42        S      tau(  42) = (  0.6615133  0.3272438  0.0746680  )
        43        S      tau(  43) = (  0.6612241  0.5782941  0.0741456  )
        44        S      tau(  44) = (  0.6611856  0.8290927  0.0748146  )
        45        S      tau(  45) = (  0.9114869  0.0785340  0.0760239  )
        46        S      tau(  46) = (  0.9109769  0.3280081  0.0762661  )
        47        S      tau(  47) = (  0.9111710  0.5777822  0.0755432  )
        48        S      tau(  48) = (  0.9115766  0.8286478  0.0751680  )
        49        Ag     tau(  49) = (  0.4521427  0.5947486  0.3647523  )
        50        Ag     tau(  50) = (  0.5145293  0.4151927  0.3464312  )
        51        Ag     tau(  51) = (  0.7763355  0.5477198  0.3560058  )
        52        Ag     tau(  52) = (  0.7049020  0.7298900  0.3443271  )
        53        Ag     tau(  53) = (  0.6288645  0.5719998  0.4491812  )
        54        N      tau(  54) = (  0.5280775  0.5367899  0.5499726  )
        55        O      tau(  55) = (  0.4081021  0.5207274  0.5389220  )
        56        H      tau(  56) = (  0.5672622  0.6044466  0.5851974  )
        57        H      tau(  57) = (  0.4081259  0.5345377  0.4900809  )
        58        H      tau(  58) = (  0.5125710  0.4577243  0.5716514  )

     number of k points=    13
                       cart. coord. in units 2pi/alat
        k(    1) = (   0.0000000   0.0000000   0.0000000), wk =   0.0400000
        k(    2) = (   0.0000000   0.2309401   0.0000000), wk =   0.0800000
        k(    3) = (   0.0000000   0.4618802   0.0000000), wk =   0.0800000
        k(    4) = (   0.2000000   0.3464102   0.0000000), wk =   0.0800000
        k(    5) = (   0.2000000   0.5773503   0.0000000), wk =   0.0800000
        k(    6) = (  -0.2000000   0.1154701   0.0000000), wk =   0.0800000
        k(    7) = (   0.2000000   0.1154701   0.0000000), wk =   0.0800000
        k(    8) = (  -0.4000000   0.2309401   0.0000000), wk =   0.0800000
        k(    9) = (   0.4000000   0.2309401   0.0000000), wk =   0.0800000
        k(   10) = (  -0.2000000   0.3464102   0.0000000), wk =   0.0800000
        k(   11) = (   0.4000000  -0.0000000   0.0000000), wk =   0.0800000
        k(   12) = (  -0.4000000   0.4618802   0.0000000), wk =   0.0800000
        k(   13) = (   0.6000000   0.1154701   0.0000000), wk =   0.0800000

                       cryst. coord.
        k(    1) = (   0.0000000   0.0000000   0.0000000), wk =   0.0400000
        k(    2) = (   0.0000000   0.2000000   0.0000000), wk =   0.0800000
        k(    3) = (   0.0000000   0.4000000   0.0000000), wk =   0.0800000
        k(    4) = (   0.2000000   0.2000000   0.0000000), wk =   0.0800000
        k(    5) = (   0.2000000   0.4000000   0.0000000), wk =   0.0800000
        k(    6) = (  -0.2000000   0.2000000   0.0000000), wk =   0.0800000
        k(    7) = (   0.2000000   0.0000000   0.0000000), wk =   0.0800000
        k(    8) = (  -0.4000000   0.4000000   0.0000000), wk =   0.0800000
        k(    9) = (   0.4000000   0.0000000   0.0000000), wk =   0.0800000
        k(   10) = (  -0.2000000   0.4000000   0.0000000), wk =   0.0800000
        k(   11) = (   0.4000000  -0.2000000   0.0000000), wk =   0.0800000
        k(   12) = (  -0.4000000   0.6000000   0.0000000), wk =   0.0800000
        k(   13) = (   0.6000000  -0.2000000   0.0000000), wk =   0.0800000

     Dense  grid:  2539249 G-vectors     FFT dimensions: ( 160, 160, 243)

     Smooth grid:   897387 G-vectors     FFT dimensions: ( 108, 108, 180)

     Dynamical RAM for                 wfc:       6.50 MB

     Dynamical RAM for     wfc (w. buffer):     175.50 MB

     Dynamical RAM for           str. fact:       3.63 MB

     Dynamical RAM for           local pot:       0.00 MB

     Dynamical RAM for          nlocal pot:      26.11 MB

     Dynamical RAM for                qrad:       9.63 MB

     Dynamical RAM for          rho,v,vnew:       8.32 MB

     Dynamical RAM for               rhoin:       2.77 MB

     Dynamical RAM for            rho*nmix:      19.38 MB

     Dynamical RAM for           G-vectors:       2.38 MB

     Dynamical RAM for          h,s,v(r/c):       2.70 MB

     Dynamical RAM for          <psi|beta>:       3.62 MB

     Dynamical RAM for                 psi:      13.00 MB

     Dynamical RAM for                hpsi:      13.00 MB

     Dynamical RAM for                spsi:      13.00 MB

     Dynamical RAM for      wfcinit/wfcrot:      14.35 MB

     Dynamical RAM for           addusdens:     132.60 MB

     Dynamical RAM for          addusforce:     170.39 MB

     Dynamical RAM for         addusstress:     122.61 MB

     Estimated static dynamical RAM per process >     237.27 MB

     Estimated max dynamical RAM per process >     427.03 MB

     Estimated total dynamical RAM >      26.69 GB
     Generating pointlists ...
     new r_m :   0.0782 (alat units)  1.8731 (a.u.) for type    1
     new r_m :   0.0782 (alat units)  1.8731 (a.u.) for type    2
     new r_m :   0.0751 (alat units)  1.7989 (a.u.) for type    3
     new r_m :   0.0331 (alat units)  0.7929 (a.u.) for type    4
     new r_m :   0.0323 (alat units)  0.7736 (a.u.) for type    5
     new r_m :   0.0323 (alat units)  0.7736 (a.u.) for type    6

     Initial potential from superposition of free atoms

     starting charge     484.9880, renormalised to     485.0000

     negative rho (up, down):  1.010E-03 1.010E-03
     Starting wfcs are  392 randomized atomic wfcs
     Checking if some PAW data can be deallocated... 
       PAW data deallocated on   32 nodes for type:  1
       PAW data deallocated on   42 nodes for type:  2
       PAW data deallocated on   59 nodes for type:  3
       PAW data deallocated on   63 nodes for type:  4
       PAW data deallocated on   63 nodes for type:  5
       PAW data deallocated on   61 nodes for type:  6

     total cpu time spent up to now is      189.2 secs

     per-process dynamical memory:   308.7 Mb

     Self-consistent Calculation

     iteration #  1     ecut=    50.00 Ry     beta= 0.40
     Davidson diagonalization with overlap

---- Real-time Memory Report at c_bands before calling an iterative solver
           367 MiB given to the printing process from OS
           301 MiB allocation reported by mallinfo(arena+hblkhd)
         78570 MiB available memory on the node where the printing process lives
------------------
     ethr =  1.00E-02,  avg # of iterations =  2.0

     Threshold (ethr) on eigenvalues was too large:
     Diagonalizing with lowered threshold

     Davidson diagonalization with overlap

---- Real-time Memory Report at c_bands before calling an iterative solver
           471 MiB given to the printing process from OS
           304 MiB allocation reported by mallinfo(arena+hblkhd)
         77194 MiB available memory on the node where the printing process lives
------------------
     ethr =  4.34E-04,  avg # of iterations =  4.8

     negative rho (up, down):  1.026E-02 6.718E-03

     total cpu time spent up to now is      941.3 secs

     total energy              =  -16138.22514782 Ry
     estimated scf accuracy    <       2.44359497 Ry

     total magnetization       =     1.00 Bohr mag/cell
     absolute magnetization    =     4.14 Bohr mag/cell

     iteration #  2     ecut=    50.00 Ry     beta= 0.40
     Davidson diagonalization with overlap

---- Real-time Memory Report at c_bands before calling an iterative solver
           478 MiB given to the printing process from OS
           311 MiB allocation reported by mallinfo(arena+hblkhd)
         75095 MiB available memory on the node where the printing process lives
------------------
     ethr =  5.04E-04,  avg # of iterations =  7.4

     negative rho (up, down):  3.207E-02 2.293E-02

     total cpu time spent up to now is     1338.8 secs

     total energy              =  -16138.44590639 Ry
     estimated scf accuracy    <       0.41452019 Ry

     total magnetization       =     1.00 Bohr mag/cell
     absolute magnetization    =     3.05 Bohr mag/cell

     iteration #  3     ecut=    50.00 Ry     beta= 0.40
     Davidson diagonalization with overlap

---- Real-time Memory Report at c_bands before calling an iterative solver
           481 MiB given to the printing process from OS
           313 MiB allocation reported by mallinfo(arena+hblkhd)
         75051 MiB available memory on the node where the printing process lives
------------------
     ethr =  8.55E-05,  avg # of iterations =  8.4

     negative rho (up, down):  3.691E-02 2.759E-02

     total cpu time spent up to now is     1751.1 secs

     total energy              =  -16138.51333176 Ry
     estimated scf accuracy    <       0.22862005 Ry

     total magnetization       =     1.00 Bohr mag/cell
     absolute magnetization    =     2.37 Bohr mag/cell

     iteration #  4     ecut=    50.00 Ry     beta= 0.40
     Davidson diagonalization with overlap

---- Real-time Memory Report at c_bands before calling an iterative solver
           482 MiB given to the printing process from OS
           314 MiB allocation reported by mallinfo(arena+hblkhd)
         74984 MiB available memory on the node where the printing process lives
------------------
     ethr =  4.71E-05,  avg # of iterations =  9.7

     negative rho (up, down):  3.089E-02 2.402E-02

     total cpu time spent up to now is     2127.5 secs

     total energy              =  -16138.54481857 Ry
     estimated scf accuracy    <       0.05173826 Ry

     total magnetization       =     1.00 Bohr mag/cell
     absolute magnetization    =     1.99 Bohr mag/cell

     iteration #  5     ecut=    50.00 Ry     beta= 0.40
     Davidson diagonalization with overlap

---- Real-time Memory Report at c_bands before calling an iterative solver
           512 MiB given to the printing process from OS
           346 MiB allocation reported by mallinfo(arena+hblkhd)
         74428 MiB available memory on the node where the printing process lives
------------------
     ethr =  1.07E-05,  avg # of iterations =  7.2

     negative rho (up, down):  2.143E-02 1.705E-02

     total cpu time spent up to now is     2521.5 secs

     total energy              =  -16138.54982932 Ry
     estimated scf accuracy    <       0.03218544 Ry

     total magnetization       =     1.00 Bohr mag/cell
     absolute magnetization    =     1.71 Bohr mag/cell

     iteration #  6     ecut=    50.00 Ry     beta= 0.40
     Davidson diagonalization with overlap

---- Real-time Memory Report at c_bands before calling an iterative solver
           516 MiB given to the printing process from OS
           348 MiB allocation reported by mallinfo(arena+hblkhd)
         73685 MiB available memory on the node where the printing process lives
------------------
     ethr =  6.64E-06,  avg # of iterations =  7.3

     negative rho (up, down):  1.389E-02 1.144E-02

     total cpu time spent up to now is     2883.2 secs

     total energy              =  -16138.55307470 Ry
     estimated scf accuracy    <       0.01710121 Ry

     total magnetization       =     1.00 Bohr mag/cell
     absolute magnetization    =     1.49 Bohr mag/cell

     iteration #  7     ecut=    50.00 Ry     beta= 0.40
     Davidson diagonalization with overlap

---- Real-time Memory Report at c_bands before calling an iterative solver
           516 MiB given to the printing process from OS
           350 MiB allocation reported by mallinfo(arena+hblkhd)
         74011 MiB available memory on the node where the printing process lives
------------------
     ethr =  3.53E-06,  avg # of iterations =  5.6

     negative rho (up, down):  1.998E-02 2.053E-02

     total cpu time spent up to now is     3218.2 secs

     total energy              =  -16138.55173640 Ry
     estimated scf accuracy    <       0.00843565 Ry

     total magnetization       =     1.00 Bohr mag/cell
     absolute magnetization    =     1.34 Bohr mag/cell

     iteration #  8     ecut=    50.00 Ry     beta= 0.40
     Davidson diagonalization with overlap

---- Real-time Memory Report at c_bands before calling an iterative solver
           518 MiB given to the printing process from OS
           350 MiB allocation reported by mallinfo(arena+hblkhd)
         73998 MiB available memory on the node where the printing process lives
------------------
     ethr =  1.74E-06,  avg # of iterations =  8.0

     negative rho (up, down):  2.098E-02 2.212E-02

     total cpu time spent up to now is     3565.3 secs

     total energy              =  -16138.55139120 Ry
     estimated scf accuracy    <       0.00251277 Ry

     total magnetization       =     1.00 Bohr mag/cell
     absolute magnetization    =     1.22 Bohr mag/cell

     iteration #  9     ecut=    50.00 Ry     beta= 0.40
     Davidson diagonalization with overlap

---- Real-time Memory Report at c_bands before calling an iterative solver
           518 MiB given to the printing process from OS
           351 MiB allocation reported by mallinfo(arena+hblkhd)
         73960 MiB available memory on the node where the printing process lives
------------------
     ethr =  5.18E-07,  avg # of iterations =  8.0

     negative rho (up, down):  1.527E-02 1.620E-02

     total cpu time spent up to now is     3961.7 secs

     total energy              =  -16138.55330051 Ry
     estimated scf accuracy    <       0.00052240 Ry

     total magnetization       =     1.00 Bohr mag/cell
     absolute magnetization    =     1.17 Bohr mag/cell

     iteration # 10     ecut=    50.00 Ry     beta= 0.40
     Davidson diagonalization with overlap

---- Real-time Memory Report at c_bands before calling an iterative solver
           519 MiB given to the printing process from OS
           352 MiB allocation reported by mallinfo(arena+hblkhd)
         73733 MiB available memory on the node where the printing process lives
------------------
     ethr =  1.08E-07,  avg # of iterations =  7.1

     negative rho (up, down):  1.093E-02 1.168E-02

     total cpu time spent up to now is     4410.1 secs

     total energy              =  -16138.55440862 Ry
     estimated scf accuracy    <       0.00018076 Ry

     total magnetization       =     1.00 Bohr mag/cell
     absolute magnetization    =     1.15 Bohr mag/cell

     iteration # 11     ecut=    50.00 Ry     beta= 0.40
     Davidson diagonalization with overlap

---- Real-time Memory Report at c_bands before calling an iterative solver
           522 MiB given to the printing process from OS
           354 MiB allocation reported by mallinfo(arena+hblkhd)
         73974 MiB available memory on the node where the printing process lives
------------------
     ethr =  3.73E-08,  avg # of iterations =  7.7

     negative rho (up, down):  7.983E-03 8.596E-03

     total cpu time spent up to now is     4798.5 secs

     total energy              =  -16138.55498258 Ry
     estimated scf accuracy    <       0.00012542 Ry

     total magnetization       =     1.00 Bohr mag/cell
     absolute magnetization    =     1.14 Bohr mag/cell

     iteration # 12     ecut=    50.00 Ry     beta= 0.40
     Davidson diagonalization with overlap

---- Real-time Memory Report at c_bands before calling an iterative solver
           522 MiB given to the printing process from OS
           354 MiB allocation reported by mallinfo(arena+hblkhd)
         95643 MiB available memory on the node where the printing process lives
------------------
     ethr =  2.59E-08,  avg # of iterations =  6.6

     negative rho (up, down):  6.085E-03 6.552E-03

     total cpu time spent up to now is     5106.6 secs

     total energy              =  -16138.55525797 Ry
     estimated scf accuracy    <       0.00003433 Ry

     total magnetization       =     1.00 Bohr mag/cell
     absolute magnetization    =     1.13 Bohr mag/cell

     iteration # 13     ecut=    50.00 Ry     beta= 0.40
     Davidson diagonalization with overlap

---- Real-time Memory Report at c_bands before calling an iterative solver
           522 MiB given to the printing process from OS
           354 MiB allocation reported by mallinfo(arena+hblkhd)
         95777 MiB available memory on the node where the printing process lives
------------------
     ethr =  7.08E-09,  avg # of iterations =  7.0

     negative rho (up, down):  5.203E-03 5.607E-03

     total cpu time spent up to now is     5441.7 secs

     total energy              =  -16138.55536011 Ry
     estimated scf accuracy    <       0.00001778 Ry

     total magnetization       =     1.00 Bohr mag/cell
     absolute magnetization    =     1.12 Bohr mag/cell

     iteration # 14     ecut=    50.00 Ry     beta= 0.40
     Davidson diagonalization with overlap

---- Real-time Memory Report at c_bands before calling an iterative solver
           522 MiB given to the printing process from OS
           354 MiB allocation reported by mallinfo(arena+hblkhd)
         95842 MiB available memory on the node where the printing process lives
------------------
     ethr =  3.67E-09,  avg # of iterations =  2.0

     negative rho (up, down):  4.873E-03 5.251E-03

     total cpu time spent up to now is     5682.4 secs

     total energy              =  -16138.55539708 Ry
     estimated scf accuracy    <       0.00001213 Ry

     total magnetization       =     1.00 Bohr mag/cell
     absolute magnetization    =     1.12 Bohr mag/cell

     iteration # 15     ecut=    50.00 Ry     beta= 0.40
     Davidson diagonalization with overlap

---- Real-time Memory Report at c_bands before calling an iterative solver
           527 MiB given to the printing process from OS
           354 MiB allocation reported by mallinfo(arena+hblkhd)
         95931 MiB available memory on the node where the printing process lives
------------------
     ethr =  2.50E-09,  avg # of iterations =  2.0

     negative rho (up, down):  4.826E-03 5.200E-03

     total cpu time spent up to now is     5914.9 secs

     total energy              =  -16138.55540365 Ry
     estimated scf accuracy    <       0.00000994 Ry

     total magnetization       =     1.00 Bohr mag/cell
     absolute magnetization    =     1.12 Bohr mag/cell

     iteration # 16     ecut=    50.00 Ry     beta= 0.40
     Davidson diagonalization with overlap

---- Real-time Memory Report at c_bands before calling an iterative solver
           528 MiB given to the printing process from OS
           354 MiB allocation reported by mallinfo(arena+hblkhd)
         95894 MiB available memory on the node where the printing process lives
------------------
     ethr =  2.05E-09,  avg # of iterations =  1.5

     negative rho (up, down):  5.035E-03 5.431E-03

     total cpu time spent up to now is     6139.6 secs

     total energy              =  -16138.55537904 Ry
     estimated scf accuracy    <       0.00000893 Ry

     total magnetization       =     1.00 Bohr mag/cell
     absolute magnetization    =     1.12 Bohr mag/cell

     iteration # 17     ecut=    50.00 Ry     beta= 0.40
     Davidson diagonalization with overlap

---- Real-time Memory Report at c_bands before calling an iterative solver
           528 MiB given to the printing process from OS
           354 MiB allocation reported by mallinfo(arena+hblkhd)
         95853 MiB available memory on the node where the printing process lives
------------------
     ethr =  1.84E-09,  avg # of iterations =  9.3

     negative rho (up, down):  5.102E-03 5.495E-03

     total cpu time spent up to now is     6410.7 secs

     total energy              =  -16138.55537144 Ry
     estimated scf accuracy    <       0.00000533 Ry

     total magnetization       =     1.00 Bohr mag/cell
     absolute magnetization    =     1.12 Bohr mag/cell

     iteration # 18     ecut=    50.00 Ry     beta= 0.40
     Davidson diagonalization with overlap

---- Real-time Memory Report at c_bands before calling an iterative solver
           528 MiB given to the printing process from OS
           354 MiB allocation reported by mallinfo(arena+hblkhd)
         95818 MiB available memory on the node where the printing process lives
------------------
     ethr =  1.10E-09,  avg # of iterations =  7.3

     negative rho (up, down):  4.881E-03 5.260E-03

     total cpu time spent up to now is     6768.2 secs

     total energy              =  -16138.55539578 Ry
     estimated scf accuracy    <       0.00000890 Ry

     total magnetization       =     1.00 Bohr mag/cell
     absolute magnetization    =     1.12 Bohr mag/cell

     iteration # 19     ecut=    50.00 Ry     beta= 0.40
     Davidson diagonalization with overlap

---- Real-time Memory Report at c_bands before calling an iterative solver
           529 MiB given to the printing process from OS
           355 MiB allocation reported by mallinfo(arena+hblkhd)
         95859 MiB available memory on the node where the printing process lives
------------------
     ethr =  1.10E-09,  avg # of iterations =  2.0

     negative rho (up, down):  4.803E-03 5.171E-03

     total cpu time spent up to now is     7003.0 secs

     total energy              =  -16138.55540439 Ry
     estimated scf accuracy    <       0.00000473 Ry

     total magnetization       =     1.00 Bohr mag/cell
     absolute magnetization    =     1.12 Bohr mag/cell

     iteration # 20     ecut=    50.00 Ry     beta= 0.40
     Davidson diagonalization with overlap

---- Real-time Memory Report at c_bands before calling an iterative solver
           529 MiB given to the printing process from OS
           355 MiB allocation reported by mallinfo(arena+hblkhd)
         95940 MiB available memory on the node where the printing process lives
------------------
     ethr =  9.75E-10,  avg # of iterations =  8.2

     negative rho (up, down):  4.806E-03 5.172E-03

     total cpu time spent up to now is     7346.5 secs

     total energy              =  -16138.55540526 Ry
     estimated scf accuracy    <       0.00000265 Ry

     total magnetization       =     1.00 Bohr mag/cell
     absolute magnetization    =     1.12 Bohr mag/cell

     iteration # 21     ecut=    50.00 Ry     beta= 0.40
     Davidson diagonalization with overlap

---- Real-time Memory Report at c_bands before calling an iterative solver
           529 MiB given to the printing process from OS
           355 MiB allocation reported by mallinfo(arena+hblkhd)
         95781 MiB available memory on the node where the printing process lives
------------------
     ethr =  5.47E-10,  avg # of iterations =  2.8

     negative rho (up, down):  4.800E-03 5.167E-03

     total cpu time spent up to now is     7587.0 secs

     total energy              =  -16138.55540569 Ry
     estimated scf accuracy    <       0.00000215 Ry

     total magnetization       =     1.00 Bohr mag/cell
     absolute magnetization    =     1.12 Bohr mag/cell

     iteration # 22     ecut=    50.00 Ry     beta= 0.40
     Davidson diagonalization with overlap

---- Real-time Memory Report at c_bands before calling an iterative solver
           529 MiB given to the printing process from OS
           355 MiB allocation reported by mallinfo(arena+hblkhd)
         95920 MiB available memory on the node where the printing process lives
------------------
     ethr =  4.44E-10,  avg # of iterations =  4.8

     negative rho (up, down):  4.798E-03 5.166E-03

     total cpu time spent up to now is     7831.1 secs

     total energy              =  -16138.55540579 Ry
     estimated scf accuracy    <       0.00000079 Ry

     total magnetization       =     1.00 Bohr mag/cell
     absolute magnetization    =     1.12 Bohr mag/cell

     iteration # 23     ecut=    50.00 Ry     beta= 0.40
     Davidson diagonalization with overlap

---- Real-time Memory Report at c_bands before calling an iterative solver
           529 MiB given to the printing process from OS
           355 MiB allocation reported by mallinfo(arena+hblkhd)
         95845 MiB available memory on the node where the printing process lives
------------------
     ethr =  1.63E-10,  avg # of iterations =  8.1

     negative rho (up, down):  4.798E-03 5.165E-03

     total cpu time spent up to now is     8120.0 secs

     total energy              =  -16138.55540590 Ry
     estimated scf accuracy    <       0.00000008 Ry

     total magnetization       =     1.00 Bohr mag/cell
     absolute magnetization    =     1.12 Bohr mag/cell

     iteration # 24     ecut=    50.00 Ry     beta= 0.40
     Davidson diagonalization with overlap

---- Real-time Memory Report at c_bands before calling an iterative solver
           529 MiB given to the printing process from OS
           355 MiB allocation reported by mallinfo(arena+hblkhd)
         95910 MiB available memory on the node where the printing process lives
------------------
     ethr =  1.57E-11,  avg # of iterations =  6.7

     negative rho (up, down):  4.797E-03 5.165E-03

     total cpu time spent up to now is     8472.8 secs

     total energy              =  -16138.55540589 Ry
     estimated scf accuracy    <       0.00000005 Ry

     total magnetization       =     1.00 Bohr mag/cell
     absolute magnetization    =     1.12 Bohr mag/cell

     iteration # 25     ecut=    50.00 Ry     beta= 0.40
     Davidson diagonalization with overlap

---- Real-time Memory Report at c_bands before calling an iterative solver
           529 MiB given to the printing process from OS
           355 MiB allocation reported by mallinfo(arena+hblkhd)
         95724 MiB available memory on the node where the printing process lives
------------------
     ethr =  9.61E-12,  avg # of iterations =  9.0

     negative rho (up, down):  4.797E-03 5.164E-03

     total cpu time spent up to now is     8760.7 secs

     total energy              =  -16138.55540591 Ry
     estimated scf accuracy    <       0.00000004 Ry

     total magnetization       =     1.00 Bohr mag/cell
     absolute magnetization    =     1.12 Bohr mag/cell

     iteration # 26     ecut=    50.00 Ry     beta= 0.40
     Davidson diagonalization with overlap

---- Real-time Memory Report at c_bands before calling an iterative solver
           529 MiB given to the printing process from OS
           355 MiB allocation reported by mallinfo(arena+hblkhd)
         95644 MiB available memory on the node where the printing process lives
------------------
     ethr =  7.38E-12,  avg # of iterations =  9.7

     negative rho (up, down):  4.797E-03 5.164E-03

     total cpu time spent up to now is     9028.7 secs

     total energy              =  -16138.55540592 Ry
     estimated scf accuracy    <          7.4E-09 Ry

     total magnetization       =     1.00 Bohr mag/cell
     absolute magnetization    =     1.12 Bohr mag/cell

     iteration # 27     ecut=    50.00 Ry     beta= 0.40
     Davidson diagonalization with overlap

---- Real-time Memory Report at c_bands before calling an iterative solver
           529 MiB given to the printing process from OS
           355 MiB allocation reported by mallinfo(arena+hblkhd)
         95605 MiB available memory on the node where the printing process lives
------------------
     ethr =  1.52E-12,  avg # of iterations =  7.0

     negative rho (up, down):  4.797E-03 5.164E-03

     total cpu time spent up to now is     9375.1 secs

     total energy              =  -16138.55540592 Ry
     estimated scf accuracy    <          2.1E-09 Ry

     total magnetization       =     1.00 Bohr mag/cell
     absolute magnetization    =     1.12 Bohr mag/cell

     iteration # 28     ecut=    50.00 Ry     beta= 0.40
     Davidson diagonalization with overlap

---- Real-time Memory Report at c_bands before calling an iterative solver
           529 MiB given to the printing process from OS
           355 MiB allocation reported by mallinfo(arena+hblkhd)
         95837 MiB available memory on the node where the printing process lives
------------------
     ethr =  4.34E-13,  avg # of iterations =  7.6

     negative rho (up, down):  4.797E-03 5.164E-03

     total cpu time spent up to now is     9686.0 secs

     total energy              =  -16138.55540592 Ry
     estimated scf accuracy    <          4.0E-09 Ry

     total magnetization       =     1.00 Bohr mag/cell
     absolute magnetization    =     1.12 Bohr mag/cell

     iteration # 29     ecut=    50.00 Ry     beta= 0.40
     Davidson diagonalization with overlap

---- Real-time Memory Report at c_bands before calling an iterative solver
           529 MiB given to the printing process from OS
           355 MiB allocation reported by mallinfo(arena+hblkhd)
         95813 MiB available memory on the node where the printing process lives
------------------
     ethr =  4.34E-13,  avg # of iterations =  2.0

     negative rho (up, down):  4.797E-03 5.164E-03

     total cpu time spent up to now is     9918.1 secs

     total energy              =  -16138.55540592 Ry
     estimated scf accuracy    <          2.5E-09 Ry

     total magnetization       =     1.00 Bohr mag/cell
     absolute magnetization    =     1.12 Bohr mag/cell

     iteration # 30     ecut=    50.00 Ry     beta= 0.40
     Davidson diagonalization with overlap

---- Real-time Memory Report at c_bands before calling an iterative solver
           529 MiB given to the printing process from OS
           355 MiB allocation reported by mallinfo(arena+hblkhd)
         95777 MiB available memory on the node where the printing process lives
------------------
     ethr =  4.34E-13,  avg # of iterations =  8.2

     negative rho (up, down):  4.797E-03 5.164E-03

     total cpu time spent up to now is    10220.8 secs

     total energy              =  -16138.55540592 Ry
     estimated scf accuracy    <          1.4E-10 Ry

     total magnetization       =     1.00 Bohr mag/cell
     absolute magnetization    =     1.12 Bohr mag/cell

     iteration # 31     ecut=    50.00 Ry     beta= 0.40
     Davidson diagonalization with overlap

---- Real-time Memory Report at c_bands before calling an iterative solver
           529 MiB given to the printing process from OS
           355 MiB allocation reported by mallinfo(arena+hblkhd)
         95691 MiB available memory on the node where the printing process lives
------------------
     ethr =  1.00E-13,  avg # of iterations =  5.0

     negative rho (up, down):  4.797E-03 5.164E-03

     Magnetic moment per site  (integrated on atomic sphere of radius R)
     atom   1 (R=0.078)  charge= 10.3731  magn=  0.0015
     atom   2 (R=0.078)  charge= 10.3731  magn=  0.0080
     atom   3 (R=0.078)  charge= 10.3740  magn= -0.0007
     atom   4 (R=0.078)  charge= 10.3743  magn=  0.0147
     atom   5 (R=0.078)  charge= 10.3763  magn=  0.0111
     atom   6 (R=0.078)  charge= 10.3757  magn=  0.0063
     atom   7 (R=0.078)  charge= 10.3783  magn=  0.0052
     atom   8 (R=0.078)  charge= 10.3749  magn=  0.0108
     atom   9 (R=0.078)  charge= 10.3753  magn=  0.0033
     atom  10 (R=0.078)  charge= 10.3820  magn=  0.0364
     atom  11 (R=0.078)  charge= 10.3836  magn=  0.0167
     atom  12 (R=0.078)  charge= 10.3743  magn=  0.0164
     atom  13 (R=0.078)  charge= 10.3732  magn=  0.0029
     atom  14 (R=0.078)  charge= 10.3740  magn= -0.0006
     atom  15 (R=0.078)  charge= 10.3816  magn=  0.0171
     atom  16 (R=0.078)  charge= 10.3760  magn=  0.0042
     atom  17 (R=0.078)  charge=  4.1591  magn=  0.0027
     atom  18 (R=0.078)  charge=  4.1558  magn=  0.0017
     atom  19 (R=0.078)  charge=  4.1586  magn= -0.0000
     atom  20 (R=0.078)  charge=  4.1590  magn=  0.0027
     atom  21 (R=0.078)  charge=  4.1594  magn=  0.0025
     atom  22 (R=0.078)  charge=  4.1750  magn=  0.0122
     atom  23 (R=0.078)  charge=  4.1787  magn=  0.0050
     atom  24 (R=0.078)  charge=  4.1586  magn=  0.0036
     atom  25 (R=0.078)  charge=  4.1591  magn=  0.0022
     atom  26 (R=0.078)  charge=  4.1626  magn=  0.0026
     atom  27 (R=0.078)  charge=  4.1805  magn=  0.0068
     atom  28 (R=0.078)  charge=  4.1668  magn=  0.0125
     atom  29 (R=0.078)  charge=  4.1578  magn=  0.0030
     atom  30 (R=0.078)  charge=  4.1574  magn=  0.0007
     atom  31 (R=0.078)  charge=  4.1566  magn=  0.0017
     atom  32 (R=0.078)  charge=  4.1575  magn=  0.0062
     atom  33 (R=0.078)  charge=  4.1610  magn=  0.0008
     atom  34 (R=0.078)  charge=  4.1591  magn=  0.0008
     atom  35 (R=0.078)  charge=  4.1606  magn= -0.0002
     atom  36 (R=0.078)  charge=  4.1609  magn=  0.0001
     atom  37 (R=0.078)  charge=  4.1601  magn=  0.0005
     atom  38 (R=0.078)  charge=  4.1589  magn=  0.0036
     atom  39 (R=0.078)  charge=  4.1568  magn=  0.0010
     atom  40 (R=0.078)  charge=  4.1595  magn= -0.0001
     atom  41 (R=0.078)  charge=  4.1602  magn=  0.0005
     atom  42 (R=0.078)  charge=  4.1579  magn=  0.0018
     atom  43 (R=0.078)  charge=  4.1526  magn=  0.0025
     atom  44 (R=0.078)  charge=  4.1584  magn=  0.0032
     atom  45 (R=0.078)  charge=  4.1594  magn=  0.0015
     atom  46 (R=0.078)  charge=  4.1597  magn=  0.0002
     atom  47 (R=0.078)  charge=  4.1603  magn=  0.0006
     atom  48 (R=0.078)  charge=  4.1598  magn=  0.0022
     atom  49 (R=0.075)  charge=  8.3762  magn=  0.0118
     atom  50 (R=0.075)  charge=  8.3724  magn=  0.0310
     atom  51 (R=0.075)  charge=  8.3760  magn=  0.0134
     atom  52 (R=0.075)  charge=  8.3726  magn=  0.0331
     atom  53 (R=0.075)  charge=  8.3617  magn=  0.0185
     atom  54 (R=0.033)  charge=  1.3004  magn= -0.0002
     atom  55 (R=0.032)  charge=  2.0230  magn=  0.0004
     atom  56 (R=0.032)  charge=  0.4170  magn=  0.0002
     atom  57 (R=0.032)  charge=  0.4030  magn=  0.0001
     atom  58 (R=0.032)  charge=  0.4239  magn=  0.0001

     total cpu time spent up to now is    10482.1 secs

     End of self-consistent calculation

 ------ SPIN UP ------------


          k = 0.0000 0.0000 0.0000 (112117 PWs)   bands (ev):

   -73.8176 -73.8141 -73.8112 -73.8086 -73.8067 -73.8058 -73.8032 -73.8012
   -73.7964 -73.7945 -73.7917 -73.7896 -73.7878 -73.7551 -73.7503 -73.7408
   -38.2256 -38.2206 -38.2194 -38.1646 -38.1637 -38.1589 -38.1584 -38.1521
   -38.1442 -38.0605 -38.0576 -38.0549 -38.0543 -38.0492 -38.0472 -38.0453
   -38.0319 -38.0301 -38.0276 -38.0270 -38.0231 -38.0225 -38.0202 -38.0181
   -38.0175 -38.0146 -38.0130 -38.0051 -37.9963 -37.9932 -37.9920 -37.9890
   -37.9873 -37.9832 -37.9695 -37.9593 -37.9579 -37.9550 -37.9525 -37.9471
   -37.9259 -37.9191 -37.9146 -37.9139 -37.9102 -37.9052 -37.8710 -37.8676
   -21.5125 -15.4429 -14.5996 -13.7129 -13.6997 -13.6757 -13.6452 -13.6320
   -13.6218 -12.9842 -12.7145 -12.6789 -12.6566 -12.6408 -12.6044 -12.5826
   -12.5411 -12.5083 -12.4744 -12.4580 -12.4468 -12.4448 -12.4234 -12.4221
   -12.4173 -12.2248 -12.2028 -12.1916 -12.1758 -12.1588 -12.1550 -12.1512
   -12.1481 -12.1456  -7.9921  -7.5705  -6.3445  -6.3289  -6.3108  -6.2857
    -6.1495  -5.6168  -5.5754  -5.5534  -5.5351  -5.5299  -5.4961  -5.4475
    -5.4168  -5.3941  -5.3163  -5.2863  -5.2642  -5.1083  -5.0962  -5.0670
    -5.0620  -5.0575  -5.0564  -5.0019  -5.0005  -4.9915  -4.5270  -4.4440
    -4.4047  -4.3498  -4.2967  -4.2869  -4.2709  -4.2499  -4.2356  -4.1855
    -4.0834  -4.0134  -3.9815  -3.9653  -3.9392  -3.7983  -3.7633  -3.7613
    -3.7063  -3.6809  -3.6774  -3.6161  -3.5181  -3.4772  -3.4102  -3.4058
    -3.3764  -3.3689  -3.3016  -3.2284  -3.1999  -3.1860  -3.1672  -3.1460
    -3.1365  -3.1284  -3.1144  -3.1110  -3.0663  -2.9646  -2.8247  -2.7717
    -2.7262  -2.6810  -2.6519  -2.5948  -2.5863  -2.5246  -2.5162  -2.4689
    -2.4639  -2.4373  -2.4358  -2.4301  -2.4033  -2.3456  -2.2963  -2.2129
    -2.1358  -2.0884  -1.9837  -1.9804  -1.9577  -1.9360  -1.8730  -1.8412
    -1.8183  -1.7859  -1.7719  -1.7697  -1.7565  -1.7547  -1.7464  -1.7461
    -1.7407  -1.7122  -1.7036  -1.6700  -1.6631  -1.6485  -1.6387  -1.6129
    -1.5847  -1.5348  -1.5267  -1.5092  -1.4562  -1.4210  -1.3764  -1.3599
    -1.3143  -1.2781  -1.2073  -1.1010  -1.0595  -1.0326  -1.0173  -0.9985
    -0.7312  -0.6963  -0.6920  -0.6898  -0.6805  -0.6766  -0.6515  -0.6484
    -0.6322  -0.3993  -0.3907  -0.3792  -0.3641  -0.3518  -0.3435  -0.3242
     0.1955   1.2535   1.5330

     occupation numbers 
     1.0000   1.0000   1.0000   1.0000   1.0000   1.0000   1.0000   1.0000
     1.0000   1.0000   1.0000   1.0000   1.0000   1.0000   1.0000   1.0000
     1.0000   1.0000   1.0000   1.0000   1.0000   1.0000   1.0000   1.0000
     1.0000   1.0000   1.0000   1.0000   1.0000   1.0000   1.0000   1.0000
     1.0000   1.0000   1.0000   1.0000   1.0000   1.0000   1.0000   1.0000
     1.0000   1.0000   1.0000   1.0000   1.0000   1.0000   1.0000   1.0000
     1.0000   1.0000   1.0000   1.0000   1.0000   1.0000   1.0000   1.0000
     1.0000   1.0000   1.0000   1.0000   1.0000   1.0000   1.0000   1.0000
     1.0000   1.0000   1.0000   1.0000   1.0000   1.0000   1.0000   1.0000
     1.0000   1.0000   1.0000   1.0000   1.0000   1.0000   1.0000   1.0000
     1.0000   1.0000   1.0000   1.0000   1.0000   1.0000   1.0000   1.0000
     1.0000   1.0000   1.0000   1.0000   1.0000   1.0000   1.0000   1.0000
     1.0000   1.0000   1.0000   1.0000   1.0000   1.0000   1.0000   1.0000
     1.0000   1.0000   1.0000   1.0000   1.0000   1.0000   1.0000   1.0000
     1.0000   1.0000   1.0000   1.0000   1.0000   1.0000   1.0000   1.0000
     1.0000   1.0000   1.0000   1.0000   1.0000   1.0000   1.0000   1.0000
     1.0000   1.0000   1.0000   1.0000   1.0000   1.0000   1.0000   1.0000
     1.0000   1.0000   1.0000   1.0000   1.0000   1.0000   1.0000   1.0000
     1.0000   1.0000   1.0000   1.0000   1.0000   1.0000   1.0000   1.0000
     1.0000   1.0000   1.0000   1.0000   1.0000   1.0000   1.0000   1.0000
     1.0000   1.0000   1.0000   1.0000   1.0000   1.0000   1.0000   1.0000
     1.0000   1.0000   1.0000   1.0000   1.0000   1.0000   1.0000   1.0000
     1.0000   1.0000   1.0000   1.0000   1.0000   1.0000   1.0000   1.0000
     1.0000   1.0000   1.0000   1.0000   1.0000   1.0000   1.0000   1.0000
     1.0000   1.0000   1.0000   1.0000   1.0000   1.0000   1.0000   1.0000
     1.0000   1.0000   1.0000   1.0000   1.0000   1.0000   1.0000   1.0000
     1.0000   1.0000   1.0000   1.0000   1.0000   1.0000   1.0000   1.0000
     1.0000   1.0000   1.0000   1.0000   1.0000   1.0000   1.0000   1.0000
     1.0000   1.0000   1.0000   1.0000   1.0000   1.0000   1.0000   1.0000
     1.0000   1.0000   1.0000   1.0000   1.0000   1.0000   1.0000   1.0000
     1.0000   1.0000   1.0000

          k = 0.0000 0.2309 0.0000 (112171 PWs)   bands (ev):

   -73.8175 -73.8144 -73.8112 -73.8088 -73.8065 -73.8058 -73.8032 -73.8011
   -73.7965 -73.7945 -73.7916 -73.7897 -73.7878 -73.7551 -73.7503 -73.7408
   -38.2203 -38.2153 -38.2131 -38.1710 -38.1664 -38.1630 -38.1561 -38.1486
   -38.1416 -38.1043 -38.0796 -38.0774 -38.0534 -38.0498 -38.0462 -38.0333
   -38.0299 -38.0272 -38.0249 -38.0222 -38.0190 -38.0169 -38.0141 -38.0122
   -38.0051 -37.9998 -37.9980 -37.9966 -37.9947 -37.9928 -37.9893 -37.9879
   -37.9864 -37.9831 -37.9697 -37.9626 -37.9604 -37.9555 -37.9525 -37.9472
   -37.9332 -37.9236 -37.9226 -37.9121 -37.9089 -37.9016 -37.8784 -37.8692
   -21.5125 -15.4429 -14.5580 -13.9784 -13.8036 -13.7865 -13.4954 -13.4625
   -13.3258 -12.9682 -12.8081 -12.7364 -12.6986 -12.6887 -12.6562 -12.5888
   -12.5562 -12.5442 -12.4955 -12.4779 -12.4582 -12.4384 -12.4246 -12.3180
   -12.2862 -12.2644 -12.2452 -12.2153 -12.1865 -12.1755 -12.1691 -12.1537
   -12.0963 -12.0812  -7.9921  -7.5705  -6.2830  -6.2715  -6.2391  -6.2377
    -6.1481  -5.6721  -5.6489  -5.6317  -5.5612  -5.5201  -5.4908  -5.4727
    -5.4317  -5.4195  -5.3974  -5.3226  -5.3183  -5.2890  -5.2718  -5.0749
    -5.0678  -5.0196  -5.0036  -4.9577  -4.7410  -4.7358  -4.5933  -4.4869
    -4.4554  -4.3877  -4.3246  -4.2904  -4.2117  -4.1628  -4.1485  -4.1221
    -4.1013  -4.0644  -4.0451  -4.0029  -3.9866  -3.9144  -3.9113  -3.9027
    -3.6761  -3.5771  -3.5446  -3.5109  -3.4710  -3.4454  -3.4402  -3.3857
    -3.3657  -3.3172  -3.2991  -3.2822  -3.2776  -3.2109  -3.1965  -3.1510
    -3.1062  -2.9989  -2.9673  -2.9364  -2.8609  -2.7955  -2.7785  -2.7506
    -2.7263  -2.7197  -2.7011  -2.6886  -2.6605  -2.6377  -2.6123  -2.5465
    -2.5230  -2.5069  -2.4795  -2.4443  -2.3657  -2.3178  -2.2071  -2.1663
    -2.1268  -2.0895  -2.0204  -2.0061  -1.9872  -1.9706  -1.9394  -1.9128
    -1.8932  -1.8658  -1.8550  -1.8210  -1.7946  -1.7662  -1.7492  -1.7389
    -1.7257  -1.7065  -1.6918  -1.6686  -1.6527  -1.6115  -1.5877  -1.5546
    -1.5382  -1.4971  -1.4864  -1.4634  -1.4355  -1.3747  -1.3387  -1.3291
    -1.2989  -1.2834  -1.2490  -1.2277  -1.1691  -1.0740  -1.0494  -1.0286
    -0.8988  -0.7818  -0.7642  -0.7517  -0.5744  -0.5666  -0.5545  -0.5363
    -0.5234  -0.5135  -0.4146  -0.3790  -0.3676  -0.2678  -0.1723  -0.1473
     0.1764   1.2599   1.5643

     occupation numbers 
     1.0000   1.0000   1.0000   1.0000   1.0000   1.0000   1.0000   1.0000
     1.0000   1.0000   1.0000   1.0000   1.0000   1.0000   1.0000   1.0000
     1.0000   1.0000   1.0000   1.0000   1.0000   1.0000   1.0000   1.0000
     1.0000   1.0000   1.0000   1.0000   1.0000   1.0000   1.0000   1.0000
     1.0000   1.0000   1.0000   1.0000   1.0000   1.0000   1.0000   1.0000
     1.0000   1.0000   1.0000   1.0000   1.0000   1.0000   1.0000   1.0000
     1.0000   1.0000   1.0000   1.0000   1.0000   1.0000   1.0000   1.0000
     1.0000   1.0000   1.0000   1.0000   1.0000   1.0000   1.0000   1.0000
     1.0000   1.0000   1.0000   1.0000   1.0000   1.0000   1.0000   1.0000
     1.0000   1.0000   1.0000   1.0000   1.0000   1.0000   1.0000   1.0000
     1.0000   1.0000   1.0000   1.0000   1.0000   1.0000   1.0000   1.0000
     1.0000   1.0000   1.0000   1.0000   1.0000   1.0000   1.0000   1.0000
     1.0000   1.0000   1.0000   1.0000   1.0000   1.0000   1.0000   1.0000
     1.0000   1.0000   1.0000   1.0000   1.0000   1.0000   1.0000   1.0000
     1.0000   1.0000   1.0000   1.0000   1.0000   1.0000   1.0000   1.0000
     1.0000   1.0000   1.0000   1.0000   1.0000   1.0000   1.0000   1.0000
     1.0000   1.0000   1.0000   1.0000   1.0000   1.0000   1.0000   1.0000
     1.0000   1.0000   1.0000   1.0000   1.0000   1.0000   1.0000   1.0000
     1.0000   1.0000   1.0000   1.0000   1.0000   1.0000   1.0000   1.0000
     1.0000   1.0000   1.0000   1.0000   1.0000   1.0000   1.0000   1.0000
     1.0000   1.0000   1.0000   1.0000   1.0000   1.0000   1.0000   1.0000
     1.0000   1.0000   1.0000   1.0000   1.0000   1.0000   1.0000   1.0000
     1.0000   1.0000   1.0000   1.0000   1.0000   1.0000   1.0000   1.0000
     1.0000   1.0000   1.0000   1.0000   1.0000   1.0000   1.0000   1.0000
     1.0000   1.0000   1.0000   1.0000   1.0000   1.0000   1.0000   1.0000
     1.0000   1.0000   1.0000   1.0000   1.0000   1.0000   1.0000   1.0000
     1.0000   1.0000   1.0000   1.0000   1.0000   1.0000   1.0000   1.0000
     1.0000   1.0000   1.0000   1.0000   1.0000   1.0000   1.0000   1.0000
     1.0000   1.0000   1.0000   1.0000   1.0000   1.0000   1.0000   1.0000
     1.0000   1.0000   1.0000   1.0000   1.0000   1.0000   1.0000   1.0000
     1.0000   1.0000   1.0000

          k = 0.0000 0.4619 0.0000 (112236 PWs)   bands (ev):

   -73.8172 -73.8148 -73.8113 -73.8090 -73.8062 -73.8057 -73.8032 -73.8010
   -73.7967 -73.7945 -73.7914 -73.7899 -73.7878 -73.7551 -73.7503 -73.7408
   -38.2071 -38.2046 -38.1911 -38.1886 -38.1766 -38.1669 -38.1606 -38.1477
   -38.1316 -38.1269 -38.1062 -38.1018 -38.0645 -38.0592 -38.0480 -38.0391
   -38.0320 -38.0212 -38.0176 -38.0133 -38.0100 -38.0073 -38.0036 -38.0013
   -37.9993 -37.9980 -37.9975 -37.9918 -37.9891 -37.9862 -37.9830 -37.9794
   -37.9743 -37.9708 -37.9675 -37.9661 -37.9538 -37.9521 -37.9501 -37.9484
   -37.9436 -37.9370 -37.9323 -37.9166 -37.9118 -37.8958 -37.8942 -37.8721
   -21.5125 -15.4429 -14.4364 -14.2349 -13.8733 -13.8545 -13.2665 -13.2312
   -13.0215 -13.0006 -12.9713 -12.9185 -12.8341 -12.7321 -12.7057 -12.6900
   -12.5228 -12.5156 -12.4640 -12.4509 -12.4379 -12.4257 -12.3834 -12.3701
   -12.3515 -12.2852 -12.2175 -12.2027 -12.1783 -12.1600 -12.1581 -12.1537
   -12.0572 -12.0403  -7.9921  -7.5705  -6.1645  -6.1253  -6.1144  -6.0923
    -6.0285  -5.8745  -5.8622  -5.8397  -5.7158  -5.5360  -5.5013  -5.4899
    -5.4617  -5.4472  -5.4388  -5.3951  -5.3754  -5.3276  -5.3031  -5.0682
    -5.0648  -5.0321  -5.0106  -4.8124  -4.6339  -4.5310  -4.4882  -4.4419
    -4.3959  -4.3770  -4.3508  -4.3152  -4.2467  -4.2336  -4.1931  -4.1621
    -4.1311  -4.1205  -4.1045  -4.0784  -4.0669  -4.0536  -4.0440  -3.6991
    -3.5772  -3.5129  -3.4840  -3.4454  -3.4226  -3.3939  -3.3720  -3.3124
    -3.2986  -3.2839  -3.2645  -3.2420  -3.2228  -3.1906  -3.1658  -3.1094
    -3.0690  -3.0628  -3.0119  -2.9737  -2.9553  -2.9176  -2.8664  -2.7780
    -2.7545  -2.7103  -2.6705  -2.6413  -2.6131  -2.5745  -2.5412  -2.4980
    -2.4535  -2.4343  -2.3995  -2.3212  -2.2814  -2.2570  -2.2439  -2.1890
    -2.1297  -2.1005  -2.0483  -2.0220  -2.0124  -2.0022  -1.9849  -1.9565
    -1.9347  -1.9107  -1.8822  -1.8755  -1.8578  -1.8456  -1.8413  -1.8292
    -1.7776  -1.7714  -1.7273  -1.7193  -1.7009  -1.6723  -1.6357  -1.6224
    -1.5959  -1.5566  -1.5357  -1.5067  -1.4365  -1.3922  -1.3037  -1.2915
    -1.2387  -1.2054  -1.1931  -1.1521  -1.1218  -1.0998  -1.0510  -1.0102
    -0.9796  -0.8964  -0.7356  -0.7244  -0.6429  -0.6267  -0.4965  -0.4591
    -0.4456  -0.4353  -0.3998  -0.3823  -0.3150  -0.0960   0.0001   0.0233
     0.1269   1.2696   1.6168

     occupation numbers 
     1.0000   1.0000   1.0000   1.0000   1.0000   1.0000   1.0000   1.0000
     1.0000   1.0000   1.0000   1.0000   1.0000   1.0000   1.0000   1.0000
     1.0000   1.0000   1.0000   1.0000   1.0000   1.0000   1.0000   1.0000
     1.0000   1.0000   1.0000   1.0000   1.0000   1.0000   1.0000   1.0000
     1.0000   1.0000   1.0000   1.0000   1.0000   1.0000   1.0000   1.0000
     1.0000   1.0000   1.0000   1.0000   1.0000   1.0000   1.0000   1.0000
     1.0000   1.0000   1.0000   1.0000   1.0000   1.0000   1.0000   1.0000
     1.0000   1.0000   1.0000   1.0000   1.0000   1.0000   1.0000   1.0000
     1.0000   1.0000   1.0000   1.0000   1.0000   1.0000   1.0000   1.0000
     1.0000   1.0000   1.0000   1.0000   1.0000   1.0000   1.0000   1.0000
     1.0000   1.0000   1.0000   1.0000   1.0000   1.0000   1.0000   1.0000
     1.0000   1.0000   1.0000   1.0000   1.0000   1.0000   1.0000   1.0000
     1.0000   1.0000   1.0000   1.0000   1.0000   1.0000   1.0000   1.0000
     1.0000   1.0000   1.0000   1.0000   1.0000   1.0000   1.0000   1.0000
     1.0000   1.0000   1.0000   1.0000   1.0000   1.0000   1.0000   1.0000
     1.0000   1.0000   1.0000   1.0000   1.0000   1.0000   1.0000   1.0000
     1.0000   1.0000   1.0000   1.0000   1.0000   1.0000   1.0000   1.0000
     1.0000   1.0000   1.0000   1.0000   1.0000   1.0000   1.0000   1.0000
     1.0000   1.0000   1.0000   1.0000   1.0000   1.0000   1.0000   1.0000
     1.0000   1.0000   1.0000   1.0000   1.0000   1.0000   1.0000   1.0000
     1.0000   1.0000   1.0000   1.0000   1.0000   1.0000   1.0000   1.0000
     1.0000   1.0000   1.0000   1.0000   1.0000   1.0000   1.0000   1.0000
     1.0000   1.0000   1.0000   1.0000   1.0000   1.0000   1.0000   1.0000
     1.0000   1.0000   1.0000   1.0000   1.0000   1.0000   1.0000   1.0000
     1.0000   1.0000   1.0000   1.0000   1.0000   1.0000   1.0000   1.0000
     1.0000   1.0000   1.0000   1.0000   1.0000   1.0000   1.0000   1.0000
     1.0000   1.0000   1.0000   1.0000   1.0000   1.0000   1.0000   1.0000
     1.0000   1.0000   1.0000   1.0000   1.0000   1.0000   1.0000   1.0000
     1.0000   1.0000   1.0000   1.0000   1.0000   1.0000   1.0000   1.0000
     1.0000   1.0000   1.0000   1.0000   1.0000   1.0000   1.0000   1.0000
     1.0000   1.0000   1.0000

          k = 0.2000 0.3464 0.0000 (112231 PWs)   bands (ev):

   -73.8171 -73.8148 -73.8112 -73.8088 -73.8064 -73.8055 -73.8033 -73.8012
   -73.7964 -73.7946 -73.7914 -73.7899 -73.7878 -73.7551 -73.7503 -73.7408
   -38.2126 -38.2039 -38.2006 -38.1798 -38.1767 -38.1650 -38.1563 -38.1488
   -38.1329 -38.1244 -38.1171 -38.0782 -38.0602 -38.0566 -38.0482 -38.0378
   -38.0328 -38.0296 -38.0259 -38.0203 -38.0166 -38.0101 -38.0036 -38.0007
   -37.9960 -37.9933 -37.9915 -37.9898 -37.9874 -37.9848 -37.9833 -37.9820
   -37.9769 -37.9733 -37.9698 -37.9665 -37.9597 -37.9557 -37.9525 -37.9479
   -37.9417 -37.9326 -37.9267 -37.9217 -37.9056 -37.9005 -37.8872 -37.8727
   -21.5125 -15.4429 -14.4762 -14.1046 -14.0599 -13.5681 -13.5652 -13.1759
   -13.1195 -13.0105 -12.9364 -12.8111 -12.7907 -12.7116 -12.6725 -12.6065
   -12.5960 -12.5775 -12.5726 -12.4586 -12.4257 -12.3922 -12.3778 -12.3143
   -12.2911 -12.2740 -12.2530 -12.2333 -12.2215 -12.1558 -12.1512 -12.1088
   -12.0961 -12.0366  -7.9921  -7.5705  -6.1829  -6.1723  -6.1411  -6.1271
    -6.1062  -5.7674  -5.7385  -5.7221  -5.6825  -5.6453  -5.6029  -5.5677
    -5.5064  -5.4748  -5.3567  -5.3357  -5.2854  -5.2771  -5.2444  -5.2299
    -5.0965  -4.9066  -4.8911  -4.8171  -4.7522  -4.6078  -4.4926  -4.4718
    -4.3993  -4.3683  -4.3390  -4.3057  -4.2771  -4.2643  -4.2360  -4.2279
    -4.1742  -4.1239  -4.1086  -4.0932  -4.0566  -3.7676  -3.7377  -3.7278
    -3.7199  -3.6951  -3.6144  -3.4993  -3.4325  -3.4026  -3.3534  -3.3240
    -3.3001  -3.2474  -3.2275  -3.2082  -3.1706  -3.1518  -3.1097  -3.0927
    -3.0429  -3.0170  -2.9919  -2.9529  -2.9453  -2.9275  -2.9173  -2.9018
    -2.8201  -2.7444  -2.7238  -2.6554  -2.6374  -2.5633  -2.5231  -2.4806
    -2.4672  -2.4403  -2.3885  -2.3638  -2.3170  -2.2224  -2.1865  -2.1663
    -2.1329  -2.1263  -2.0981  -2.0898  -2.0198  -2.0006  -1.9828  -1.9531
    -1.9298  -1.9077  -1.8848  -1.8591  -1.8393  -1.8303  -1.8013  -1.7556
    -1.7395  -1.7208  -1.7150  -1.6807  -1.6733  -1.6243  -1.5972  -1.5765
    -1.5677  -1.5429  -1.5389  -1.5098  -1.4296  -1.3946  -1.3823  -1.3672
    -1.2933  -1.2275  -1.2091  -1.1870  -1.1578  -1.1195  -1.0351  -1.0178
    -0.8760  -0.8495  -0.6827  -0.6734  -0.6399  -0.6326  -0.6171  -0.5429
    -0.5340  -0.4396  -0.3771  -0.2568  -0.2123  -0.2011  -0.1602   0.0704
     0.1396   1.2825   1.5890

     occupation numbers 
     1.0000   1.0000   1.0000   1.0000   1.0000   1.0000   1.0000   1.0000
     1.0000   1.0000   1.0000   1.0000   1.0000   1.0000   1.0000   1.0000
     1.0000   1.0000   1.0000   1.0000   1.0000   1.0000   1.0000   1.0000
     1.0000   1.0000   1.0000   1.0000   1.0000   1.0000   1.0000   1.0000
     1.0000   1.0000   1.0000   1.0000   1.0000   1.0000   1.0000   1.0000
     1.0000   1.0000   1.0000   1.0000   1.0000   1.0000   1.0000   1.0000
     1.0000   1.0000   1.0000   1.0000   1.0000   1.0000   1.0000   1.0000
     1.0000   1.0000   1.0000   1.0000   1.0000   1.0000   1.0000   1.0000
     1.0000   1.0000   1.0000   1.0000   1.0000   1.0000   1.0000   1.0000
     1.0000   1.0000   1.0000   1.0000   1.0000   1.0000   1.0000   1.0000
     1.0000   1.0000   1.0000   1.0000   1.0000   1.0000   1.0000   1.0000
     1.0000   1.0000   1.0000   1.0000   1.0000   1.0000   1.0000   1.0000
     1.0000   1.0000   1.0000   1.0000   1.0000   1.0000   1.0000   1.0000
     1.0000   1.0000   1.0000   1.0000   1.0000   1.0000   1.0000   1.0000
     1.0000   1.0000   1.0000   1.0000   1.0000   1.0000   1.0000   1.0000
     1.0000   1.0000   1.0000   1.0000   1.0000   1.0000   1.0000   1.0000
     1.0000   1.0000   1.0000   1.0000   1.0000   1.0000   1.0000   1.0000
     1.0000   1.0000   1.0000   1.0000   1.0000   1.0000   1.0000   1.0000
     1.0000   1.0000   1.0000   1.0000   1.0000   1.0000   1.0000   1.0000
     1.0000   1.0000   1.0000   1.0000   1.0000   1.0000   1.0000   1.0000
     1.0000   1.0000   1.0000   1.0000   1.0000   1.0000   1.0000   1.0000
     1.0000   1.0000   1.0000   1.0000   1.0000   1.0000   1.0000   1.0000
     1.0000   1.0000   1.0000   1.0000   1.0000   1.0000   1.0000   1.0000
     1.0000   1.0000   1.0000   1.0000   1.0000   1.0000   1.0000   1.0000
     1.0000   1.0000   1.0000   1.0000   1.0000   1.0000   1.0000   1.0000
     1.0000   1.0000   1.0000   1.0000   1.0000   1.0000   1.0000   1.0000
     1.0000   1.0000   1.0000   1.0000   1.0000   1.0000   1.0000   1.0000
     1.0000   1.0000   1.0000   1.0000   1.0000   1.0000   1.0000   1.0000
     1.0000   1.0000   1.0000   1.0000   1.0000   1.0000   1.0000   1.0000
     1.0000   1.0000   1.0000   1.0000   1.0000   1.0000   1.0000   1.0000
     1.0000   1.0000   1.0000

          k = 0.2000 0.5774 0.0000 (112237 PWs)   bands (ev):

   -73.8170 -73.8149 -73.8113 -73.8091 -73.8062 -73.8054 -73.8033 -73.8011
   -73.7966 -73.7946 -73.7914 -73.7899 -73.7878 -73.7551 -73.7503 -73.7408
   -38.2015 -38.1976 -38.1873 -38.1841 -38.1773 -38.1718 -38.1660 -38.1512
   -38.1479 -38.1335 -38.0933 -38.0918 -38.0877 -38.0516 -38.0461 -38.0406
   -38.0345 -38.0312 -38.0182 -38.0178 -38.0080 -38.0056 -38.0033 -38.0016
   -38.0005 -37.9977 -37.9928 -37.9891 -37.9864 -37.9827 -37.9757 -37.9713
   -37.9699 -37.9673 -37.9623 -37.9597 -37.9569 -37.9536 -37.9510 -37.9467
   -37.9431 -37.9384 -37.9325 -37.9297 -37.9182 -37.8980 -37.8891 -37.8758
   -21.5125 -15.4429 -14.3373 -14.2938 -14.1155 -13.5964 -13.3028 -13.2944
   -12.9552 -12.9495 -12.8894 -12.8544 -12.8427 -12.8030 -12.7936 -12.6591
   -12.6318 -12.6040 -12.4931 -12.4851 -12.3849 -12.3732 -12.3597 -12.3243
   -12.3104 -12.2978 -12.2596 -12.2342 -12.2331 -12.1315 -12.1214 -12.1191
   -12.0794 -12.0170  -7.9921  -7.5705  -6.1576  -6.0582  -6.0104  -5.9872
    -5.9223  -5.8972  -5.8770  -5.8509  -5.8102  -5.7444  -5.6880  -5.6252
    -5.6140  -5.5419  -5.3646  -5.2677  -5.2560  -5.2204  -5.2052  -5.1719
    -5.1559  -4.8573  -4.8330  -4.7546  -4.6350  -4.5796  -4.5491  -4.5224
    -4.4756  -4.4194  -4.3999  -4.3202  -4.3129  -4.2402  -4.2336  -4.2137
    -4.1899  -4.1661  -4.1233  -4.0963  -3.9546  -3.9510  -3.7937  -3.6643
    -3.6526  -3.5682  -3.4431  -3.3942  -3.3627  -3.3303  -3.3104  -3.2872
    -3.2738  -3.2626  -3.2457  -3.2354  -3.2168  -3.2021  -3.1446  -3.1263
    -3.1030  -3.0815  -3.0631  -3.0365  -3.0090  -2.9603  -2.8799  -2.8319
    -2.7545  -2.7286  -2.6990  -2.6735  -2.6341  -2.5565  -2.5198  -2.4584
    -2.3994  -2.3346  -2.3211  -2.3093  -2.2558  -2.2078  -2.1807  -2.1364
    -2.1218  -2.1114  -2.0808  -2.0628  -2.0187  -1.9881  -1.9680  -1.9569
    -1.9398  -1.9193  -1.8985  -1.8819  -1.8710  -1.8573  -1.8445  -1.8364
    -1.8253  -1.7835  -1.7686  -1.7409  -1.7092  -1.6907  -1.6819  -1.6524
    -1.6195  -1.5740  -1.5622  -1.5092  -1.4797  -1.4674  -1.4154  -1.3350
    -1.2864  -1.1968  -1.1613  -1.1454  -1.0980  -1.0820  -1.0091  -0.9995
    -0.8148  -0.8002  -0.7031  -0.6922  -0.6610  -0.6465  -0.5937  -0.5841
    -0.5673  -0.4156  -0.2800  -0.2713  -0.1899  -0.1262  -0.0678   0.0897
     0.1873   1.2917   1.6053

     occupation numbers 
     1.0000   1.0000   1.0000   1.0000   1.0000   1.0000   1.0000   1.0000
     1.0000   1.0000   1.0000   1.0000   1.0000   1.0000   1.0000   1.0000
     1.0000   1.0000   1.0000   1.0000   1.0000   1.0000   1.0000   1.0000
     1.0000   1.0000   1.0000   1.0000   1.0000   1.0000   1.0000   1.0000
     1.0000   1.0000   1.0000   1.0000   1.0000   1.0000   1.0000   1.0000
     1.0000   1.0000   1.0000   1.0000   1.0000   1.0000   1.0000   1.0000
     1.0000   1.0000   1.0000   1.0000   1.0000   1.0000   1.0000   1.0000
     1.0000   1.0000   1.0000   1.0000   1.0000   1.0000   1.0000   1.0000
     1.0000   1.0000   1.0000   1.0000   1.0000   1.0000   1.0000   1.0000
     1.0000   1.0000   1.0000   1.0000   1.0000   1.0000   1.0000   1.0000
     1.0000   1.0000   1.0000   1.0000   1.0000   1.0000   1.0000   1.0000
     1.0000   1.0000   1.0000   1.0000   1.0000   1.0000   1.0000   1.0000
     1.0000   1.0000   1.0000   1.0000   1.0000   1.0000   1.0000   1.0000
     1.0000   1.0000   1.0000   1.0000   1.0000   1.0000   1.0000   1.0000
     1.0000   1.0000   1.0000   1.0000   1.0000   1.0000   1.0000   1.0000
     1.0000   1.0000   1.0000   1.0000   1.0000   1.0000   1.0000   1.0000
     1.0000   1.0000   1.0000   1.0000   1.0000   1.0000   1.0000   1.0000
     1.0000   1.0000   1.0000   1.0000   1.0000   1.0000   1.0000   1.0000
     1.0000   1.0000   1.0000   1.0000   1.0000   1.0000   1.0000   1.0000
     1.0000   1.0000   1.0000   1.0000   1.0000   1.0000   1.0000   1.0000
     1.0000   1.0000   1.0000   1.0000   1.0000   1.0000   1.0000   1.0000
     1.0000   1.0000   1.0000   1.0000   1.0000   1.0000   1.0000   1.0000
     1.0000   1.0000   1.0000   1.0000   1.0000   1.0000   1.0000   1.0000
     1.0000   1.0000   1.0000   1.0000   1.0000   1.0000   1.0000   1.0000
     1.0000   1.0000   1.0000   1.0000   1.0000   1.0000   1.0000   1.0000
     1.0000   1.0000   1.0000   1.0000   1.0000   1.0000   1.0000   1.0000
     1.0000   1.0000   1.0000   1.0000   1.0000   1.0000   1.0000   1.0000
     1.0000   1.0000   1.0000   1.0000   1.0000   1.0000   1.0000   1.0000
     1.0000   1.0000   1.0000   1.0000   1.0000   1.0000   1.0000   1.0000
     1.0000   1.0000   1.0000   1.0000   1.0000   1.0000   1.0000   1.0000
     1.0000   1.0000   1.0000

          k =-0.2000 0.1155 0.0000 (112171 PWs)   bands (ev):

   -73.8175 -73.8143 -73.8112 -73.8090 -73.8065 -73.8055 -73.8033 -73.8012
   -73.7964 -73.7946 -73.7917 -73.7896 -73.7878 -73.7551 -73.7503 -73.7408
   -38.2204 -38.2156 -38.2128 -38.1695 -38.1657 -38.1646 -38.1596 -38.1469
   -38.1404 -38.1036 -38.0809 -38.0767 -38.0519 -38.0493 -38.0453 -38.0350
   -38.0289 -38.0283 -38.0257 -38.0245 -38.0174 -38.0166 -38.0143 -38.0130
   -38.0048 -38.0014 -37.9983 -37.9969 -37.9940 -37.9925 -37.9889 -37.9870
   -37.9862 -37.9830 -37.9697 -37.9630 -37.9605 -37.9549 -37.9525 -37.9472
   -37.9335 -37.9254 -37.9215 -37.9112 -37.9092 -37.9011 -37.8755 -37.8723
   -21.5125 -15.4429 -14.5580 -13.9771 -13.8036 -13.7892 -13.4803 -13.4756
   -13.3264 -12.9686 -12.7932 -12.7605 -12.6931 -12.6833 -12.6585 -12.5885
   -12.5662 -12.5228 -12.4989 -12.4799 -12.4711 -12.4336 -12.4228 -12.3092
   -12.2957 -12.2627 -12.2453 -12.2145 -12.1878 -12.1768 -12.1688 -12.1516
   -12.0961 -12.0819  -7.9921  -7.5705  -6.2870  -6.2661  -6.2456  -6.2326
    -6.1482  -5.6804  -5.6411  -5.6267  -5.5510  -5.5333  -5.4941  -5.4705
    -5.4403  -5.4217  -5.3856  -5.3297  -5.3122  -5.2840  -5.2781  -5.0835
    -5.0643  -5.0173  -5.0012  -4.9531  -4.7419  -4.7369  -4.5751  -4.5169
    -4.4521  -4.3741  -4.3419  -4.2821  -4.2099  -4.1637  -4.1492  -4.1243
    -4.1015  -4.0678  -4.0419  -3.9979  -3.9855  -3.9169  -3.9071  -3.8985
    -3.6710  -3.5920  -3.5379  -3.5050  -3.4803  -3.4626  -3.4467  -3.3770
    -3.3678  -3.3209  -3.2972  -3.2809  -3.2669  -3.2079  -3.1965  -3.1565
    -3.1054  -2.9882  -2.9669  -2.9321  -2.8361  -2.8041  -2.7784  -2.7519
    -2.7329  -2.7166  -2.7004  -2.6922  -2.6779  -2.6549  -2.6083  -2.5489
    -2.5210  -2.4860  -2.4719  -2.4481  -2.3719  -2.3150  -2.1999  -2.1776
    -2.1365  -2.0911  -2.0238  -2.0076  -1.9817  -1.9683  -1.9469  -1.9097
    -1.8874  -1.8684  -1.8441  -1.8231  -1.8089  -1.7767  -1.7476  -1.7320
    -1.7125  -1.7035  -1.6868  -1.6692  -1.6557  -1.6108  -1.5785  -1.5579
    -1.5306  -1.5076  -1.4974  -1.4375  -1.4284  -1.3752  -1.3536  -1.3319
    -1.3156  -1.2781  -1.2585  -1.2256  -1.1663  -1.0829  -1.0474  -1.0175
    -0.9019  -0.7777  -0.7608  -0.7425  -0.5873  -0.5709  -0.5543  -0.5351
    -0.5205  -0.5121  -0.4167  -0.3849  -0.3608  -0.2658  -0.1740  -0.1471
     0.1752   1.2817   1.5405

     occupation numbers 
     1.0000   1.0000   1.0000   1.0000   1.0000   1.0000   1.0000   1.0000
     1.0000   1.0000   1.0000   1.0000   1.0000   1.0000   1.0000   1.0000
     1.0000   1.0000   1.0000   1.0000   1.0000   1.0000   1.0000   1.0000
     1.0000   1.0000   1.0000   1.0000   1.0000   1.0000   1.0000   1.0000
     1.0000   1.0000   1.0000   1.0000   1.0000   1.0000   1.0000   1.0000
     1.0000   1.0000   1.0000   1.0000   1.0000   1.0000   1.0000   1.0000
     1.0000   1.0000   1.0000   1.0000   1.0000   1.0000   1.0000   1.0000
     1.0000   1.0000   1.0000   1.0000   1.0000   1.0000   1.0000   1.0000
     1.0000   1.0000   1.0000   1.0000   1.0000   1.0000   1.0000   1.0000
     1.0000   1.0000   1.0000   1.0000   1.0000   1.0000   1.0000   1.0000
     1.0000   1.0000   1.0000   1.0000   1.0000   1.0000   1.0000   1.0000
     1.0000   1.0000   1.0000   1.0000   1.0000   1.0000   1.0000   1.0000
     1.0000   1.0000   1.0000   1.0000   1.0000   1.0000   1.0000   1.0000
     1.0000   1.0000   1.0000   1.0000   1.0000   1.0000   1.0000   1.0000
     1.0000   1.0000   1.0000   1.0000   1.0000   1.0000   1.0000   1.0000
     1.0000   1.0000   1.0000   1.0000   1.0000   1.0000   1.0000   1.0000
     1.0000   1.0000   1.0000   1.0000   1.0000   1.0000   1.0000   1.0000
     1.0000   1.0000   1.0000   1.0000   1.0000   1.0000   1.0000   1.0000
     1.0000   1.0000   1.0000   1.0000   1.0000   1.0000   1.0000   1.0000
     1.0000   1.0000   1.0000   1.0000   1.0000   1.0000   1.0000   1.0000
     1.0000   1.0000   1.0000   1.0000   1.0000   1.0000   1.0000   1.0000
     1.0000   1.0000   1.0000   1.0000   1.0000   1.0000   1.0000   1.0000
     1.0000   1.0000   1.0000   1.0000   1.0000   1.0000   1.0000   1.0000
     1.0000   1.0000   1.0000   1.0000   1.0000   1.0000   1.0000   1.0000
     1.0000   1.0000   1.0000   1.0000   1.0000   1.0000   1.0000   1.0000
     1.0000   1.0000   1.0000   1.0000   1.0000   1.0000   1.0000   1.0000
     1.0000   1.0000   1.0000   1.0000   1.0000   1.0000   1.0000   1.0000
     1.0000   1.0000   1.0000   1.0000   1.0000   1.0000   1.0000   1.0000
     1.0000   1.0000   1.0000   1.0000   1.0000   1.0000   1.0000   1.0000
     1.0000   1.0000   1.0000   1.0000   1.0000   1.0000   1.0000   1.0000
     1.0000   1.0000   1.0000

          k = 0.2000 0.1155 0.0000 (112171 PWs)   bands (ev):

   -73.8174 -73.8145 -73.8112 -73.8087 -73.8066 -73.8056 -73.8033 -73.8012
   -73.7963 -73.7946 -73.7916 -73.7897 -73.7878 -73.7551 -73.7503 -73.7408
   -38.2201 -38.2162 -38.2125 -38.1703 -38.1667 -38.1634 -38.1584 -38.1472
   -38.1405 -38.1039 -38.0807 -38.0771 -38.0520 -38.0496 -38.0458 -38.0351
   -38.0289 -38.0270 -38.0259 -38.0241 -38.0177 -38.0157 -38.0148 -38.0132
   -38.0051 -38.0005 -37.9983 -37.9968 -37.9943 -37.9921 -37.9901 -37.9871
   -37.9861 -37.9829 -37.9696 -37.9623 -37.9612 -37.9551 -37.9524 -37.9471
   -37.9334 -37.9247 -37.9210 -37.9132 -37.9084 -37.9012 -37.8771 -37.8706
   -21.5125 -15.4429 -14.5580 -13.9773 -13.8027 -13.7898 -13.4795 -13.4773
   -13.3256 -12.9687 -12.7934 -12.7597 -12.6926 -12.6844 -12.6588 -12.5884
   -12.5674 -12.5212 -12.4967 -12.4819 -12.4706 -12.4359 -12.4222 -12.3046
   -12.2955 -12.2658 -12.2484 -12.2096 -12.1934 -12.1737 -12.1719 -12.1491
   -12.0932 -12.0844  -7.9921  -7.5705  -6.2816  -6.2678  -6.2485  -6.2340
    -6.1482  -5.6743  -5.6446  -5.6243  -5.5521  -5.5376  -5.4912  -5.4731
    -5.4460  -5.4254  -5.3726  -5.3292  -5.3157  -5.2846  -5.2770  -5.0793
    -5.0722  -5.0152  -5.0049  -4.9476  -4.7428  -4.7376  -4.5708  -4.5128
    -4.4493  -4.3958  -4.3409  -4.2757  -4.2091  -4.1643  -4.1511  -4.1246
    -4.1011  -4.0580  -4.0418  -4.0049  -3.9838  -3.9144  -3.9113  -3.9009
    -3.6634  -3.5723  -3.5531  -3.5120  -3.4703  -3.4591  -3.4429  -3.3858
    -3.3738  -3.3133  -3.3034  -3.2843  -3.2614  -3.2150  -3.1985  -3.1491
    -3.1117  -3.0041  -2.9621  -2.9145  -2.8322  -2.8104  -2.7855  -2.7544
    -2.7400  -2.7141  -2.7005  -2.6942  -2.6699  -2.6405  -2.6014  -2.5520
    -2.5346  -2.5025  -2.4763  -2.4324  -2.3685  -2.3084  -2.2050  -2.1834
    -2.1257  -2.0931  -2.0213  -2.0024  -1.9745  -1.9711  -1.9329  -1.9105
    -1.9027  -1.8799  -1.8406  -1.8283  -1.8097  -1.7836  -1.7491  -1.7403
    -1.7141  -1.6956  -1.6828  -1.6606  -1.6424  -1.6284  -1.5925  -1.5467
    -1.5348  -1.5068  -1.4617  -1.4474  -1.4268  -1.4067  -1.3585  -1.3132
    -1.3072  -1.2988  -1.2529  -1.2126  -1.1720  -1.0666  -1.0478  -1.0302
    -0.9010  -0.7680  -0.7596  -0.7569  -0.5989  -0.5638  -0.5498  -0.5345
    -0.5228  -0.5171  -0.4120  -0.3856  -0.3571  -0.2666  -0.1702  -0.1511
     0.1759   1.2763   1.5469

     occupation numbers 
     1.0000   1.0000   1.0000   1.0000   1.0000   1.0000   1.0000   1.0000
     1.0000   1.0000   1.0000   1.0000   1.0000   1.0000   1.0000   1.0000
     1.0000   1.0000   1.0000   1.0000   1.0000   1.0000   1.0000   1.0000
     1.0000   1.0000   1.0000   1.0000   1.0000   1.0000   1.0000   1.0000
     1.0000   1.0000   1.0000   1.0000   1.0000   1.0000   1.0000   1.0000
     1.0000   1.0000   1.0000   1.0000   1.0000   1.0000   1.0000   1.0000
     1.0000   1.0000   1.0000   1.0000   1.0000   1.0000   1.0000   1.0000
     1.0000   1.0000   1.0000   1.0000   1.0000   1.0000   1.0000   1.0000
     1.0000   1.0000   1.0000   1.0000   1.0000   1.0000   1.0000   1.0000
     1.0000   1.0000   1.0000   1.0000   1.0000   1.0000   1.0000   1.0000
     1.0000   1.0000   1.0000   1.0000   1.0000   1.0000   1.0000   1.0000
     1.0000   1.0000   1.0000   1.0000   1.0000   1.0000   1.0000   1.0000
     1.0000   1.0000   1.0000   1.0000   1.0000   1.0000   1.0000   1.0000
     1.0000   1.0000   1.0000   1.0000   1.0000   1.0000   1.0000   1.0000
     1.0000   1.0000   1.0000   1.0000   1.0000   1.0000   1.0000   1.0000
     1.0000   1.0000   1.0000   1.0000   1.0000   1.0000   1.0000   1.0000
     1.0000   1.0000   1.0000   1.0000   1.0000   1.0000   1.0000   1.0000
     1.0000   1.0000   1.0000   1.0000   1.0000   1.0000   1.0000   1.0000
     1.0000   1.0000   1.0000   1.0000   1.0000   1.0000   1.0000   1.0000
     1.0000   1.0000   1.0000   1.0000   1.0000   1.0000   1.0000   1.0000
     1.0000   1.0000   1.0000   1.0000   1.0000   1.0000   1.0000   1.0000
     1.0000   1.0000   1.0000   1.0000   1.0000   1.0000   1.0000   1.0000
     1.0000   1.0000   1.0000   1.0000   1.0000   1.0000   1.0000   1.0000
     1.0000   1.0000   1.0000   1.0000   1.0000   1.0000   1.0000   1.0000
     1.0000   1.0000   1.0000   1.0000   1.0000   1.0000   1.0000   1.0000
     1.0000   1.0000   1.0000   1.0000   1.0000   1.0000   1.0000   1.0000
     1.0000   1.0000   1.0000   1.0000   1.0000   1.0000   1.0000   1.0000
     1.0000   1.0000   1.0000   1.0000   1.0000   1.0000   1.0000   1.0000
     1.0000   1.0000   1.0000   1.0000   1.0000   1.0000   1.0000   1.0000
     1.0000   1.0000   1.0000   1.0000   1.0000   1.0000   1.0000   1.0000
     1.0000   1.0000   1.0000

          k =-0.4000 0.2309 0.0000 (112236 PWs)   bands (ev):

   -73.8172 -73.8145 -73.8113 -73.8095 -73.8063 -73.8049 -73.8035 -73.8011
   -73.7964 -73.7947 -73.7917 -73.7896 -73.7878 -73.7551 -73.7503 -73.7408
   -38.2083 -38.2026 -38.1911 -38.1848 -38.1837 -38.1649 -38.1619 -38.1478
   -38.1310 -38.1246 -38.1065 -38.1017 -38.0638 -38.0587 -38.0478 -38.0406
   -38.0299 -38.0254 -38.0152 -38.0129 -38.0102 -38.0089 -38.0049 -38.0004
   -37.9992 -37.9981 -37.9960 -37.9934 -37.9883 -37.9866 -37.9830 -37.9801
   -37.9759 -37.9702 -37.9667 -37.9660 -37.9540 -37.9520 -37.9501 -37.9475
   -37.9453 -37.9390 -37.9305 -37.9178 -37.9098 -37.8929 -37.8912 -37.8769
   -21.5125 -15.4429 -14.4368 -14.2337 -13.8707 -13.8588 -13.2506 -13.2449
   -13.0260 -12.9987 -12.9762 -12.9118 -12.8335 -12.7342 -12.7048 -12.6860
   -12.5375 -12.5103 -12.4627 -12.4539 -12.4315 -12.4241 -12.3874 -12.3644
   -12.3539 -12.2830 -12.2231 -12.2011 -12.1767 -12.1623 -12.1557 -12.1531
   -12.0571 -12.0410  -7.9921  -7.5705  -6.1641  -6.1325  -6.1136  -6.0902
    -6.0240  -5.8778  -5.8574  -5.8407  -5.7128  -5.5356  -5.5124  -5.4912
    -5.4555  -5.4479  -5.4387  -5.3902  -5.3808  -5.3185  -5.3111  -5.0836
    -5.0593  -5.0250  -5.0068  -4.8060  -4.6107  -4.5583  -4.4835  -4.4435
    -4.4152  -4.3748  -4.3536  -4.3127  -4.2478  -4.2239  -4.1970  -4.1631
    -4.1236  -4.1154  -4.1031  -4.0762  -4.0700  -4.0554  -4.0441  -3.6931
    -3.5732  -3.5262  -3.4802  -3.4610  -3.4274  -3.4005  -3.3603  -3.3203
    -3.3035  -3.2824  -3.2619  -3.2437  -3.2167  -3.2010  -3.1523  -3.1174
    -3.0749  -3.0501  -3.0163  -2.9747  -2.9402  -2.9083  -2.8426  -2.7829
    -2.7451  -2.7168  -2.6684  -2.6351  -2.6172  -2.5893  -2.5581  -2.5009
    -2.4343  -2.4286  -2.4020  -2.3389  -2.2875  -2.2561  -2.2469  -2.1793
    -2.1292  -2.1203  -2.0621  -2.0339  -2.0202  -1.9965  -1.9667  -1.9386
    -1.9200  -1.9029  -1.8924  -1.8720  -1.8670  -1.8541  -1.8407  -1.8261
    -1.7939  -1.7644  -1.7223  -1.7008  -1.6969  -1.6744  -1.6551  -1.6167
    -1.5945  -1.5658  -1.5077  -1.4802  -1.4542  -1.3619  -1.3347  -1.3041
    -1.2680  -1.2240  -1.1756  -1.1309  -1.1234  -1.1049  -1.0791  -0.9913
    -0.9730  -0.8815  -0.7377  -0.7221  -0.6430  -0.6258  -0.5117  -0.4578
    -0.4520  -0.4268  -0.4059  -0.3791  -0.3056  -0.1031  -0.0010   0.0293
     0.1214   1.3278   1.5524

     occupation numbers 
     1.0000   1.0000   1.0000   1.0000   1.0000   1.0000   1.0000   1.0000
     1.0000   1.0000   1.0000   1.0000   1.0000   1.0000   1.0000   1.0000
     1.0000   1.0000   1.0000   1.0000   1.0000   1.0000   1.0000   1.0000
     1.0000   1.0000   1.0000   1.0000   1.0000   1.0000   1.0000   1.0000
     1.0000   1.0000   1.0000   1.0000   1.0000   1.0000   1.0000   1.0000
     1.0000   1.0000   1.0000   1.0000   1.0000   1.0000   1.0000   1.0000
     1.0000   1.0000   1.0000   1.0000   1.0000   1.0000   1.0000   1.0000
     1.0000   1.0000   1.0000   1.0000   1.0000   1.0000   1.0000   1.0000
     1.0000   1.0000   1.0000   1.0000   1.0000   1.0000   1.0000   1.0000
     1.0000   1.0000   1.0000   1.0000   1.0000   1.0000   1.0000   1.0000
     1.0000   1.0000   1.0000   1.0000   1.0000   1.0000   1.0000   1.0000
     1.0000   1.0000   1.0000   1.0000   1.0000   1.0000   1.0000   1.0000
     1.0000   1.0000   1.0000   1.0000   1.0000   1.0000   1.0000   1.0000
     1.0000   1.0000   1.0000   1.0000   1.0000   1.0000   1.0000   1.0000
     1.0000   1.0000   1.0000   1.0000   1.0000   1.0000   1.0000   1.0000
     1.0000   1.0000   1.0000   1.0000   1.0000   1.0000   1.0000   1.0000
     1.0000   1.0000   1.0000   1.0000   1.0000   1.0000   1.0000   1.0000
     1.0000   1.0000   1.0000   1.0000   1.0000   1.0000   1.0000   1.0000
     1.0000   1.0000   1.0000   1.0000   1.0000   1.0000   1.0000   1.0000
     1.0000   1.0000   1.0000   1.0000   1.0000   1.0000   1.0000   1.0000
     1.0000   1.0000   1.0000   1.0000   1.0000   1.0000   1.0000   1.0000
     1.0000   1.0000   1.0000   1.0000   1.0000   1.0000   1.0000   1.0000
     1.0000   1.0000   1.0000   1.0000   1.0000   1.0000   1.0000   1.0000
     1.0000   1.0000   1.0000   1.0000   1.0000   1.0000   1.0000   1.0000
     1.0000   1.0000   1.0000   1.0000   1.0000   1.0000   1.0000   1.0000
     1.0000   1.0000   1.0000   1.0000   1.0000   1.0000   1.0000   1.0000
     1.0000   1.0000   1.0000   1.0000   1.0000   1.0000   1.0000   1.0000
     1.0000   1.0000   1.0000   1.0000   1.0000   1.0000   1.0000   1.0000
     1.0000   1.0000   1.0000   1.0000   1.0000   1.0000   1.0000   1.0000
     1.0000   1.0000   1.0000   1.0000   1.0000   1.0000   1.0000   1.0000
     1.0000   1.0000   1.0000

          k = 0.4000 0.2309 0.0000 (112236 PWs)   bands (ev):

   -73.8170 -73.8151 -73.8112 -73.8088 -73.8065 -73.8052 -73.8035 -73.8013
   -73.7961 -73.7949 -73.7914 -73.7899 -73.7877 -73.7551 -73.7503 -73.7408
   -38.2067 -38.2046 -38.1908 -38.1875 -38.1811 -38.1639 -38.1623 -38.1476
   -38.1306 -38.1252 -38.1072 -38.1020 -38.0633 -38.0597 -38.0476 -38.0408
   -38.0290 -38.0254 -38.0144 -38.0121 -38.0113 -38.0101 -38.0049 -38.0007
   -37.9985 -37.9972 -37.9955 -37.9922 -37.9902 -37.9867 -37.9827 -37.9800
   -37.9773 -37.9700 -37.9674 -37.9649 -37.9535 -37.9510 -37.9505 -37.9472
   -37.9453 -37.9380 -37.9306 -37.9186 -37.9102 -37.8947 -37.8923 -37.8745
   -21.5125 -15.4429 -14.4367 -14.2340 -13.8700 -13.8594 -13.2505 -13.2460
   -13.0227 -12.9986 -12.9782 -12.9111 -12.8344 -12.7319 -12.7067 -12.6868
   -12.5443 -12.5031 -12.4669 -12.4515 -12.4304 -12.4243 -12.3878 -12.3629
   -12.3515 -12.2830 -12.2298 -12.1990 -12.1787 -12.1614 -12.1561 -12.1505
   -12.0541 -12.0435  -7.9921  -7.5705  -6.1636  -6.1247  -6.1141  -6.0900
    -6.0378  -5.8705  -5.8571  -5.8374  -5.7177  -5.5367  -5.5109  -5.4941
    -5.4501  -5.4494  -5.4413  -5.3897  -5.3842  -5.3163  -5.3102  -5.0749
    -5.0709  -5.0232  -5.0115  -4.7782  -4.6242  -4.5623  -4.4919  -4.4537
    -4.4213  -4.3738  -4.3517  -4.3067  -4.2421  -4.2282  -4.1928  -4.1606
    -4.1271  -4.1168  -4.1042  -4.0781  -4.0650  -4.0530  -4.0447  -3.6802
    -3.5657  -3.5275  -3.4708  -3.4533  -3.4332  -3.4040  -3.3629  -3.3298
    -3.2935  -3.2864  -3.2570  -3.2422  -3.2213  -3.2071  -3.1417  -3.1205
    -3.0930  -3.0589  -3.0227  -2.9730  -2.9423  -2.9079  -2.8540  -2.7829
    -2.7489  -2.6936  -2.6595  -2.6352  -2.6228  -2.6067  -2.5232  -2.5061
    -2.4642  -2.4339  -2.3784  -2.3370  -2.2797  -2.2619  -2.2479  -2.1633
    -2.1285  -2.1210  -2.0472  -2.0185  -2.0127  -1.9889  -1.9821  -1.9666
    -1.9426  -1.9074  -1.8969  -1.8712  -1.8590  -1.8496  -1.8409  -1.8257
    -1.8096  -1.7534  -1.7344  -1.7151  -1.6995  -1.6520  -1.6381  -1.6296
    -1.6011  -1.5589  -1.5152  -1.5020  -1.4279  -1.3655  -1.3166  -1.2969
    -1.2638  -1.2400  -1.1948  -1.1368  -1.1208  -1.0672  -1.0574  -1.0062
    -0.9794  -0.8926  -0.7328  -0.7283  -0.6416  -0.6322  -0.5214  -0.4615
    -0.4507  -0.4250  -0.4069  -0.3693  -0.2993  -0.1048   0.0003   0.0253
     0.1245   1.3108   1.5731

     occupation numbers 
     1.0000   1.0000   1.0000   1.0000   1.0000   1.0000   1.0000   1.0000
     1.0000   1.0000   1.0000   1.0000   1.0000   1.0000   1.0000   1.0000
     1.0000   1.0000   1.0000   1.0000   1.0000   1.0000   1.0000   1.0000
     1.0000   1.0000   1.0000   1.0000   1.0000   1.0000   1.0000   1.0000
     1.0000   1.0000   1.0000   1.0000   1.0000   1.0000   1.0000   1.0000
     1.0000   1.0000   1.0000   1.0000   1.0000   1.0000   1.0000   1.0000
     1.0000   1.0000   1.0000   1.0000   1.0000   1.0000   1.0000   1.0000
     1.0000   1.0000   1.0000   1.0000   1.0000   1.0000   1.0000   1.0000
     1.0000   1.0000   1.0000   1.0000   1.0000   1.0000   1.0000   1.0000
     1.0000   1.0000   1.0000   1.0000   1.0000   1.0000   1.0000   1.0000
     1.0000   1.0000   1.0000   1.0000   1.0000   1.0000   1.0000   1.0000
     1.0000   1.0000   1.0000   1.0000   1.0000   1.0000   1.0000   1.0000
     1.0000   1.0000   1.0000   1.0000   1.0000   1.0000   1.0000   1.0000
     1.0000   1.0000   1.0000   1.0000   1.0000   1.0000   1.0000   1.0000
     1.0000   1.0000   1.0000   1.0000   1.0000   1.0000   1.0000   1.0000
     1.0000   1.0000   1.0000   1.0000   1.0000   1.0000   1.0000   1.0000
     1.0000   1.0000   1.0000   1.0000   1.0000   1.0000   1.0000   1.0000
     1.0000   1.0000   1.0000   1.0000   1.0000   1.0000   1.0000   1.0000
     1.0000   1.0000   1.0000   1.0000   1.0000   1.0000   1.0000   1.0000
     1.0000   1.0000   1.0000   1.0000   1.0000   1.0000   1.0000   1.0000
     1.0000   1.0000   1.0000   1.0000   1.0000   1.0000   1.0000   1.0000
     1.0000   1.0000   1.0000   1.0000   1.0000   1.0000   1.0000   1.0000
     1.0000   1.0000   1.0000   1.0000   1.0000   1.0000   1.0000   1.0000
     1.0000   1.0000   1.0000   1.0000   1.0000   1.0000   1.0000   1.0000
     1.0000   1.0000   1.0000   1.0000   1.0000   1.0000   1.0000   1.0000
     1.0000   1.0000   1.0000   1.0000   1.0000   1.0000   1.0000   1.0000
     1.0000   1.0000   1.0000   1.0000   1.0000   1.0000   1.0000   1.0000
     1.0000   1.0000   1.0000   1.0000   1.0000   1.0000   1.0000   1.0000
     1.0000   1.0000   1.0000   1.0000   1.0000   1.0000   1.0000   1.0000
     1.0000   1.0000   1.0000   1.0000   1.0000   1.0000   1.0000   1.0000
     1.0000   1.0000   1.0000

          k =-0.2000 0.3464 0.0000 (112231 PWs)   bands (ev):

   -73.8173 -73.8145 -73.8113 -73.8092 -73.8063 -73.8054 -73.8033 -73.8011
   -73.7966 -73.7945 -73.7916 -73.7897 -73.7878 -73.7551 -73.7503 -73.7408
   -38.2128 -38.2028 -38.2013 -38.1798 -38.1763 -38.1649 -38.1562 -38.1500
   -38.1334 -38.1261 -38.1136 -38.0776 -38.0615 -38.0562 -38.0485 -38.0378
   -38.0328 -38.0291 -38.0258 -38.0210 -38.0167 -38.0088 -38.0042 -38.0004
   -37.9969 -37.9939 -37.9919 -37.9891 -37.9870 -37.9846 -37.9828 -37.9817
   -37.9772 -37.9742 -37.9702 -37.9658 -37.9590 -37.9560 -37.9524 -37.9478
   -37.9422 -37.9331 -37.9273 -37.9222 -37.9041 -37.8992 -37.8873 -37.8738
   -21.5125 -15.4429 -14.4763 -14.1038 -14.0607 -13.5749 -13.5579 -13.1766
   -13.1201 -13.0105 -12.9362 -12.8094 -12.7923 -12.7074 -12.6735 -12.6208
   -12.5861 -12.5778 -12.5698 -12.4560 -12.4271 -12.3947 -12.3803 -12.3113
   -12.2927 -12.2749 -12.2524 -12.2275 -12.2237 -12.1575 -12.1508 -12.1093
   -12.0964 -12.0363  -7.9921  -7.5705  -6.1925  -6.1707  -6.1377  -6.1220
    -6.1043  -5.7701  -5.7392  -5.7181  -5.7008  -5.6275  -5.6035  -5.5651
    -5.5089  -5.4773  -5.3576  -5.3324  -5.3014  -5.2666  -5.2433  -5.2225
    -5.0989  -4.9153  -4.8960  -4.7980  -4.7571  -4.6104  -4.5189  -4.4494
    -4.3969  -4.3459  -4.3366  -4.3108  -4.2818  -4.2621  -4.2470  -4.2289
    -4.1656  -4.1315  -4.1125  -4.0945  -4.0554  -3.7762  -3.7415  -3.7302
    -3.7102  -3.6935  -3.6161  -3.5096  -3.4249  -3.3844  -3.3756  -3.3107
    -3.2961  -3.2445  -3.2348  -3.2055  -3.1683  -3.1489  -3.1292  -3.0854
    -3.0648  -3.0142  -2.9762  -2.9473  -2.9353  -2.9285  -2.9251  -2.9034
    -2.7998  -2.7450  -2.7236  -2.6792  -2.6322  -2.5650  -2.5330  -2.4795
    -2.4652  -2.4116  -2.3920  -2.3668  -2.3244  -2.2235  -2.1996  -2.1597
    -2.1395  -2.1252  -2.1100  -2.0852  -2.0397  -1.9922  -1.9852  -1.9457
    -1.9222  -1.9034  -1.8712  -1.8574  -1.8279  -1.8197  -1.7993  -1.7790
    -1.7499  -1.7145  -1.7066  -1.6829  -1.6574  -1.6406  -1.5911  -1.5853
    -1.5629  -1.5503  -1.5328  -1.5130  -1.4449  -1.3990  -1.3871  -1.3484
    -1.2920  -1.2504  -1.1987  -1.1751  -1.1601  -1.1230  -1.0487  -1.0057
    -0.8780  -0.8393  -0.6890  -0.6729  -0.6396  -0.6297  -0.6119  -0.5447
    -0.5379  -0.4295  -0.3873  -0.2593  -0.2080  -0.2006  -0.1625   0.0710
     0.1380   1.2905   1.5790

     occupation numbers 
     1.0000   1.0000   1.0000   1.0000   1.0000   1.0000   1.0000   1.0000
     1.0000   1.0000   1.0000   1.0000   1.0000   1.0000   1.0000   1.0000
     1.0000   1.0000   1.0000   1.0000   1.0000   1.0000   1.0000   1.0000
     1.0000   1.0000   1.0000   1.0000   1.0000   1.0000   1.0000   1.0000
     1.0000   1.0000   1.0000   1.0000   1.0000   1.0000   1.0000   1.0000
     1.0000   1.0000   1.0000   1.0000   1.0000   1.0000   1.0000   1.0000
     1.0000   1.0000   1.0000   1.0000   1.0000   1.0000   1.0000   1.0000
     1.0000   1.0000   1.0000   1.0000   1.0000   1.0000   1.0000   1.0000
     1.0000   1.0000   1.0000   1.0000   1.0000   1.0000   1.0000   1.0000
     1.0000   1.0000   1.0000   1.0000   1.0000   1.0000   1.0000   1.0000
     1.0000   1.0000   1.0000   1.0000   1.0000   1.0000   1.0000   1.0000
     1.0000   1.0000   1.0000   1.0000   1.0000   1.0000   1.0000   1.0000
     1.0000   1.0000   1.0000   1.0000   1.0000   1.0000   1.0000   1.0000
     1.0000   1.0000   1.0000   1.0000   1.0000   1.0000   1.0000   1.0000
     1.0000   1.0000   1.0000   1.0000   1.0000   1.0000   1.0000   1.0000
     1.0000   1.0000   1.0000   1.0000   1.0000   1.0000   1.0000   1.0000
     1.0000   1.0000   1.0000   1.0000   1.0000   1.0000   1.0000   1.0000
     1.0000   1.0000   1.0000   1.0000   1.0000   1.0000   1.0000   1.0000
     1.0000   1.0000   1.0000   1.0000   1.0000   1.0000   1.0000   1.0000
     1.0000   1.0000   1.0000   1.0000   1.0000   1.0000   1.0000   1.0000
     1.0000   1.0000   1.0000   1.0000   1.0000   1.0000   1.0000   1.0000
     1.0000   1.0000   1.0000   1.0000   1.0000   1.0000   1.0000   1.0000
     1.0000   1.0000   1.0000   1.0000   1.0000   1.0000   1.0000   1.0000
     1.0000   1.0000   1.0000   1.0000   1.0000   1.0000   1.0000   1.0000
     1.0000   1.0000   1.0000   1.0000   1.0000   1.0000   1.0000   1.0000
     1.0000   1.0000   1.0000   1.0000   1.0000   1.0000   1.0000   1.0000
     1.0000   1.0000   1.0000   1.0000   1.0000   1.0000   1.0000   1.0000
     1.0000   1.0000   1.0000   1.0000   1.0000   1.0000   1.0000   1.0000
     1.0000   1.0000   1.0000   1.0000   1.0000   1.0000   1.0000   1.0000
     1.0000   1.0000   1.0000   1.0000   1.0000   1.0000   1.0000   1.0000
     1.0000   1.0000   1.0000

          k = 0.4000-0.0000 0.0000 (112231 PWs)   bands (ev):

   -73.8172 -73.8147 -73.8112 -73.8091 -73.8064 -73.8051 -73.8035 -73.8012
   -73.7962 -73.7948 -73.7916 -73.7897 -73.7878 -73.7551 -73.7503 -73.7408
   -38.2129 -38.2035 -38.2002 -38.1796 -38.1765 -38.1662 -38.1567 -38.1501
   -38.1327 -38.1247 -38.1132 -38.0774 -38.0624 -38.0568 -38.0483 -38.0385
   -38.0313 -38.0294 -38.0259 -38.0225 -38.0146 -38.0099 -38.0046 -37.9992
   -37.9967 -37.9941 -37.9919 -37.9896 -37.9884 -37.9858 -37.9827 -37.9807
   -37.9758 -37.9752 -37.9700 -37.9661 -37.9589 -37.9555 -37.9522 -37.9475
   -37.9428 -37.9324 -37.9285 -37.9227 -37.9022 -37.8988 -37.8861 -37.8758
   -21.5125 -15.4429 -14.4764 -14.1003 -14.0642 -13.5694 -13.5642 -13.1716
   -13.1234 -13.0144 -12.9300 -12.8053 -12.7964 -12.7121 -12.6827 -12.6031
   -12.6002 -12.5748 -12.5618 -12.4576 -12.4243 -12.4135 -12.3655 -12.3084
   -12.2939 -12.2718 -12.2551 -12.2354 -12.2208 -12.1583 -12.1482 -12.1071
   -12.0978 -12.0367  -7.9921  -7.5705  -6.1826  -6.1777  -6.1398  -6.1201
    -6.1092  -5.7597  -5.7440  -5.7221  -5.6890  -5.6380  -5.6099  -5.5627
    -5.5069  -5.4745  -5.3531  -5.3362  -5.2940  -5.2730  -5.2458  -5.2306
    -5.0985  -4.9031  -4.8879  -4.8115  -4.7574  -4.5736  -4.5404  -4.4673
    -4.4111  -4.3481  -4.3393  -4.3146  -4.2768  -4.2657  -4.2449  -4.2121
    -4.1765  -4.1188  -4.1114  -4.0912  -4.0555  -3.7652  -3.7362  -3.7290
    -3.7094  -3.7001  -3.6280  -3.4874  -3.4323  -3.4043  -3.3739  -3.3282
    -3.2893  -3.2480  -3.2380  -3.2042  -3.1787  -3.1463  -3.1288  -3.0839
    -3.0451  -3.0075  -2.9709  -2.9536  -2.9426  -2.9254  -2.9095  -2.9016
    -2.7913  -2.7588  -2.7244  -2.6636  -2.6349  -2.5844  -2.5489  -2.4726
    -2.4690  -2.4224  -2.3896  -2.3485  -2.3225  -2.2288  -2.1824  -2.1640
    -2.1338  -2.1260  -2.1094  -2.1031  -2.0150  -1.9965  -1.9782  -1.9526
    -1.9287  -1.9026  -1.8846  -1.8667  -1.8547  -1.8233  -1.7946  -1.7719
    -1.7379  -1.7168  -1.6963  -1.6766  -1.6629  -1.6312  -1.5970  -1.5744
    -1.5586  -1.5489  -1.5345  -1.5079  -1.4516  -1.4145  -1.3716  -1.3420
    -1.2895  -1.2692  -1.2037  -1.1807  -1.1532  -1.1115  -1.0513  -1.0040
    -0.8692  -0.8513  -0.6835  -0.6762  -0.6406  -0.6245  -0.6163  -0.5428
    -0.5370  -0.4440  -0.3847  -0.2540  -0.2088  -0.1956  -0.1641   0.0684
     0.1379   1.3202   1.5481

     occupation numbers 
     1.0000   1.0000   1.0000   1.0000   1.0000   1.0000   1.0000   1.0000
     1.0000   1.0000   1.0000   1.0000   1.0000   1.0000   1.0000   1.0000
     1.0000   1.0000   1.0000   1.0000   1.0000   1.0000   1.0000   1.0000
     1.0000   1.0000   1.0000   1.0000   1.0000   1.0000   1.0000   1.0000
     1.0000   1.0000   1.0000   1.0000   1.0000   1.0000   1.0000   1.0000
     1.0000   1.0000   1.0000   1.0000   1.0000   1.0000   1.0000   1.0000
     1.0000   1.0000   1.0000   1.0000   1.0000   1.0000   1.0000   1.0000
     1.0000   1.0000   1.0000   1.0000   1.0000   1.0000   1.0000   1.0000
     1.0000   1.0000   1.0000   1.0000   1.0000   1.0000   1.0000   1.0000
     1.0000   1.0000   1.0000   1.0000   1.0000   1.0000   1.0000   1.0000
     1.0000   1.0000   1.0000   1.0000   1.0000   1.0000   1.0000   1.0000
     1.0000   1.0000   1.0000   1.0000   1.0000   1.0000   1.0000   1.0000
     1.0000   1.0000   1.0000   1.0000   1.0000   1.0000   1.0000   1.0000
     1.0000   1.0000   1.0000   1.0000   1.0000   1.0000   1.0000   1.0000
     1.0000   1.0000   1.0000   1.0000   1.0000   1.0000   1.0000   1.0000
     1.0000   1.0000   1.0000   1.0000   1.0000   1.0000   1.0000   1.0000
     1.0000   1.0000   1.0000   1.0000   1.0000   1.0000   1.0000   1.0000
     1.0000   1.0000   1.0000   1.0000   1.0000   1.0000   1.0000   1.0000
     1.0000   1.0000   1.0000   1.0000   1.0000   1.0000   1.0000   1.0000
     1.0000   1.0000   1.0000   1.0000   1.0000   1.0000   1.0000   1.0000
     1.0000   1.0000   1.0000   1.0000   1.0000   1.0000   1.0000   1.0000
     1.0000   1.0000   1.0000   1.0000   1.0000   1.0000   1.0000   1.0000
     1.0000   1.0000   1.0000   1.0000   1.0000   1.0000   1.0000   1.0000
     1.0000   1.0000   1.0000   1.0000   1.0000   1.0000   1.0000   1.0000
     1.0000   1.0000   1.0000   1.0000   1.0000   1.0000   1.0000   1.0000
     1.0000   1.0000   1.0000   1.0000   1.0000   1.0000   1.0000   1.0000
     1.0000   1.0000   1.0000   1.0000   1.0000   1.0000   1.0000   1.0000
     1.0000   1.0000   1.0000   1.0000   1.0000   1.0000   1.0000   1.0000
     1.0000   1.0000   1.0000   1.0000   1.0000   1.0000   1.0000   1.0000
     1.0000   1.0000   1.0000   1.0000   1.0000   1.0000   1.0000   1.0000
     1.0000   1.0000   1.0000

          k =-0.4000 0.4619 0.0000 (112237 PWs)   bands (ev):

   -73.8171 -73.8147 -73.8113 -73.8094 -73.8063 -73.8050 -73.8035 -73.8011
   -73.7964 -73.7947 -73.7916 -73.7897 -73.7878 -73.7551 -73.7503 -73.7408
   -38.2025 -38.1957 -38.1862 -38.1829 -38.1803 -38.1740 -38.1665 -38.1497
   -38.1469 -38.1333 -38.0950 -38.0908 -38.0856 -38.0527 -38.0454 -38.0418
   -38.0337 -38.0319 -38.0216 -38.0135 -38.0088 -38.0058 -38.0042 -38.0008
   -37.9997 -37.9969 -37.9942 -37.9887 -37.9865 -37.9828 -37.9754 -37.9722
   -37.9702 -37.9686 -37.9618 -37.9583 -37.9552 -37.9535 -37.9505 -37.9484
   -37.9462 -37.9388 -37.9345 -37.9275 -37.9155 -37.8966 -37.8860 -37.8802
   -21.5125 -15.4429 -14.3400 -14.2900 -14.1165 -13.5974 -13.2992 -13.2956
   -12.9624 -12.9503 -12.8875 -12.8575 -12.8284 -12.8019 -12.7971 -12.6665
   -12.6351 -12.5969 -12.4949 -12.4844 -12.3887 -12.3763 -12.3489 -12.3268
   -12.3102 -12.2980 -12.2618 -12.2355 -12.2302 -12.1347 -12.1207 -12.1157
   -12.0806 -12.0172  -7.9921  -7.5705  -6.1574  -6.0599  -6.0259  -5.9704
    -5.9160  -5.8913  -5.8783  -5.8604  -5.8089  -5.7456  -5.6902  -5.6268
    -5.6112  -5.5421  -5.3587  -5.2875  -5.2486  -5.2177  -5.2027  -5.1696
    -5.1586  -4.8555  -4.8337  -4.7469  -4.6213  -4.5911  -4.5455  -4.5262
    -4.4924  -4.4277  -4.3855  -4.3269  -4.3093  -4.2431  -4.2281  -4.2100
    -4.1945  -4.1649  -4.1211  -4.0953  -3.9581  -3.9480  -3.7936  -3.6723
    -3.6281  -3.5907  -3.4354  -3.3985  -3.3646  -3.3270  -3.3095  -3.2824
    -3.2795  -3.2683  -3.2431  -3.2328  -3.2210  -3.2150  -3.1506  -3.1221
    -3.0982  -3.0862  -3.0600  -3.0478  -2.9986  -2.9543  -2.8522  -2.8159
    -2.7453  -2.7318  -2.7134  -2.6834  -2.6323  -2.5955  -2.5121  -2.4209
    -2.4010  -2.3320  -2.3240  -2.3188  -2.2691  -2.2000  -2.1755  -2.1613
    -2.1476  -2.0910  -2.0808  -2.0531  -2.0297  -1.9802  -1.9697  -1.9498
    -1.9335  -1.9193  -1.8958  -1.8848  -1.8696  -1.8561  -1.8458  -1.8431
    -1.8197  -1.7970  -1.7619  -1.7296  -1.7063  -1.6970  -1.6741  -1.6551
    -1.6277  -1.5865  -1.5371  -1.5064  -1.4854  -1.4625  -1.4221  -1.3188
    -1.2858  -1.2375  -1.1716  -1.1175  -1.0945  -1.0769  -1.0455  -0.9737
    -0.8152  -0.7891  -0.7035  -0.6927  -0.6590  -0.6474  -0.6009  -0.5848
    -0.5684  -0.4147  -0.2819  -0.2757  -0.1802  -0.1204  -0.0784   0.0900
     0.1860   1.3286   1.5652

     occupation numbers 
     1.0000   1.0000   1.0000   1.0000   1.0000   1.0000   1.0000   1.0000
     1.0000   1.0000   1.0000   1.0000   1.0000   1.0000   1.0000   1.0000
     1.0000   1.0000   1.0000   1.0000   1.0000   1.0000   1.0000   1.0000
     1.0000   1.0000   1.0000   1.0000   1.0000   1.0000   1.0000   1.0000
     1.0000   1.0000   1.0000   1.0000   1.0000   1.0000   1.0000   1.0000
     1.0000   1.0000   1.0000   1.0000   1.0000   1.0000   1.0000   1.0000
     1.0000   1.0000   1.0000   1.0000   1.0000   1.0000   1.0000   1.0000
     1.0000   1.0000   1.0000   1.0000   1.0000   1.0000   1.0000   1.0000
     1.0000   1.0000   1.0000   1.0000   1.0000   1.0000   1.0000   1.0000
     1.0000   1.0000   1.0000   1.0000   1.0000   1.0000   1.0000   1.0000
     1.0000   1.0000   1.0000   1.0000   1.0000   1.0000   1.0000   1.0000
     1.0000   1.0000   1.0000   1.0000   1.0000   1.0000   1.0000   1.0000
     1.0000   1.0000   1.0000   1.0000   1.0000   1.0000   1.0000   1.0000
     1.0000   1.0000   1.0000   1.0000   1.0000   1.0000   1.0000   1.0000
     1.0000   1.0000   1.0000   1.0000   1.0000   1.0000   1.0000   1.0000
     1.0000   1.0000   1.0000   1.0000   1.0000   1.0000   1.0000   1.0000
     1.0000   1.0000   1.0000   1.0000   1.0000   1.0000   1.0000   1.0000
     1.0000   1.0000   1.0000   1.0000   1.0000   1.0000   1.0000   1.0000
     1.0000   1.0000   1.0000   1.0000   1.0000   1.0000   1.0000   1.0000
     1.0000   1.0000   1.0000   1.0000   1.0000   1.0000   1.0000   1.0000
     1.0000   1.0000   1.0000   1.0000   1.0000   1.0000   1.0000   1.0000
     1.0000   1.0000   1.0000   1.0000   1.0000   1.0000   1.0000   1.0000
     1.0000   1.0000   1.0000   1.0000   1.0000   1.0000   1.0000   1.0000
     1.0000   1.0000   1.0000   1.0000   1.0000   1.0000   1.0000   1.0000
     1.0000   1.0000   1.0000   1.0000   1.0000   1.0000   1.0000   1.0000
     1.0000   1.0000   1.0000   1.0000   1.0000   1.0000   1.0000   1.0000
     1.0000   1.0000   1.0000   1.0000   1.0000   1.0000   1.0000   1.0000
     1.0000   1.0000   1.0000   1.0000   1.0000   1.0000   1.0000   1.0000
     1.0000   1.0000   1.0000   1.0000   1.0000   1.0000   1.0000   1.0000
     1.0000   1.0000   1.0000   1.0000   1.0000   1.0000   1.0000   1.0000
     1.0000   1.0000   1.0000

          k = 0.6000 0.1155 0.0000 (112237 PWs)   bands (ev):

   -73.8169 -73.8151 -73.8112 -73.8090 -73.8064 -73.8051 -73.8035 -73.8012
   -73.7962 -73.7948 -73.7914 -73.7899 -73.7877 -73.7551 -73.7503 -73.7408
   -38.2012 -38.1973 -38.1871 -38.1844 -38.1774 -38.1739 -38.1661 -38.1494
   -38.1477 -38.1331 -38.0944 -38.0927 -38.0852 -38.0522 -38.0455 -38.0416
   -38.0338 -38.0321 -38.0213 -38.0127 -38.0096 -38.0066 -38.0036 -38.0011
   -38.0001 -37.9955 -37.9939 -37.9896 -37.9867 -37.9827 -37.9752 -37.9724
   -37.9701 -37.9694 -37.9616 -37.9583 -37.9557 -37.9538 -37.9509 -37.9482
   -37.9423 -37.9394 -37.9327 -37.9300 -37.9166 -37.8975 -37.8875 -37.8779
   -21.5125 -15.4429 -14.3394 -14.2909 -14.1163 -13.5973 -13.3065 -13.2883
   -12.9684 -12.9443 -12.8825 -12.8610 -12.8288 -12.8023 -12.7976 -12.6690
   -12.6339 -12.5951 -12.5048 -12.4743 -12.3954 -12.3730 -12.3451 -12.3222
   -12.3110 -12.3002 -12.2651 -12.2360 -12.2311 -12.1325 -12.1215 -12.1160
   -12.0799 -12.0174  -7.9921  -7.5705  -6.1574  -6.0568  -6.0209  -5.9695
    -5.9296  -5.9076  -5.8777  -5.8361  -5.8082  -5.7506  -5.6921  -5.6245
    -5.6134  -5.5387  -5.3576  -5.2838  -5.2572  -5.2265  -5.1979  -5.1735
    -5.1494  -4.8575  -4.8405  -4.6968  -4.6483  -4.6109  -4.5526  -4.5155
    -4.4954  -4.4366  -4.3859  -4.3224  -4.3032  -4.2431  -4.2324  -4.2006
    -4.1929  -4.1686  -4.1208  -4.0969  -3.9588  -3.9483  -3.7900  -3.6699
    -3.6295  -3.5815  -3.4370  -3.3773  -3.3685  -3.3355  -3.3039  -3.2882
    -3.2856  -3.2624  -3.2464  -3.2356  -3.2219  -3.2041  -3.1812  -3.1445
    -3.0884  -3.0800  -3.0543  -3.0225  -3.0081  -2.9669  -2.8499  -2.8139
    -2.7533  -2.7329  -2.7269  -2.6591  -2.6419  -2.5576  -2.5213  -2.4691
    -2.3964  -2.3370  -2.3170  -2.2978  -2.2479  -2.2160  -2.1755  -2.1519
    -2.1305  -2.1060  -2.0782  -2.0494  -2.0209  -1.9855  -1.9697  -1.9604
    -1.9392  -1.9140  -1.9042  -1.8832  -1.8738  -1.8633  -1.8545  -1.8456
    -1.8127  -1.8002  -1.7525  -1.7365  -1.7098  -1.6947  -1.6673  -1.6452
    -1.6280  -1.6067  -1.5399  -1.5223  -1.4776  -1.4354  -1.4076  -1.3307
    -1.2948  -1.2315  -1.1613  -1.1406  -1.0967  -1.0585  -1.0230  -0.9933
    -0.8115  -0.7956  -0.6990  -0.6973  -0.6601  -0.6535  -0.6017  -0.5962
    -0.5540  -0.4162  -0.2839  -0.2688  -0.1776  -0.1254  -0.0777   0.0908
     0.1863   1.3184   1.5776

     occupation numbers 
     1.0000   1.0000   1.0000   1.0000   1.0000   1.0000   1.0000   1.0000
     1.0000   1.0000   1.0000   1.0000   1.0000   1.0000   1.0000   1.0000
     1.0000   1.0000   1.0000   1.0000   1.0000   1.0000   1.0000   1.0000
     1.0000   1.0000   1.0000   1.0000   1.0000   1.0000   1.0000   1.0000
     1.0000   1.0000   1.0000   1.0000   1.0000   1.0000   1.0000   1.0000
     1.0000   1.0000   1.0000   1.0000   1.0000   1.0000   1.0000   1.0000
     1.0000   1.0000   1.0000   1.0000   1.0000   1.0000   1.0000   1.0000
     1.0000   1.0000   1.0000   1.0000   1.0000   1.0000   1.0000   1.0000
     1.0000   1.0000   1.0000   1.0000   1.0000   1.0000   1.0000   1.0000
     1.0000   1.0000   1.0000   1.0000   1.0000   1.0000   1.0000   1.0000
     1.0000   1.0000   1.0000   1.0000   1.0000   1.0000   1.0000   1.0000
     1.0000   1.0000   1.0000   1.0000   1.0000   1.0000   1.0000   1.0000
     1.0000   1.0000   1.0000   1.0000   1.0000   1.0000   1.0000   1.0000
     1.0000   1.0000   1.0000   1.0000   1.0000   1.0000   1.0000   1.0000
     1.0000   1.0000   1.0000   1.0000   1.0000   1.0000   1.0000   1.0000
     1.0000   1.0000   1.0000   1.0000   1.0000   1.0000   1.0000   1.0000
     1.0000   1.0000   1.0000   1.0000   1.0000   1.0000   1.0000   1.0000
     1.0000   1.0000   1.0000   1.0000   1.0000   1.0000   1.0000   1.0000
     1.0000   1.0000   1.0000   1.0000   1.0000   1.0000   1.0000   1.0000
     1.0000   1.0000   1.0000   1.0000   1.0000   1.0000   1.0000   1.0000
     1.0000   1.0000   1.0000   1.0000   1.0000   1.0000   1.0000   1.0000
     1.0000   1.0000   1.0000   1.0000   1.0000   1.0000   1.0000   1.0000
     1.0000   1.0000   1.0000   1.0000   1.0000   1.0000   1.0000   1.0000
     1.0000   1.0000   1.0000   1.0000   1.0000   1.0000   1.0000   1.0000
     1.0000   1.0000   1.0000   1.0000   1.0000   1.0000   1.0000   1.0000
     1.0000   1.0000   1.0000   1.0000   1.0000   1.0000   1.0000   1.0000
     1.0000   1.0000   1.0000   1.0000   1.0000   1.0000   1.0000   1.0000
     1.0000   1.0000   1.0000   1.0000   1.0000   1.0000   1.0000   1.0000
     1.0000   1.0000   1.0000   1.0000   1.0000   1.0000   1.0000   1.0000
     1.0000   1.0000   1.0000   1.0000   1.0000   1.0000   1.0000   1.0000
     1.0000   1.0000   1.0000

 ------ SPIN DOWN ----------


          k = 0.0000 0.0000 0.0000 (112117 PWs)   bands (ev):

   -73.8143 -73.8098 -73.8068 -73.8050 -73.8027 -73.8020 -73.7988 -73.7964
   -73.7942 -73.7892 -73.7883 -73.7867 -73.7826 -73.7417 -73.7320 -73.7291
   -38.2164 -38.2152 -38.2132 -38.1572 -38.1565 -38.1524 -38.1477 -38.1466
   -38.1353 -38.0561 -38.0510 -38.0484 -38.0479 -38.0419 -38.0389 -38.0376
   -38.0248 -38.0228 -38.0210 -38.0197 -38.0171 -38.0169 -38.0155 -38.0125
   -38.0094 -38.0061 -38.0047 -37.9997 -37.9928 -37.9894 -37.9869 -37.9854
   -37.9839 -37.9768 -37.9527 -37.9518 -37.9489 -37.9452 -37.9359 -37.9253
   -37.9193 -37.9084 -37.9061 -37.9045 -37.9021 -37.8914 -37.8589 -37.8569
   -21.5111 -15.4418 -14.5951 -13.7063 -13.6917 -13.6717 -13.6429 -13.6290
   -13.6197 -12.9797 -12.7055 -12.6749 -12.6508 -12.6363 -12.6011 -12.5804
   -12.5329 -12.5041 -12.4682 -12.4555 -12.4438 -12.4421 -12.4210 -12.4194
   -12.4157 -12.2207 -12.1985 -12.1888 -12.1721 -12.1564 -12.1526 -12.1482
   -12.1462 -12.1438  -7.9901  -7.5688  -6.3363  -6.3231  -6.3055  -6.2752
    -6.1477  -5.6005  -5.5689  -5.5449  -5.5291  -5.5249  -5.4924  -5.4382
    -5.4054  -5.3867  -5.3114  -5.2802  -5.2602  -5.0993  -5.0903  -5.0623
    -5.0576  -5.0535  -5.0528  -4.9968  -4.9962  -4.9877  -4.5118  -4.4325
    -4.3927  -4.3434  -4.2897  -4.2807  -4.2647  -4.2435  -4.2301  -4.1764
    -4.0775  -4.0067  -3.9757  -3.9606  -3.9343  -3.7886  -3.7561  -3.7522
    -3.6982  -3.6764  -3.6734  -3.5974  -3.5078  -3.4685  -3.4032  -3.3993
    -3.3717  -3.3652  -3.2743  -3.2192  -3.1932  -3.1795  -3.1577  -3.1400
    -3.1270  -3.1221  -3.1079  -3.1054  -3.0398  -2.9247  -2.7918  -2.7452
    -2.6875  -2.6661  -2.6204  -2.5859  -2.5730  -2.4993  -2.4909  -2.4630
    -2.4578  -2.4306  -2.4280  -2.4229  -2.3892  -2.3294  -2.2725  -2.1863
    -2.1154  -2.0537  -1.9644  -1.9598  -1.9299  -1.9167  -1.8654  -1.8237
    -1.7991  -1.7750  -1.7639  -1.7626  -1.7507  -1.7474  -1.7415  -1.7394
    -1.7324  -1.6995  -1.6923  -1.6561  -1.6466  -1.6345  -1.6317  -1.5986
    -1.5727  -1.5260  -1.5159  -1.4888  -1.4482  -1.4090  -1.3697  -1.3522
    -1.2900  -1.2610  -1.1821  -1.0874  -1.0327  -1.0256  -1.0096  -0.9898
    -0.7216  -0.6873  -0.6832  -0.6829  -0.6698  -0.6652  -0.6431  -0.6366
    -0.6202  -0.3929  -0.3815  -0.3715  -0.3564  -0.3396  -0.3302  -0.2931
     0.2187   1.3014   1.6756

     occupation numbers 
     1.0000   1.0000   1.0000   1.0000   1.0000   1.0000   1.0000   1.0000
     1.0000   1.0000   1.0000   1.0000   1.0000   1.0000   1.0000   1.0000
     1.0000   1.0000   1.0000   1.0000   1.0000   1.0000   1.0000   1.0000
     1.0000   1.0000   1.0000   1.0000   1.0000   1.0000   1.0000   1.0000
     1.0000   1.0000   1.0000   1.0000   1.0000   1.0000   1.0000   1.0000
     1.0000   1.0000   1.0000   1.0000   1.0000   1.0000   1.0000   1.0000
     1.0000   1.0000   1.0000   1.0000   1.0000   1.0000   1.0000   1.0000
     1.0000   1.0000   1.0000   1.0000   1.0000   1.0000   1.0000   1.0000
     1.0000   1.0000   1.0000   1.0000   1.0000   1.0000   1.0000   1.0000
     1.0000   1.0000   1.0000   1.0000   1.0000   1.0000   1.0000   1.0000
     1.0000   1.0000   1.0000   1.0000   1.0000   1.0000   1.0000   1.0000
     1.0000   1.0000   1.0000   1.0000   1.0000   1.0000   1.0000   1.0000
     1.0000   1.0000   1.0000   1.0000   1.0000   1.0000   1.0000   1.0000
     1.0000   1.0000   1.0000   1.0000   1.0000   1.0000   1.0000   1.0000
     1.0000   1.0000   1.0000   1.0000   1.0000   1.0000   1.0000   1.0000
     1.0000   1.0000   1.0000   1.0000   1.0000   1.0000   1.0000   1.0000
     1.0000   1.0000   1.0000   1.0000   1.0000   1.0000   1.0000   1.0000
     1.0000   1.0000   1.0000   1.0000   1.0000   1.0000   1.0000   1.0000
     1.0000   1.0000   1.0000   1.0000   1.0000   1.0000   1.0000   1.0000
     1.0000   1.0000   1.0000   1.0000   1.0000   1.0000   1.0000   1.0000
     1.0000   1.0000   1.0000   1.0000   1.0000   1.0000   1.0000   1.0000
     1.0000   1.0000   1.0000   1.0000   1.0000   1.0000   1.0000   1.0000
     1.0000   1.0000   1.0000   1.0000   1.0000   1.0000   1.0000   1.0000
     1.0000   1.0000   1.0000   1.0000   1.0000   1.0000   1.0000   1.0000
     1.0000   1.0000   1.0000   1.0000   1.0000   1.0000   1.0000   1.0000
     1.0000   1.0000   1.0000   1.0000   1.0000   1.0000   1.0000   1.0000
     1.0000   1.0000   1.0000   1.0000   1.0000   1.0000   1.0000   1.0000
     1.0000   1.0000   1.0000   1.0000   1.0000   1.0000   1.0000   1.0000
     1.0000   1.0000   1.0000   1.0000   1.0000   1.0000   1.0000   1.0000
     1.0000   1.0000   1.0000   1.0000   1.0000   1.0000   1.0000   1.0000
     1.0000   1.0000   0.0000

          k = 0.0000 0.2309 0.0000 (112171 PWs)   bands (ev):

   -73.8142 -73.8099 -73.8070 -73.8049 -73.8029 -73.8017 -73.7987 -73.7964
   -73.7943 -73.7892 -73.7883 -73.7867 -73.7826 -73.7417 -73.7320 -73.7291
   -38.2116 -38.2098 -38.2068 -38.1608 -38.1593 -38.1579 -38.1507 -38.1401
   -38.1320 -38.0968 -38.0714 -38.0701 -38.0467 -38.0428 -38.0380 -38.0272
   -38.0258 -38.0205 -38.0176 -38.0164 -38.0136 -38.0107 -38.0091 -38.0057
   -37.9996 -37.9949 -37.9944 -37.9910 -37.9884 -37.9870 -37.9842 -37.9835
   -37.9797 -37.9767 -37.9558 -37.9534 -37.9493 -37.9460 -37.9360 -37.9263
   -37.9257 -37.9149 -37.9110 -37.9031 -37.8991 -37.8899 -37.8646 -37.8596
   -21.5111 -15.4418 -14.5535 -13.9732 -13.7991 -13.7831 -13.4890 -13.4591
   -13.3222 -12.9637 -12.8004 -12.7324 -12.6933 -12.6850 -12.6530 -12.5833
   -12.5524 -12.5394 -12.4921 -12.4753 -12.4541 -12.4334 -12.4223 -12.3141
   -12.2829 -12.2606 -12.2422 -12.2129 -12.1833 -12.1728 -12.1660 -12.1512
   -12.0942 -12.0784  -7.9901  -7.5688  -6.2751  -6.2645  -6.2329  -6.2286
    -6.1462  -5.6594  -5.6399  -5.6233  -5.5533  -5.5147  -5.4862  -5.4673
    -5.4231  -5.4128  -5.3904  -5.3178  -5.3135  -5.2830  -5.2662  -5.0689
    -5.0641  -5.0133  -4.9994  -4.9514  -4.7361  -4.7314  -4.5805  -4.4734
    -4.4448  -4.3810  -4.3182  -4.2809  -4.2031  -4.1575  -4.1425  -4.1164
    -4.0962  -4.0580  -4.0400  -3.9980  -3.9818  -3.9076  -3.9051  -3.8976
    -3.6543  -3.5658  -3.5352  -3.5016  -3.4627  -3.4377  -3.4336  -3.3801
    -3.3610  -3.3095  -3.2888  -3.2751  -3.2610  -3.2030  -3.1890  -3.1463
    -3.0733  -2.9810  -2.9373  -2.9216  -2.8422  -2.7738  -2.7557  -2.7414
    -2.7156  -2.7073  -2.6923  -2.6686  -2.6424  -2.6249  -2.5826  -2.5382
    -2.4980  -2.4936  -2.4634  -2.4272  -2.3475  -2.3014  -2.1854  -2.1568
    -2.1039  -2.0607  -2.0088  -1.9931  -1.9680  -1.9486  -1.9225  -1.9006
    -1.8813  -1.8521  -1.8402  -1.8110  -1.7782  -1.7525  -1.7373  -1.7287
    -1.7163  -1.6939  -1.6778  -1.6518  -1.6363  -1.5999  -1.5786  -1.5383
    -1.5230  -1.4883  -1.4766  -1.4479  -1.4287  -1.3643  -1.3315  -1.3189
    -1.2935  -1.2722  -1.2325  -1.2137  -1.1472  -1.0616  -1.0379  -1.0030
    -0.8873  -0.7734  -0.7554  -0.7389  -0.5633  -0.5593  -0.5418  -0.5283
    -0.5152  -0.5023  -0.4024  -0.3719  -0.3563  -0.2416  -0.1656  -0.1351
     0.2007   1.3072   1.7067

     occupation numbers 
     1.0000   1.0000   1.0000   1.0000   1.0000   1.0000   1.0000   1.0000
     1.0000   1.0000   1.0000   1.0000   1.0000   1.0000   1.0000   1.0000
     1.0000   1.0000   1.0000   1.0000   1.0000   1.0000   1.0000   1.0000
     1.0000   1.0000   1.0000   1.0000   1.0000   1.0000   1.0000   1.0000
     1.0000   1.0000   1.0000   1.0000   1.0000   1.0000   1.0000   1.0000
     1.0000   1.0000   1.0000   1.0000   1.0000   1.0000   1.0000   1.0000
     1.0000   1.0000   1.0000   1.0000   1.0000   1.0000   1.0000   1.0000
     1.0000   1.0000   1.0000   1.0000   1.0000   1.0000   1.0000   1.0000
     1.0000   1.0000   1.0000   1.0000   1.0000   1.0000   1.0000   1.0000
     1.0000   1.0000   1.0000   1.0000   1.0000   1.0000   1.0000   1.0000
     1.0000   1.0000   1.0000   1.0000   1.0000   1.0000   1.0000   1.0000
     1.0000   1.0000   1.0000   1.0000   1.0000   1.0000   1.0000   1.0000
     1.0000   1.0000   1.0000   1.0000   1.0000   1.0000   1.0000   1.0000
     1.0000   1.0000   1.0000   1.0000   1.0000   1.0000   1.0000   1.0000
     1.0000   1.0000   1.0000   1.0000   1.0000   1.0000   1.0000   1.0000
     1.0000   1.0000   1.0000   1.0000   1.0000   1.0000   1.0000   1.0000
     1.0000   1.0000   1.0000   1.0000   1.0000   1.0000   1.0000   1.0000
     1.0000   1.0000   1.0000   1.0000   1.0000   1.0000   1.0000   1.0000
     1.0000   1.0000   1.0000   1.0000   1.0000   1.0000   1.0000   1.0000
     1.0000   1.0000   1.0000   1.0000   1.0000   1.0000   1.0000   1.0000
     1.0000   1.0000   1.0000   1.0000   1.0000   1.0000   1.0000   1.0000
     1.0000   1.0000   1.0000   1.0000   1.0000   1.0000   1.0000   1.0000
     1.0000   1.0000   1.0000   1.0000   1.0000   1.0000   1.0000   1.0000
     1.0000   1.0000   1.0000   1.0000   1.0000   1.0000   1.0000   1.0000
     1.0000   1.0000   1.0000   1.0000   1.0000   1.0000   1.0000   1.0000
     1.0000   1.0000   1.0000   1.0000   1.0000   1.0000   1.0000   1.0000
     1.0000   1.0000   1.0000   1.0000   1.0000   1.0000   1.0000   1.0000
     1.0000   1.0000   1.0000   1.0000   1.0000   1.0000   1.0000   1.0000
     1.0000   1.0000   1.0000   1.0000   1.0000   1.0000   1.0000   1.0000
     1.0000   1.0000   1.0000   1.0000   1.0000   1.0000   1.0000   1.0000
     1.0000   1.0000   0.0000

          k = 0.0000 0.4619 0.0000 (112236 PWs)   bands (ev):

   -73.8140 -73.8100 -73.8074 -73.8048 -73.8031 -73.8015 -73.7986 -73.7963
   -73.7945 -73.7892 -73.7882 -73.7867 -73.7826 -73.7417 -73.7320 -73.7291
   -38.2010 -38.1968 -38.1852 -38.1781 -38.1731 -38.1586 -38.1550 -38.1390
   -38.1245 -38.1173 -38.0964 -38.0937 -38.0568 -38.0505 -38.0431 -38.0335
   -38.0274 -38.0161 -38.0105 -38.0075 -38.0032 -38.0020 -37.9989 -37.9978
   -37.9950 -37.9919 -37.9915 -37.9879 -37.9843 -37.9827 -37.9767 -37.9736
   -37.9673 -37.9609 -37.9589 -37.9509 -37.9454 -37.9416 -37.9392 -37.9339
   -37.9326 -37.9226 -37.9180 -37.9095 -37.8993 -37.8845 -37.8786 -37.8630
   -21.5111 -15.4418 -14.4317 -14.2303 -13.8686 -13.8511 -13.2596 -13.2278
   -13.0152 -12.9965 -12.9677 -12.9138 -12.8305 -12.7267 -12.7024 -12.6866
   -12.5176 -12.5102 -12.4585 -12.4476 -12.4342 -12.4233 -12.3803 -12.3666
   -12.3484 -12.2823 -12.2133 -12.1996 -12.1752 -12.1571 -12.1553 -12.1510
   -12.0550 -12.0376  -7.9901  -7.5688  -6.1596  -6.1175  -6.1051  -6.0857
    -6.0212  -5.8679  -5.8559  -5.8308  -5.7083  -5.5282  -5.4956  -5.4826
    -5.4555  -5.4427  -5.4337  -5.3878  -5.3704  -5.3209  -5.2976  -5.0641
    -5.0588  -5.0260  -5.0066  -4.8030  -4.6216  -4.5169  -4.4792  -4.4353
    -4.3907  -4.3710  -4.3450  -4.3072  -4.2407  -4.2259  -4.1881  -4.1564
    -4.1256  -4.1145  -4.1000  -4.0735  -4.0634  -4.0486  -4.0385  -3.6782
    -3.5649  -3.5034  -3.4721  -3.4373  -3.4125  -3.3833  -3.3625  -3.3066
    -3.2848  -3.2761  -3.2574  -3.2330  -3.2153  -3.1824  -3.1532  -3.1030
    -3.0586  -3.0456  -3.0017  -2.9501  -2.9320  -2.9050  -2.8422  -2.7569
    -2.7225  -2.6928  -2.6430  -2.6276  -2.5927  -2.5522  -2.5218  -2.4767
    -2.4391  -2.4251  -2.3886  -2.3107  -2.2729  -2.2467  -2.2377  -2.1693
    -2.1027  -2.0809  -2.0337  -2.0088  -2.0020  -1.9904  -1.9699  -1.9347
    -1.9179  -1.8970  -1.8744  -1.8640  -1.8493  -1.8371  -1.8277  -1.8216
    -1.7650  -1.7580  -1.7131  -1.7031  -1.6803  -1.6524  -1.6227  -1.6091
    -1.5810  -1.5472  -1.5160  -1.4862  -1.4184  -1.3806  -1.2965  -1.2787
    -1.2225  -1.1955  -1.1852  -1.1379  -1.1108  -1.0909  -1.0387  -0.9888
    -0.9654  -0.8836  -0.7277  -0.7128  -0.6352  -0.6153  -0.4777  -0.4502
    -0.4384  -0.4269  -0.3932  -0.3698  -0.2980  -0.0819   0.0065   0.0362
     0.1544   1.3159   1.7577

     occupation numbers 
     1.0000   1.0000   1.0000   1.0000   1.0000   1.0000   1.0000   1.0000
     1.0000   1.0000   1.0000   1.0000   1.0000   1.0000   1.0000   1.0000
     1.0000   1.0000   1.0000   1.0000   1.0000   1.0000   1.0000   1.0000
     1.0000   1.0000   1.0000   1.0000   1.0000   1.0000   1.0000   1.0000
     1.0000   1.0000   1.0000   1.0000   1.0000   1.0000   1.0000   1.0000
     1.0000   1.0000   1.0000   1.0000   1.0000   1.0000   1.0000   1.0000
     1.0000   1.0000   1.0000   1.0000   1.0000   1.0000   1.0000   1.0000
     1.0000   1.0000   1.0000   1.0000   1.0000   1.0000   1.0000   1.0000
     1.0000   1.0000   1.0000   1.0000   1.0000   1.0000   1.0000   1.0000
     1.0000   1.0000   1.0000   1.0000   1.0000   1.0000   1.0000   1.0000
     1.0000   1.0000   1.0000   1.0000   1.0000   1.0000   1.0000   1.0000
     1.0000   1.0000   1.0000   1.0000   1.0000   1.0000   1.0000   1.0000
     1.0000   1.0000   1.0000   1.0000   1.0000   1.0000   1.0000   1.0000
     1.0000   1.0000   1.0000   1.0000   1.0000   1.0000   1.0000   1.0000
     1.0000   1.0000   1.0000   1.0000   1.0000   1.0000   1.0000   1.0000
     1.0000   1.0000   1.0000   1.0000   1.0000   1.0000   1.0000   1.0000
     1.0000   1.0000   1.0000   1.0000   1.0000   1.0000   1.0000   1.0000
     1.0000   1.0000   1.0000   1.0000   1.0000   1.0000   1.0000   1.0000
     1.0000   1.0000   1.0000   1.0000   1.0000   1.0000   1.0000   1.0000
     1.0000   1.0000   1.0000   1.0000   1.0000   1.0000   1.0000   1.0000
     1.0000   1.0000   1.0000   1.0000   1.0000   1.0000   1.0000   1.0000
     1.0000   1.0000   1.0000   1.0000   1.0000   1.0000   1.0000   1.0000
     1.0000   1.0000   1.0000   1.0000   1.0000   1.0000   1.0000   1.0000
     1.0000   1.0000   1.0000   1.0000   1.0000   1.0000   1.0000   1.0000
     1.0000   1.0000   1.0000   1.0000   1.0000   1.0000   1.0000   1.0000
     1.0000   1.0000   1.0000   1.0000   1.0000   1.0000   1.0000   1.0000
     1.0000   1.0000   1.0000   1.0000   1.0000   1.0000   1.0000   1.0000
     1.0000   1.0000   1.0000   1.0000   1.0000   1.0000   1.0000   1.0000
     1.0000   1.0000   1.0000   1.0000   1.0000   1.0000   1.0000   1.0000
     1.0000   1.0000   1.0000   1.0000   1.0000   1.0000   1.0000   1.0000
     1.0000   1.0000   0.0000

          k = 0.2000 0.3464 0.0000 (112231 PWs)   bands (ev):

   -73.8140 -73.8101 -73.8071 -73.8049 -73.8028 -73.8015 -73.7989 -73.7964
   -73.7942 -73.7893 -73.7882 -73.7867 -73.7826 -73.7417 -73.7320 -73.7291
   -38.2053 -38.1962 -38.1955 -38.1728 -38.1676 -38.1586 -38.1487 -38.1415
   -38.1268 -38.1162 -38.1055 -38.0704 -38.0535 -38.0480 -38.0436 -38.0322
   -38.0274 -38.0227 -38.0174 -38.0147 -38.0112 -38.0057 -37.9990 -37.9974
   -37.9919 -37.9887 -37.9871 -37.9849 -37.9826 -37.9801 -37.9767 -37.9756
   -37.9701 -37.9661 -37.9577 -37.9523 -37.9496 -37.9468 -37.9380 -37.9336
   -37.9270 -37.9207 -37.9177 -37.9094 -37.8962 -37.8894 -37.8742 -37.8617
   -21.5111 -15.4418 -14.4716 -14.0986 -14.0572 -13.5632 -13.5612 -13.1691
   -13.1168 -13.0055 -12.9317 -12.8054 -12.7865 -12.7066 -12.6701 -12.6010
   -12.5915 -12.5743 -12.5692 -12.4541 -12.4225 -12.3881 -12.3740 -12.3102
   -12.2883 -12.2700 -12.2504 -12.2300 -12.2193 -12.1526 -12.1481 -12.1054
   -12.0943 -12.0341  -7.9901  -7.5688  -6.1743  -6.1659  -6.1353  -6.1182
    -6.1013  -5.7542  -5.7311  -5.7162  -5.6757  -5.6404  -5.5983  -5.5600
    -5.5012  -5.4696  -5.3509  -5.3284  -5.2804  -5.2711  -5.2390  -5.2222
    -5.0918  -4.8997  -4.8853  -4.8101  -4.7490  -4.5930  -4.4836  -4.4580
    -4.3910  -4.3616  -4.3338  -4.2983  -4.2729  -4.2595  -4.2294  -4.2216
    -4.1683  -4.1184  -4.1035  -4.0883  -4.0529  -3.7561  -3.7301  -3.7210
    -3.7133  -3.6880  -3.5958  -3.4901  -3.4219  -3.3904  -3.3449  -3.3147
    -3.2797  -3.2400  -3.2173  -3.1988  -3.1624  -3.1461  -3.0943  -3.0876
    -3.0329  -3.0008  -2.9652  -2.9439  -2.9359  -2.9182  -2.9034  -2.8908
    -2.7929  -2.7160  -2.6891  -2.6406  -2.6044  -2.5352  -2.5016  -2.4705
    -2.4533  -2.4251  -2.3805  -2.3539  -2.3044  -2.2088  -2.1715  -2.1537
    -2.1208  -2.1193  -2.0814  -2.0713  -1.9965  -1.9819  -1.9658  -1.9381
    -1.9167  -1.8929  -1.8691  -1.8450  -1.8296  -1.8156  -1.7879  -1.7461
    -1.7231  -1.7083  -1.7002  -1.6636  -1.6572  -1.6100  -1.5823  -1.5689
    -1.5603  -1.5339  -1.5217  -1.4946  -1.4145  -1.3825  -1.3687  -1.3560
    -1.2797  -1.2162  -1.1993  -1.1755  -1.1479  -1.1027  -1.0208  -0.9906
    -0.8681  -0.8367  -0.6745  -0.6650  -0.6308  -0.6216  -0.6082  -0.5333
    -0.5246  -0.4182  -0.3681  -0.2497  -0.2005  -0.1913  -0.1428   0.0800
     0.1660   1.3296   1.7279

     occupation numbers 
     1.0000   1.0000   1.0000   1.0000   1.0000   1.0000   1.0000   1.0000
     1.0000   1.0000   1.0000   1.0000   1.0000   1.0000   1.0000   1.0000
     1.0000   1.0000   1.0000   1.0000   1.0000   1.0000   1.0000   1.0000
     1.0000   1.0000   1.0000   1.0000   1.0000   1.0000   1.0000   1.0000
     1.0000   1.0000   1.0000   1.0000   1.0000   1.0000   1.0000   1.0000
     1.0000   1.0000   1.0000   1.0000   1.0000   1.0000   1.0000   1.0000
     1.0000   1.0000   1.0000   1.0000   1.0000   1.0000   1.0000   1.0000
     1.0000   1.0000   1.0000   1.0000   1.0000   1.0000   1.0000   1.0000
     1.0000   1.0000   1.0000   1.0000   1.0000   1.0000   1.0000   1.0000
     1.0000   1.0000   1.0000   1.0000   1.0000   1.0000   1.0000   1.0000
     1.0000   1.0000   1.0000   1.0000   1.0000   1.0000   1.0000   1.0000
     1.0000   1.0000   1.0000   1.0000   1.0000   1.0000   1.0000   1.0000
     1.0000   1.0000   1.0000   1.0000   1.0000   1.0000   1.0000   1.0000
     1.0000   1.0000   1.0000   1.0000   1.0000   1.0000   1.0000   1.0000
     1.0000   1.0000   1.0000   1.0000   1.0000   1.0000   1.0000   1.0000
     1.0000   1.0000   1.0000   1.0000   1.0000   1.0000   1.0000   1.0000
     1.0000   1.0000   1.0000   1.0000   1.0000   1.0000   1.0000   1.0000
     1.0000   1.0000   1.0000   1.0000   1.0000   1.0000   1.0000   1.0000
     1.0000   1.0000   1.0000   1.0000   1.0000   1.0000   1.0000   1.0000
     1.0000   1.0000   1.0000   1.0000   1.0000   1.0000   1.0000   1.0000
     1.0000   1.0000   1.0000   1.0000   1.0000   1.0000   1.0000   1.0000
     1.0000   1.0000   1.0000   1.0000   1.0000   1.0000   1.0000   1.0000
     1.0000   1.0000   1.0000   1.0000   1.0000   1.0000   1.0000   1.0000
     1.0000   1.0000   1.0000   1.0000   1.0000   1.0000   1.0000   1.0000
     1.0000   1.0000   1.0000   1.0000   1.0000   1.0000   1.0000   1.0000
     1.0000   1.0000   1.0000   1.0000   1.0000   1.0000   1.0000   1.0000
     1.0000   1.0000   1.0000   1.0000   1.0000   1.0000   1.0000   1.0000
     1.0000   1.0000   1.0000   1.0000   1.0000   1.0000   1.0000   1.0000
     1.0000   1.0000   1.0000   1.0000   1.0000   1.0000   1.0000   1.0000
     1.0000   1.0000   1.0000   1.0000   1.0000   1.0000   1.0000   1.0000
     1.0000   1.0000   0.0000

          k = 0.2000 0.5774 0.0000 (112237 PWs)   bands (ev):

   -73.8140 -73.8101 -73.8074 -73.8048 -73.8029 -73.8015 -73.7987 -73.7963
   -73.7944 -73.7893 -73.7882 -73.7867 -73.7826 -73.7417 -73.7320 -73.7291
   -38.1961 -38.1891 -38.1804 -38.1763 -38.1706 -38.1667 -38.1586 -38.1433
   -38.1393 -38.1232 -38.0859 -38.0846 -38.0767 -38.0452 -38.0414 -38.0349
   -38.0294 -38.0230 -38.0137 -38.0101 -38.0041 -38.0003 -37.9984 -37.9965
   -37.9954 -37.9935 -37.9887 -37.9847 -37.9822 -37.9766 -37.9694 -37.9654
   -37.9603 -37.9560 -37.9537 -37.9508 -37.9497 -37.9421 -37.9384 -37.9349
   -37.9317 -37.9247 -37.9206 -37.9165 -37.9047 -37.8871 -37.8748 -37.8663
   -21.5111 -15.4418 -14.3318 -14.2898 -14.1118 -13.5921 -13.2961 -13.2912
   -12.9478 -12.9445 -12.8855 -12.8502 -12.8379 -12.8000 -12.7905 -12.6552
   -12.6279 -12.6001 -12.4884 -12.4819 -12.3802 -12.3686 -12.3551 -12.3217
   -12.3072 -12.2953 -12.2559 -12.2314 -12.2304 -12.1284 -12.1183 -12.1159
   -12.0771 -12.0146  -7.9901  -7.5688  -6.1549  -6.0439  -5.9984  -5.9817
    -5.9151  -5.8901  -5.8707  -5.8440  -5.8053  -5.7401  -5.6817  -5.6185
    -5.6099  -5.5372  -5.3582  -5.2606  -5.2505  -5.2136  -5.1984  -5.1664
    -5.1502  -4.8510  -4.8272  -4.7437  -4.6272  -4.5712  -4.5415  -4.5143
    -4.4686  -4.4117  -4.3921  -4.3120  -4.3058  -4.2356  -4.2283  -4.2082
    -4.1820  -4.1612  -4.1188  -4.0925  -3.9493  -3.9459  -3.7842  -3.6567
    -3.6332  -3.5591  -3.4271  -3.3832  -3.3502  -3.3178  -3.2973  -3.2795
    -3.2648  -3.2553  -3.2375  -3.2279  -3.2106  -3.1948  -3.1356  -3.1162
    -3.0923  -3.0742  -3.0564  -3.0243  -2.9923  -2.9221  -2.8679  -2.8114
    -2.7288  -2.6972  -2.6787  -2.6558  -2.5993  -2.5374  -2.4927  -2.4412
    -2.3843  -2.3268  -2.3145  -2.3004  -2.2450  -2.1897  -2.1672  -2.1240
    -2.1081  -2.0932  -2.0681  -2.0469  -2.0065  -1.9731  -1.9539  -1.9430
    -1.9248  -1.9052  -1.8858  -1.8694  -1.8609  -1.8482  -1.8379  -1.8282
    -1.8109  -1.7718  -1.7584  -1.7277  -1.6961  -1.6733  -1.6584  -1.6359
    -1.6024  -1.5607  -1.5431  -1.4905  -1.4725  -1.4578  -1.3918  -1.3206
    -1.2662  -1.1851  -1.1512  -1.1340  -1.0857  -1.0727  -0.9978  -0.9726
    -0.8067  -0.7913  -0.6954  -0.6831  -0.6500  -0.6359  -0.5858  -0.5747
    -0.5568  -0.3911  -0.2718  -0.2625  -0.1802  -0.1172  -0.0568   0.1217
     0.1968   1.3378   1.7410

     occupation numbers 
     1.0000   1.0000   1.0000   1.0000   1.0000   1.0000   1.0000   1.0000
     1.0000   1.0000   1.0000   1.0000   1.0000   1.0000   1.0000   1.0000
     1.0000   1.0000   1.0000   1.0000   1.0000   1.0000   1.0000   1.0000
     1.0000   1.0000   1.0000   1.0000   1.0000   1.0000   1.0000   1.0000
     1.0000   1.0000   1.0000   1.0000   1.0000   1.0000   1.0000   1.0000
     1.0000   1.0000   1.0000   1.0000   1.0000   1.0000   1.0000   1.0000
     1.0000   1.0000   1.0000   1.0000   1.0000   1.0000   1.0000   1.0000
     1.0000   1.0000   1.0000   1.0000   1.0000   1.0000   1.0000   1.0000
     1.0000   1.0000   1.0000   1.0000   1.0000   1.0000   1.0000   1.0000
     1.0000   1.0000   1.0000   1.0000   1.0000   1.0000   1.0000   1.0000
     1.0000   1.0000   1.0000   1.0000   1.0000   1.0000   1.0000   1.0000
     1.0000   1.0000   1.0000   1.0000   1.0000   1.0000   1.0000   1.0000
     1.0000   1.0000   1.0000   1.0000   1.0000   1.0000   1.0000   1.0000
     1.0000   1.0000   1.0000   1.0000   1.0000   1.0000   1.0000   1.0000
     1.0000   1.0000   1.0000   1.0000   1.0000   1.0000   1.0000   1.0000
     1.0000   1.0000   1.0000   1.0000   1.0000   1.0000   1.0000   1.0000
     1.0000   1.0000   1.0000   1.0000   1.0000   1.0000   1.0000   1.0000
     1.0000   1.0000   1.0000   1.0000   1.0000   1.0000   1.0000   1.0000
     1.0000   1.0000   1.0000   1.0000   1.0000   1.0000   1.0000   1.0000
     1.0000   1.0000   1.0000   1.0000   1.0000   1.0000   1.0000   1.0000
     1.0000   1.0000   1.0000   1.0000   1.0000   1.0000   1.0000   1.0000
     1.0000   1.0000   1.0000   1.0000   1.0000   1.0000   1.0000   1.0000
     1.0000   1.0000   1.0000   1.0000   1.0000   1.0000   1.0000   1.0000
     1.0000   1.0000   1.0000   1.0000   1.0000   1.0000   1.0000   1.0000
     1.0000   1.0000   1.0000   1.0000   1.0000   1.0000   1.0000   1.0000
     1.0000   1.0000   1.0000   1.0000   1.0000   1.0000   1.0000   1.0000
     1.0000   1.0000   1.0000   1.0000   1.0000   1.0000   1.0000   1.0000
     1.0000   1.0000   1.0000   1.0000   1.0000   1.0000   1.0000   1.0000
     1.0000   1.0000   1.0000   1.0000   1.0000   1.0000   1.0000   1.0000
     1.0000   1.0000   1.0000   1.0000   1.0000   1.0000   1.0000   1.0000
     1.0000   1.0000   0.0000

          k =-0.2000 0.1155 0.0000 (112171 PWs)   bands (ev):

   -73.8142 -73.8099 -73.8069 -73.8050 -73.8026 -73.8020 -73.7987 -73.7964
   -73.7942 -73.7893 -73.7882 -73.7867 -73.7826 -73.7417 -73.7320 -73.7291
   -38.2112 -38.2109 -38.2062 -38.1624 -38.1591 -38.1565 -38.1509 -38.1394
   -38.1323 -38.0962 -38.0723 -38.0701 -38.0468 -38.0430 -38.0378 -38.0287
   -38.0226 -38.0208 -38.0199 -38.0185 -38.0118 -38.0102 -38.0089 -38.0055
   -37.9996 -37.9947 -37.9931 -37.9917 -37.9886 -37.9872 -37.9849 -37.9831
   -37.9796 -37.9766 -37.9557 -37.9527 -37.9501 -37.9460 -37.9360 -37.9280
   -37.9242 -37.9143 -37.9102 -37.9038 -37.8997 -37.8897 -37.8640 -37.8601
   -21.5111 -15.4418 -14.5535 -13.9725 -13.7982 -13.7858 -13.4758 -13.4711
   -13.3225 -12.9640 -12.7876 -12.7533 -12.6890 -12.6792 -12.6552 -12.5840
   -12.5618 -12.5184 -12.4941 -12.4765 -12.4660 -12.4307 -12.4214 -12.3048
   -12.2922 -12.2596 -12.2424 -12.2110 -12.1848 -12.1733 -12.1663 -12.1499
   -12.0934 -12.0793  -7.9901  -7.5688  -6.2790  -6.2586  -6.2382  -6.2251
    -6.1462  -5.6683  -5.6322  -5.6196  -5.5441  -5.5261  -5.4857  -5.4659
    -5.4329  -5.4140  -5.3802  -5.3244  -5.3084  -5.2782  -5.2729  -5.0762
    -5.0596  -5.0118  -4.9973  -4.9479  -4.7363  -4.7327  -4.5629  -4.5041
    -4.4400  -4.3669  -4.3354  -4.2733  -4.2014  -4.1576  -4.1427  -4.1193
    -4.0961  -4.0612  -4.0370  -3.9927  -3.9801  -3.9115  -3.9014  -3.8928
    -3.6489  -3.5808  -3.5286  -3.4963  -3.4712  -3.4550  -3.4406  -3.3706
    -3.3620  -3.3073  -3.2910  -3.2738  -3.2532  -3.2011  -3.1895  -3.1493
    -3.0743  -2.9681  -2.9448  -2.9117  -2.8136  -2.7878  -2.7641  -2.7386
    -2.7154  -2.7030  -2.6903  -2.6807  -2.6621  -2.6345  -2.5802  -2.5384
    -2.4927  -2.4755  -2.4610  -2.4253  -2.3544  -2.3007  -2.1781  -2.1650
    -2.1128  -2.0652  -2.0130  -1.9916  -1.9641  -1.9536  -1.9231  -1.8991
    -1.8737  -1.8543  -1.8307  -1.8108  -1.7921  -1.7630  -1.7367  -1.7210
    -1.7032  -1.6921  -1.6734  -1.6534  -1.6434  -1.5985  -1.5650  -1.5435
    -1.5140  -1.4949  -1.4883  -1.4307  -1.4224  -1.3580  -1.3430  -1.3222
    -1.3052  -1.2717  -1.2439  -1.2131  -1.1442  -1.0713  -1.0348  -0.9901
    -0.8935  -0.7687  -0.7509  -0.7309  -0.5776  -0.5625  -0.5416  -0.5269
    -0.5105  -0.5015  -0.4052  -0.3752  -0.3506  -0.2406  -0.1650  -0.1372
     0.1994   1.3295   1.6812

     occupation numbers 
     1.0000   1.0000   1.0000   1.0000   1.0000   1.0000   1.0000   1.0000
     1.0000   1.0000   1.0000   1.0000   1.0000   1.0000   1.0000   1.0000
     1.0000   1.0000   1.0000   1.0000   1.0000   1.0000   1.0000   1.0000
     1.0000   1.0000   1.0000   1.0000   1.0000   1.0000   1.0000   1.0000
     1.0000   1.0000   1.0000   1.0000   1.0000   1.0000   1.0000   1.0000
     1.0000   1.0000   1.0000   1.0000   1.0000   1.0000   1.0000   1.0000
     1.0000   1.0000   1.0000   1.0000   1.0000   1.0000   1.0000   1.0000
     1.0000   1.0000   1.0000   1.0000   1.0000   1.0000   1.0000   1.0000
     1.0000   1.0000   1.0000   1.0000   1.0000   1.0000   1.0000   1.0000
     1.0000   1.0000   1.0000   1.0000   1.0000   1.0000   1.0000   1.0000
     1.0000   1.0000   1.0000   1.0000   1.0000   1.0000   1.0000   1.0000
     1.0000   1.0000   1.0000   1.0000   1.0000   1.0000   1.0000   1.0000
     1.0000   1.0000   1.0000   1.0000   1.0000   1.0000   1.0000   1.0000
     1.0000   1.0000   1.0000   1.0000   1.0000   1.0000   1.0000   1.0000
     1.0000   1.0000   1.0000   1.0000   1.0000   1.0000   1.0000   1.0000
     1.0000   1.0000   1.0000   1.0000   1.0000   1.0000   1.0000   1.0000
     1.0000   1.0000   1.0000   1.0000   1.0000   1.0000   1.0000   1.0000
     1.0000   1.0000   1.0000   1.0000   1.0000   1.0000   1.0000   1.0000
     1.0000   1.0000   1.0000   1.0000   1.0000   1.0000   1.0000   1.0000
     1.0000   1.0000   1.0000   1.0000   1.0000   1.0000   1.0000   1.0000
     1.0000   1.0000   1.0000   1.0000   1.0000   1.0000   1.0000   1.0000
     1.0000   1.0000   1.0000   1.0000   1.0000   1.0000   1.0000   1.0000
     1.0000   1.0000   1.0000   1.0000   1.0000   1.0000   1.0000   1.0000
     1.0000   1.0000   1.0000   1.0000   1.0000   1.0000   1.0000   1.0000
     1.0000   1.0000   1.0000   1.0000   1.0000   1.0000   1.0000   1.0000
     1.0000   1.0000   1.0000   1.0000   1.0000   1.0000   1.0000   1.0000
     1.0000   1.0000   1.0000   1.0000   1.0000   1.0000   1.0000   1.0000
     1.0000   1.0000   1.0000   1.0000   1.0000   1.0000   1.0000   1.0000
     1.0000   1.0000   1.0000   1.0000   1.0000   1.0000   1.0000   1.0000
     1.0000   1.0000   1.0000   1.0000   1.0000   1.0000   1.0000   1.0000
     1.0000   1.0000   0.0000

          k = 0.2000 0.1155 0.0000 (112171 PWs)   bands (ev):

   -73.8142 -73.8100 -73.8068 -73.8050 -73.8027 -73.8018 -73.7989 -73.7964
   -73.7941 -73.7893 -73.7882 -73.7867 -73.7826 -73.7417 -73.7320 -73.7291
   -38.2118 -38.2096 -38.2068 -38.1637 -38.1586 -38.1557 -38.1501 -38.1395
   -38.1329 -38.0964 -38.0725 -38.0699 -38.0468 -38.0419 -38.0393 -38.0286
   -38.0231 -38.0209 -38.0192 -38.0176 -38.0128 -38.0100 -38.0081 -38.0056
   -38.0000 -37.9946 -37.9937 -37.9903 -37.9883 -37.9874 -37.9861 -37.9830
   -37.9796 -37.9766 -37.9548 -37.9538 -37.9501 -37.9456 -37.9360 -37.9282
   -37.9239 -37.9138 -37.9108 -37.9038 -37.8996 -37.8900 -37.8659 -37.8583
   -21.5111 -15.4418 -14.5535 -13.9726 -13.7975 -13.7863 -13.4747 -13.4729
   -13.3218 -12.9641 -12.7875 -12.7527 -12.6883 -12.6808 -12.6556 -12.5839
   -12.5629 -12.5172 -12.4918 -12.4783 -12.4659 -12.4327 -12.4205 -12.3005
   -12.2921 -12.2624 -12.2454 -12.2065 -12.1904 -12.1709 -12.1688 -12.1470
   -12.0908 -12.0818  -7.9901  -7.5688  -6.2732  -6.2610  -6.2415  -6.2258
    -6.1462  -5.6611  -5.6378  -5.6162  -5.5440  -5.5312  -5.4847  -5.4675
    -5.4373  -5.4191  -5.3672  -5.3238  -5.3113  -5.2786  -5.2716  -5.0735
    -5.0666  -5.0102  -5.0006  -4.9421  -4.7376  -4.7330  -4.5567  -4.5041
    -4.4347  -4.3876  -4.3348  -4.2678  -4.2003  -4.1583  -4.1449  -4.1198
    -4.0956  -4.0521  -4.0365  -3.9994  -3.9791  -3.9088  -3.9051  -3.8951
    -3.6412  -3.5622  -3.5435  -3.5021  -3.4624  -3.4528  -3.4354  -3.3777
    -3.3678  -3.3045  -3.2951  -3.2780  -3.2443  -3.2072  -3.1925  -3.1431
    -3.0826  -2.9816  -2.9348  -2.9005  -2.8105  -2.7899  -2.7686  -2.7404
    -2.7270  -2.7035  -2.6919  -2.6812  -2.6482  -2.6220  -2.5735  -2.5420
    -2.5166  -2.4824  -2.4631  -2.4134  -2.3508  -2.2936  -2.1888  -2.1632
    -2.1070  -2.0659  -2.0108  -1.9832  -1.9585  -1.9464  -1.9148  -1.9008
    -1.8932  -1.8669  -1.8287  -1.8119  -1.7961  -1.7661  -1.7389  -1.7297
    -1.7025  -1.6841  -1.6707  -1.6469  -1.6282  -1.6095  -1.5838  -1.5312
    -1.5254  -1.4966  -1.4480  -1.4379  -1.4186  -1.3934  -1.3452  -1.3055
    -1.3011  -1.2901  -1.2389  -1.1968  -1.1516  -1.0506  -1.0362  -1.0066
    -0.8907  -0.7591  -0.7496  -0.7448  -0.5883  -0.5535  -0.5414  -0.5264
    -0.5132  -0.5057  -0.4009  -0.3766  -0.3456  -0.2415  -0.1611  -0.1409
     0.2000   1.3242   1.6878

     occupation numbers 
     1.0000   1.0000   1.0000   1.0000   1.0000   1.0000   1.0000   1.0000
     1.0000   1.0000   1.0000   1.0000   1.0000   1.0000   1.0000   1.0000
     1.0000   1.0000   1.0000   1.0000   1.0000   1.0000   1.0000   1.0000
     1.0000   1.0000   1.0000   1.0000   1.0000   1.0000   1.0000   1.0000
     1.0000   1.0000   1.0000   1.0000   1.0000   1.0000   1.0000   1.0000
     1.0000   1.0000   1.0000   1.0000   1.0000   1.0000   1.0000   1.0000
     1.0000   1.0000   1.0000   1.0000   1.0000   1.0000   1.0000   1.0000
     1.0000   1.0000   1.0000   1.0000   1.0000   1.0000   1.0000   1.0000
     1.0000   1.0000   1.0000   1.0000   1.0000   1.0000   1.0000   1.0000
     1.0000   1.0000   1.0000   1.0000   1.0000   1.0000   1.0000   1.0000
     1.0000   1.0000   1.0000   1.0000   1.0000   1.0000   1.0000   1.0000
     1.0000   1.0000   1.0000   1.0000   1.0000   1.0000   1.0000   1.0000
     1.0000   1.0000   1.0000   1.0000   1.0000   1.0000   1.0000   1.0000
     1.0000   1.0000   1.0000   1.0000   1.0000   1.0000   1.0000   1.0000
     1.0000   1.0000   1.0000   1.0000   1.0000   1.0000   1.0000   1.0000
     1.0000   1.0000   1.0000   1.0000   1.0000   1.0000   1.0000   1.0000
     1.0000   1.0000   1.0000   1.0000   1.0000   1.0000   1.0000   1.0000
     1.0000   1.0000   1.0000   1.0000   1.0000   1.0000   1.0000   1.0000
     1.0000   1.0000   1.0000   1.0000   1.0000   1.0000   1.0000   1.0000
     1.0000   1.0000   1.0000   1.0000   1.0000   1.0000   1.0000   1.0000
     1.0000   1.0000   1.0000   1.0000   1.0000   1.0000   1.0000   1.0000
     1.0000   1.0000   1.0000   1.0000   1.0000   1.0000   1.0000   1.0000
     1.0000   1.0000   1.0000   1.0000   1.0000   1.0000   1.0000   1.0000
     1.0000   1.0000   1.0000   1.0000   1.0000   1.0000   1.0000   1.0000
     1.0000   1.0000   1.0000   1.0000   1.0000   1.0000   1.0000   1.0000
     1.0000   1.0000   1.0000   1.0000   1.0000   1.0000   1.0000   1.0000
     1.0000   1.0000   1.0000   1.0000   1.0000   1.0000   1.0000   1.0000
     1.0000   1.0000   1.0000   1.0000   1.0000   1.0000   1.0000   1.0000
     1.0000   1.0000   1.0000   1.0000   1.0000   1.0000   1.0000   1.0000
     1.0000   1.0000   1.0000   1.0000   1.0000   1.0000   1.0000   1.0000
     1.0000   1.0000   0.0000

          k =-0.4000 0.2309 0.0000 (112236 PWs)   bands (ev):

   -73.8140 -73.8101 -73.8071 -73.8051 -73.8023 -73.8020 -73.7987 -73.7964
   -73.7942 -73.7894 -73.7882 -73.7867 -73.7826 -73.7417 -73.7320 -73.7291
   -38.2006 -38.1980 -38.1846 -38.1794 -38.1727 -38.1571 -38.1549 -38.1389
   -38.1234 -38.1173 -38.0977 -38.0938 -38.0571 -38.0509 -38.0430 -38.0345
   -38.0242 -38.0202 -38.0076 -38.0072 -38.0054 -38.0034 -37.9995 -37.9965
   -37.9941 -37.9914 -37.9905 -37.9888 -37.9853 -37.9817 -37.9766 -37.9744
   -37.9676 -37.9603 -37.9576 -37.9514 -37.9450 -37.9422 -37.9397 -37.9365
   -37.9289 -37.9232 -37.9172 -37.9094 -37.9001 -37.8852 -37.8777 -37.8634
   -21.5111 -15.4418 -14.4320 -14.2296 -13.8655 -13.8553 -13.2455 -13.2403
   -13.0200 -12.9938 -12.9721 -12.9079 -12.8302 -12.7289 -12.7012 -12.6828
   -12.5305 -12.5044 -12.4585 -12.4504 -12.4283 -12.4228 -12.3839 -12.3610
   -12.3504 -12.2804 -12.2190 -12.1970 -12.1743 -12.1593 -12.1533 -12.1504
   -12.0545 -12.0385  -7.9901  -7.5688  -6.1591  -6.1239  -6.1019  -6.0843
    -6.0182  -5.8712  -5.8521  -5.8328  -5.7068  -5.5253  -5.5065  -5.4810
    -5.4499  -5.4422  -5.4343  -5.3855  -5.3762  -5.3131  -5.3055  -5.0756
    -5.0537  -5.0203  -5.0035  -4.7982  -4.5995  -4.5447  -4.4721  -4.4363
    -4.4085  -4.3685  -4.3486  -4.3048  -4.2410  -4.2176  -4.1922  -4.1570
    -4.1185  -4.1099  -4.0980  -4.0721  -4.0650  -4.0487  -4.0379  -3.6717
    -3.5624  -3.5150  -3.4694  -3.4504  -3.4203  -3.3908  -3.3525  -3.3132
    -3.2839  -3.2752  -3.2556  -3.2382  -3.2100  -3.1920  -3.1415  -3.1120
    -3.0631  -3.0324  -3.0063  -2.9451  -2.9260  -2.8943  -2.8196  -2.7593
    -2.7140  -2.6965  -2.6453  -2.6225  -2.5888  -2.5743  -2.5432  -2.4756
    -2.4234  -2.4177  -2.3879  -2.3260  -2.2748  -2.2468  -2.2384  -2.1610
    -2.1141  -2.0932  -2.0479  -2.0252  -2.0059  -1.9871  -1.9507  -1.9167
    -1.9033  -1.8902  -1.8800  -1.8622  -1.8537  -1.8457  -1.8343  -1.8157
    -1.7787  -1.7483  -1.7085  -1.6841  -1.6809  -1.6552  -1.6409  -1.6068
    -1.5803  -1.5484  -1.4922  -1.4629  -1.4417  -1.3478  -1.3194  -1.2904
    -1.2586  -1.2071  -1.1683  -1.1227  -1.1119  -1.0919  -1.0659  -0.9798
    -0.9524  -0.8696  -0.7280  -0.7117  -0.6337  -0.6164  -0.4958  -0.4484
    -0.4409  -0.4190  -0.3982  -0.3679  -0.2854  -0.0919   0.0076   0.0388
     0.1498   1.3758   1.6887

     occupation numbers 
     1.0000   1.0000   1.0000   1.0000   1.0000   1.0000   1.0000   1.0000
     1.0000   1.0000   1.0000   1.0000   1.0000   1.0000   1.0000   1.0000
     1.0000   1.0000   1.0000   1.0000   1.0000   1.0000   1.0000   1.0000
     1.0000   1.0000   1.0000   1.0000   1.0000   1.0000   1.0000   1.0000
     1.0000   1.0000   1.0000   1.0000   1.0000   1.0000   1.0000   1.0000
     1.0000   1.0000   1.0000   1.0000   1.0000   1.0000   1.0000   1.0000
     1.0000   1.0000   1.0000   1.0000   1.0000   1.0000   1.0000   1.0000
     1.0000   1.0000   1.0000   1.0000   1.0000   1.0000   1.0000   1.0000
     1.0000   1.0000   1.0000   1.0000   1.0000   1.0000   1.0000   1.0000
     1.0000   1.0000   1.0000   1.0000   1.0000   1.0000   1.0000   1.0000
     1.0000   1.0000   1.0000   1.0000   1.0000   1.0000   1.0000   1.0000
     1.0000   1.0000   1.0000   1.0000   1.0000   1.0000   1.0000   1.0000
     1.0000   1.0000   1.0000   1.0000   1.0000   1.0000   1.0000   1.0000
     1.0000   1.0000   1.0000   1.0000   1.0000   1.0000   1.0000   1.0000
     1.0000   1.0000   1.0000   1.0000   1.0000   1.0000   1.0000   1.0000
     1.0000   1.0000   1.0000   1.0000   1.0000   1.0000   1.0000   1.0000
     1.0000   1.0000   1.0000   1.0000   1.0000   1.0000   1.0000   1.0000
     1.0000   1.0000   1.0000   1.0000   1.0000   1.0000   1.0000   1.0000
     1.0000   1.0000   1.0000   1.0000   1.0000   1.0000   1.0000   1.0000
     1.0000   1.0000   1.0000   1.0000   1.0000   1.0000   1.0000   1.0000
     1.0000   1.0000   1.0000   1.0000   1.0000   1.0000   1.0000   1.0000
     1.0000   1.0000   1.0000   1.0000   1.0000   1.0000   1.0000   1.0000
     1.0000   1.0000   1.0000   1.0000   1.0000   1.0000   1.0000   1.0000
     1.0000   1.0000   1.0000   1.0000   1.0000   1.0000   1.0000   1.0000
     1.0000   1.0000   1.0000   1.0000   1.0000   1.0000   1.0000   1.0000
     1.0000   1.0000   1.0000   1.0000   1.0000   1.0000   1.0000   1.0000
     1.0000   1.0000   1.0000   1.0000   1.0000   1.0000   1.0000   1.0000
     1.0000   1.0000   1.0000   1.0000   1.0000   1.0000   1.0000   1.0000
     1.0000   1.0000   1.0000   1.0000   1.0000   1.0000   1.0000   1.0000
     1.0000   1.0000   1.0000   1.0000   1.0000   1.0000   1.0000   1.0000
     1.0000   1.0000   0.0000

          k = 0.4000 0.2309 0.0000 (112236 PWs)   bands (ev):

   -73.8140 -73.8103 -73.8070 -73.8051 -73.8025 -73.8015 -73.7991 -73.7965
   -73.7940 -73.7894 -73.7881 -73.7868 -73.7826 -73.7417 -73.7320 -73.7291
   -38.1993 -38.1988 -38.1851 -38.1808 -38.1711 -38.1564 -38.1552 -38.1396
   -38.1228 -38.1172 -38.0987 -38.0940 -38.0556 -38.0522 -38.0429 -38.0347
   -38.0246 -38.0185 -38.0080 -38.0071 -38.0060 -38.0036 -37.9996 -37.9970
   -37.9923 -37.9918 -37.9900 -37.9878 -37.9863 -37.9820 -37.9766 -37.9741
   -37.9692 -37.9597 -37.9578 -37.9510 -37.9440 -37.9424 -37.9400 -37.9355
   -37.9277 -37.9241 -37.9181 -37.9104 -37.8981 -37.8862 -37.8811 -37.8608
   -21.5111 -15.4418 -14.4319 -14.2298 -13.8650 -13.8557 -13.2451 -13.2415
   -13.0169 -12.9934 -12.9742 -12.9071 -12.8308 -12.7267 -12.7031 -12.6837
   -12.5381 -12.4966 -12.4626 -12.4477 -12.4273 -12.4228 -12.3845 -12.3596
   -12.3481 -12.2802 -12.2260 -12.1950 -12.1760 -12.1583 -12.1535 -12.1478
   -12.0517 -12.0410  -7.9901  -7.5688  -6.1588  -6.1149  -6.1054  -6.0829
    -6.0309  -5.8640  -5.8522  -5.8297  -5.7113  -5.5270  -5.5056  -5.4838
    -5.4452  -5.4440  -5.4361  -5.3851  -5.3780  -5.3107  -5.3043  -5.0684
    -5.0650  -5.0186  -5.0078  -4.7713  -4.6089  -4.5534  -4.4785  -4.4463
    -4.4147  -4.3677  -4.3448  -4.3011  -4.2353  -4.2219  -4.1878  -4.1542
    -4.1220  -4.1122  -4.0989  -4.0735  -4.0604  -4.0465  -4.0391  -3.6584
    -3.5567  -3.5160  -3.4583  -3.4445  -3.4241  -3.3945  -3.3547  -3.3213
    -3.2870  -3.2708  -3.2497  -3.2321  -3.2148  -3.1990  -3.1312  -3.1129
    -3.0721  -3.0526  -3.0129  -2.9459  -2.9241  -2.8985  -2.8280  -2.7597
    -2.7116  -2.6789  -2.6347  -2.6120  -2.6085  -2.5926  -2.5019  -2.4856
    -2.4491  -2.4248  -2.3663  -2.3255  -2.2688  -2.2534  -2.2382  -2.1417
    -2.1111  -2.0993  -2.0330  -2.0053  -1.9965  -1.9778  -1.9682  -1.9524
    -1.9259  -1.8954  -1.8810  -1.8603  -1.8474  -1.8419  -1.8336  -1.8113
    -1.7949  -1.7427  -1.7161  -1.6964  -1.6845  -1.6336  -1.6212  -1.6147
    -1.5913  -1.5443  -1.5017  -1.4889  -1.4071  -1.3555  -1.3030  -1.2840
    -1.2466  -1.2276  -1.1857  -1.1304  -1.1135  -1.0549  -1.0393  -0.9891
    -0.9658  -0.8772  -0.7242  -0.7181  -0.6332  -0.6228  -0.5036  -0.4519
    -0.4430  -0.4164  -0.4006  -0.3565  -0.2799  -0.0927   0.0096   0.0349
     0.1523   1.3597   1.7091

     occupation numbers 
     1.0000   1.0000   1.0000   1.0000   1.0000   1.0000   1.0000   1.0000
     1.0000   1.0000   1.0000   1.0000   1.0000   1.0000   1.0000   1.0000
     1.0000   1.0000   1.0000   1.0000   1.0000   1.0000   1.0000   1.0000
     1.0000   1.0000   1.0000   1.0000   1.0000   1.0000   1.0000   1.0000
     1.0000   1.0000   1.0000   1.0000   1.0000   1.0000   1.0000   1.0000
     1.0000   1.0000   1.0000   1.0000   1.0000   1.0000   1.0000   1.0000
     1.0000   1.0000   1.0000   1.0000   1.0000   1.0000   1.0000   1.0000
     1.0000   1.0000   1.0000   1.0000   1.0000   1.0000   1.0000   1.0000
     1.0000   1.0000   1.0000   1.0000   1.0000   1.0000   1.0000   1.0000
     1.0000   1.0000   1.0000   1.0000   1.0000   1.0000   1.0000   1.0000
     1.0000   1.0000   1.0000   1.0000   1.0000   1.0000   1.0000   1.0000
     1.0000   1.0000   1.0000   1.0000   1.0000   1.0000   1.0000   1.0000
     1.0000   1.0000   1.0000   1.0000   1.0000   1.0000   1.0000   1.0000
     1.0000   1.0000   1.0000   1.0000   1.0000   1.0000   1.0000   1.0000
     1.0000   1.0000   1.0000   1.0000   1.0000   1.0000   1.0000   1.0000
     1.0000   1.0000   1.0000   1.0000   1.0000   1.0000   1.0000   1.0000
     1.0000   1.0000   1.0000   1.0000   1.0000   1.0000   1.0000   1.0000
     1.0000   1.0000   1.0000   1.0000   1.0000   1.0000   1.0000   1.0000
     1.0000   1.0000   1.0000   1.0000   1.0000   1.0000   1.0000   1.0000
     1.0000   1.0000   1.0000   1.0000   1.0000   1.0000   1.0000   1.0000
     1.0000   1.0000   1.0000   1.0000   1.0000   1.0000   1.0000   1.0000
     1.0000   1.0000   1.0000   1.0000   1.0000   1.0000   1.0000   1.0000
     1.0000   1.0000   1.0000   1.0000   1.0000   1.0000   1.0000   1.0000
     1.0000   1.0000   1.0000   1.0000   1.0000   1.0000   1.0000   1.0000
     1.0000   1.0000   1.0000   1.0000   1.0000   1.0000   1.0000   1.0000
     1.0000   1.0000   1.0000   1.0000   1.0000   1.0000   1.0000   1.0000
     1.0000   1.0000   1.0000   1.0000   1.0000   1.0000   1.0000   1.0000
     1.0000   1.0000   1.0000   1.0000   1.0000   1.0000   1.0000   1.0000
     1.0000   1.0000   1.0000   1.0000   1.0000   1.0000   1.0000   1.0000
     1.0000   1.0000   1.0000   1.0000   1.0000   1.0000   1.0000   1.0000
     1.0000   1.0000   0.0000

          k =-0.2000 0.3464 0.0000 (112231 PWs)   bands (ev):

   -73.8141 -73.8100 -73.8072 -73.8049 -73.8028 -73.8017 -73.7986 -73.7963
   -73.7944 -73.7892 -73.7882 -73.7867 -73.7826 -73.7417 -73.7320 -73.7291
   -38.2056 -38.1970 -38.1945 -38.1724 -38.1673 -38.1592 -38.1488 -38.1421
   -38.1263 -38.1181 -38.1027 -38.0699 -38.0548 -38.0484 -38.0438 -38.0318
   -38.0275 -38.0224 -38.0170 -38.0159 -38.0108 -38.0048 -37.9991 -37.9967
   -37.9934 -37.9889 -37.9871 -37.9846 -37.9829 -37.9787 -37.9767 -37.9755
   -37.9696 -37.9677 -37.9575 -37.9522 -37.9493 -37.9470 -37.9375 -37.9343
   -37.9270 -37.9204 -37.9173 -37.9117 -37.8948 -37.8883 -37.8728 -37.8636
   -21.5111 -15.4418 -14.4716 -14.0980 -14.0578 -13.5703 -13.5535 -13.1700
   -13.1171 -13.0056 -12.9315 -12.8044 -12.7876 -12.7024 -12.6707 -12.6154
   -12.5817 -12.5746 -12.5665 -12.4516 -12.4237 -12.3903 -12.3765 -12.3075
   -12.2898 -12.2713 -12.2490 -12.2247 -12.2214 -12.1544 -12.1477 -12.1063
   -12.0942 -12.0338  -7.9901  -7.5688  -6.1844  -6.1633  -6.1300  -6.1168
    -6.0984  -5.7577  -5.7303  -5.7126  -5.6939  -5.6230  -5.5987  -5.5570
    -5.5034  -5.4724  -5.3516  -5.3259  -5.2953  -5.2619  -5.2375  -5.2153
    -5.0936  -4.9088  -4.8899  -4.7913  -4.7535  -4.5977  -4.5044  -4.4385
    -4.3908  -4.3400  -4.3301  -4.3043  -4.2776  -4.2557  -4.2406  -4.2218
    -4.1600  -4.1256  -4.1072  -4.0903  -4.0509  -3.7649  -3.7343  -3.7234
    -3.7039  -3.6864  -3.5968  -3.4997  -3.4142  -3.3759  -3.3647  -3.3003
    -3.2792  -3.2361  -3.2234  -3.1973  -3.1596  -3.1438  -3.1110  -3.0791
    -3.0523  -3.0014  -2.9560  -2.9385  -2.9235  -2.9188  -2.9082  -2.8942
    -2.7751  -2.7155  -2.6862  -2.6648  -2.5970  -2.5417  -2.5116  -2.4676
    -2.4514  -2.3996  -2.3800  -2.3551  -2.3122  -2.2076  -2.1896  -2.1455
    -2.1239  -2.1166  -2.0980  -2.0660  -2.0222  -1.9771  -1.9649  -1.9281
    -1.9023  -1.8900  -1.8587  -1.8424  -1.8161  -1.8095  -1.7867  -1.7677
    -1.7336  -1.7042  -1.6882  -1.6675  -1.6408  -1.6246  -1.5791  -1.5768
    -1.5546  -1.5433  -1.5183  -1.4931  -1.4255  -1.3888  -1.3778  -1.3380
    -1.2744  -1.2384  -1.1873  -1.1678  -1.1499  -1.1054  -1.0363  -0.9771
    -0.8707  -0.8268  -0.6816  -0.6649  -0.6286  -0.6185  -0.6031  -0.5336
    -0.5295  -0.4079  -0.3780  -0.2518  -0.1989  -0.1904  -0.1445   0.0806
     0.1645   1.3375   1.7177

     occupation numbers 
     1.0000   1.0000   1.0000   1.0000   1.0000   1.0000   1.0000   1.0000
     1.0000   1.0000   1.0000   1.0000   1.0000   1.0000   1.0000   1.0000
     1.0000   1.0000   1.0000   1.0000   1.0000   1.0000   1.0000   1.0000
     1.0000   1.0000   1.0000   1.0000   1.0000   1.0000   1.0000   1.0000
     1.0000   1.0000   1.0000   1.0000   1.0000   1.0000   1.0000   1.0000
     1.0000   1.0000   1.0000   1.0000   1.0000   1.0000   1.0000   1.0000
     1.0000   1.0000   1.0000   1.0000   1.0000   1.0000   1.0000   1.0000
     1.0000   1.0000   1.0000   1.0000   1.0000   1.0000   1.0000   1.0000
     1.0000   1.0000   1.0000   1.0000   1.0000   1.0000   1.0000   1.0000
     1.0000   1.0000   1.0000   1.0000   1.0000   1.0000   1.0000   1.0000
     1.0000   1.0000   1.0000   1.0000   1.0000   1.0000   1.0000   1.0000
     1.0000   1.0000   1.0000   1.0000   1.0000   1.0000   1.0000   1.0000
     1.0000   1.0000   1.0000   1.0000   1.0000   1.0000   1.0000   1.0000
     1.0000   1.0000   1.0000   1.0000   1.0000   1.0000   1.0000   1.0000
     1.0000   1.0000   1.0000   1.0000   1.0000   1.0000   1.0000   1.0000
     1.0000   1.0000   1.0000   1.0000   1.0000   1.0000   1.0000   1.0000
     1.0000   1.0000   1.0000   1.0000   1.0000   1.0000   1.0000   1.0000
     1.0000   1.0000   1.0000   1.0000   1.0000   1.0000   1.0000   1.0000
     1.0000   1.0000   1.0000   1.0000   1.0000   1.0000   1.0000   1.0000
     1.0000   1.0000   1.0000   1.0000   1.0000   1.0000   1.0000   1.0000
     1.0000   1.0000   1.0000   1.0000   1.0000   1.0000   1.0000   1.0000
     1.0000   1.0000   1.0000   1.0000   1.0000   1.0000   1.0000   1.0000
     1.0000   1.0000   1.0000   1.0000   1.0000   1.0000   1.0000   1.0000
     1.0000   1.0000   1.0000   1.0000   1.0000   1.0000   1.0000   1.0000
     1.0000   1.0000   1.0000   1.0000   1.0000   1.0000   1.0000   1.0000
     1.0000   1.0000   1.0000   1.0000   1.0000   1.0000   1.0000   1.0000
     1.0000   1.0000   1.0000   1.0000   1.0000   1.0000   1.0000   1.0000
     1.0000   1.0000   1.0000   1.0000   1.0000   1.0000   1.0000   1.0000
     1.0000   1.0000   1.0000   1.0000   1.0000   1.0000   1.0000   1.0000
     1.0000   1.0000   1.0000   1.0000   1.0000   1.0000   1.0000   1.0000
     1.0000   1.0000   0.0000

          k = 0.4000-0.0000 0.0000 (112231 PWs)   bands (ev):

   -73.8140 -73.8102 -73.8070 -73.8051 -73.8024 -73.8019 -73.7989 -73.7964
   -73.7941 -73.7894 -73.7882 -73.7867 -73.7826 -73.7417 -73.7320 -73.7291
   -38.2057 -38.1966 -38.1949 -38.1722 -38.1684 -38.1590 -38.1486 -38.1411
   -38.1250 -38.1166 -38.1061 -38.0708 -38.0537 -38.0481 -38.0437 -38.0327
   -38.0262 -38.0229 -38.0179 -38.0159 -38.0108 -38.0058 -37.9994 -37.9951
   -37.9928 -37.9892 -37.9868 -37.9853 -37.9823 -37.9797 -37.9766 -37.9757
   -37.9691 -37.9659 -37.9582 -37.9527 -37.9502 -37.9460 -37.9375 -37.9357
   -37.9252 -37.9204 -37.9173 -37.9102 -37.8962 -37.8897 -37.8738 -37.8620
   -21.5111 -15.4418 -14.4717 -14.0958 -14.0601 -13.5638 -13.5607 -13.1662
   -13.1194 -13.0093 -12.9260 -12.8015 -12.7904 -12.7065 -12.6784 -12.5999
   -12.5961 -12.5720 -12.5575 -12.4539 -12.4201 -12.4087 -12.3620 -12.3057
   -12.2902 -12.2681 -12.2511 -12.2333 -12.2184 -12.1551 -12.1449 -12.1047
   -12.0951 -12.0342  -7.9901  -7.5688  -6.1750  -6.1682  -6.1342  -6.1127
    -6.1043  -5.7503  -5.7354  -5.7167  -5.6816  -5.6304  -5.6042  -5.5558
    -5.5012  -5.4698  -5.3479  -5.3312  -5.2865  -5.2678  -5.2397  -5.2243
    -5.0929  -4.8961  -4.8832  -4.8048  -4.7528  -4.5610  -4.5282  -4.4534
    -4.4033  -4.3420  -4.3340  -4.3074  -4.2724  -4.2604  -4.2381  -4.2052
    -4.1712  -4.1142  -4.1059  -4.0866  -4.0505  -3.7552  -3.7289  -3.7223
    -3.7023  -3.6930  -3.6077  -3.4783  -3.4234  -3.3916  -3.3652  -3.3112
    -3.2756  -3.2398  -3.2274  -3.1970  -3.1689  -3.1388  -3.1188  -3.0751
    -3.0322  -2.9852  -2.9622  -2.9436  -2.9352  -2.9122  -2.8974  -2.8886
    -2.7629  -2.7319  -2.6887  -2.6384  -2.6098  -2.5626  -2.5247  -2.4613
    -2.4540  -2.4097  -2.3786  -2.3351  -2.3113  -2.2142  -2.1737  -2.1451
    -2.1218  -2.1174  -2.0956  -2.0835  -1.9946  -1.9778  -1.9643  -1.9315
    -1.9160  -1.8906  -1.8680  -1.8547  -1.8381  -1.8131  -1.7777  -1.7562
    -1.7302  -1.7016  -1.6814  -1.6651  -1.6442  -1.6171  -1.5865  -1.5669
    -1.5476  -1.5385  -1.5187  -1.4909  -1.4403  -1.4024  -1.3580  -1.3297
    -1.2768  -1.2525  -1.1933  -1.1712  -1.1440  -1.0952  -1.0369  -0.9762
    -0.8605  -0.8411  -0.6760  -0.6674  -0.6286  -0.6150  -0.6070  -0.5329
    -0.5283  -0.4261  -0.3713  -0.2445  -0.1997  -0.1857  -0.1475   0.0782
     0.1641   1.3678   1.6850

     occupation numbers 
     1.0000   1.0000   1.0000   1.0000   1.0000   1.0000   1.0000   1.0000
     1.0000   1.0000   1.0000   1.0000   1.0000   1.0000   1.0000   1.0000
     1.0000   1.0000   1.0000   1.0000   1.0000   1.0000   1.0000   1.0000
     1.0000   1.0000   1.0000   1.0000   1.0000   1.0000   1.0000   1.0000
     1.0000   1.0000   1.0000   1.0000   1.0000   1.0000   1.0000   1.0000
     1.0000   1.0000   1.0000   1.0000   1.0000   1.0000   1.0000   1.0000
     1.0000   1.0000   1.0000   1.0000   1.0000   1.0000   1.0000   1.0000
     1.0000   1.0000   1.0000   1.0000   1.0000   1.0000   1.0000   1.0000
     1.0000   1.0000   1.0000   1.0000   1.0000   1.0000   1.0000   1.0000
     1.0000   1.0000   1.0000   1.0000   1.0000   1.0000   1.0000   1.0000
     1.0000   1.0000   1.0000   1.0000   1.0000   1.0000   1.0000   1.0000
     1.0000   1.0000   1.0000   1.0000   1.0000   1.0000   1.0000   1.0000
     1.0000   1.0000   1.0000   1.0000   1.0000   1.0000   1.0000   1.0000
     1.0000   1.0000   1.0000   1.0000   1.0000   1.0000   1.0000   1.0000
     1.0000   1.0000   1.0000   1.0000   1.0000   1.0000   1.0000   1.0000
     1.0000   1.0000   1.0000   1.0000   1.0000   1.0000   1.0000   1.0000
     1.0000   1.0000   1.0000   1.0000   1.0000   1.0000   1.0000   1.0000
     1.0000   1.0000   1.0000   1.0000   1.0000   1.0000   1.0000   1.0000
     1.0000   1.0000   1.0000   1.0000   1.0000   1.0000   1.0000   1.0000
     1.0000   1.0000   1.0000   1.0000   1.0000   1.0000   1.0000   1.0000
     1.0000   1.0000   1.0000   1.0000   1.0000   1.0000   1.0000   1.0000
     1.0000   1.0000   1.0000   1.0000   1.0000   1.0000   1.0000   1.0000
     1.0000   1.0000   1.0000   1.0000   1.0000   1.0000   1.0000   1.0000
     1.0000   1.0000   1.0000   1.0000   1.0000   1.0000   1.0000   1.0000
     1.0000   1.0000   1.0000   1.0000   1.0000   1.0000   1.0000   1.0000
     1.0000   1.0000   1.0000   1.0000   1.0000   1.0000   1.0000   1.0000
     1.0000   1.0000   1.0000   1.0000   1.0000   1.0000   1.0000   1.0000
     1.0000   1.0000   1.0000   1.0000   1.0000   1.0000   1.0000   1.0000
     1.0000   1.0000   1.0000   1.0000   1.0000   1.0000   1.0000   1.0000
     1.0000   1.0000   1.0000   1.0000   1.0000   1.0000   1.0000   1.0000
     1.0000   1.0000   0.0000

          k =-0.4000 0.4619 0.0000 (112237 PWs)   bands (ev):

   -73.8139 -73.8102 -73.8072 -73.8050 -73.8025 -73.8018 -73.7987 -73.7964
   -73.7942 -73.7894 -73.7882 -73.7867 -73.7826 -73.7417 -73.7320 -73.7291
   -38.1960 -38.1899 -38.1801 -38.1776 -38.1699 -38.1660 -38.1580 -38.1431
   -38.1393 -38.1231 -38.0868 -38.0836 -38.0777 -38.0447 -38.0412 -38.0355
   -38.0283 -38.0245 -38.0159 -38.0077 -38.0051 -38.0003 -37.9982 -37.9961
   -37.9942 -37.9931 -37.9897 -37.9852 -37.9819 -37.9765 -37.9693 -37.9660
   -37.9604 -37.9556 -37.9528 -37.9511 -37.9495 -37.9428 -37.9382 -37.9364
   -37.9307 -37.9241 -37.9197 -37.9163 -37.9056 -37.8871 -37.8745 -37.8666
   -21.5111 -15.4418 -14.3335 -14.2874 -14.1124 -13.5928 -13.2941 -13.2913
   -12.9554 -12.9450 -12.8824 -12.8538 -12.8246 -12.7991 -12.7938 -12.6609
   -12.6318 -12.5932 -12.4906 -12.4808 -12.3842 -12.3719 -12.3442 -12.3227
   -12.3080 -12.2960 -12.2582 -12.2327 -12.2275 -12.1311 -12.1182 -12.1125
   -12.0780 -12.0147  -7.9901  -7.5688  -6.1547  -6.0449  -6.0119  -5.9652
    -5.9100  -5.8860  -5.8726  -5.8542  -5.8052  -5.7407  -5.6818  -5.6210
    -5.6056  -5.5376  -5.3538  -5.2782  -5.2427  -5.2122  -5.1965  -5.1640
    -5.1528  -4.8485  -4.8279  -4.7374  -4.6161  -4.5803  -4.5384  -4.5175
    -4.4845  -4.4192  -4.3773  -4.3193  -4.3021  -4.2377  -4.2230  -4.2034
    -4.1888  -4.1592  -4.1174  -4.0907  -3.9516  -3.9436  -3.7842  -3.6615
    -3.6087  -3.5827  -3.4216  -3.3853  -3.3501  -3.3174  -3.2980  -3.2745
    -3.2690  -3.2608  -3.2371  -3.2257  -3.2155  -3.2074  -3.1396  -3.1160
    -3.0905  -3.0736  -3.0535  -3.0351  -2.9809  -2.9183  -2.8369  -2.7958
    -2.7292  -2.7013  -2.6846  -2.6611  -2.6042  -2.5758  -2.4841  -2.4036
    -2.3881  -2.3198  -2.3157  -2.3091  -2.2587  -2.1796  -2.1653  -2.1485
    -2.1280  -2.0828  -2.0681  -2.0395  -2.0173  -1.9639  -1.9505  -1.9346
    -1.9219  -1.9083  -1.8849  -1.8708  -1.8575  -1.8467  -1.8397  -1.8324
    -1.8055  -1.7834  -1.7504  -1.7181  -1.6917  -1.6789  -1.6547  -1.6386
    -1.6125  -1.5712  -1.5184  -1.4936  -1.4737  -1.4517  -1.4022  -1.3006
    -1.2659  -1.2256  -1.1581  -1.1087  -1.0858  -1.0640  -1.0325  -0.9493
    -0.8083  -0.7803  -0.6943  -0.6836  -0.6497  -0.6366  -0.5934  -0.5741
    -0.5575  -0.3913  -0.2717  -0.2669  -0.1685  -0.1124  -0.0697   0.1224
     0.1951   1.3756   1.6994

     occupation numbers 
     1.0000   1.0000   1.0000   1.0000   1.0000   1.0000   1.0000   1.0000
     1.0000   1.0000   1.0000   1.0000   1.0000   1.0000   1.0000   1.0000
     1.0000   1.0000   1.0000   1.0000   1.0000   1.0000   1.0000   1.0000
     1.0000   1.0000   1.0000   1.0000   1.0000   1.0000   1.0000   1.0000
     1.0000   1.0000   1.0000   1.0000   1.0000   1.0000   1.0000   1.0000
     1.0000   1.0000   1.0000   1.0000   1.0000   1.0000   1.0000   1.0000
     1.0000   1.0000   1.0000   1.0000   1.0000   1.0000   1.0000   1.0000
     1.0000   1.0000   1.0000   1.0000   1.0000   1.0000   1.0000   1.0000
     1.0000   1.0000   1.0000   1.0000   1.0000   1.0000   1.0000   1.0000
     1.0000   1.0000   1.0000   1.0000   1.0000   1.0000   1.0000   1.0000
     1.0000   1.0000   1.0000   1.0000   1.0000   1.0000   1.0000   1.0000
     1.0000   1.0000   1.0000   1.0000   1.0000   1.0000   1.0000   1.0000
     1.0000   1.0000   1.0000   1.0000   1.0000   1.0000   1.0000   1.0000
     1.0000   1.0000   1.0000   1.0000   1.0000   1.0000   1.0000   1.0000
     1.0000   1.0000   1.0000   1.0000   1.0000   1.0000   1.0000   1.0000
     1.0000   1.0000   1.0000   1.0000   1.0000   1.0000   1.0000   1.0000
     1.0000   1.0000   1.0000   1.0000   1.0000   1.0000   1.0000   1.0000
     1.0000   1.0000   1.0000   1.0000   1.0000   1.0000   1.0000   1.0000
     1.0000   1.0000   1.0000   1.0000   1.0000   1.0000   1.0000   1.0000
     1.0000   1.0000   1.0000   1.0000   1.0000   1.0000   1.0000   1.0000
     1.0000   1.0000   1.0000   1.0000   1.0000   1.0000   1.0000   1.0000
     1.0000   1.0000   1.0000   1.0000   1.0000   1.0000   1.0000   1.0000
     1.0000   1.0000   1.0000   1.0000   1.0000   1.0000   1.0000   1.0000
     1.0000   1.0000   1.0000   1.0000   1.0000   1.0000   1.0000   1.0000
     1.0000   1.0000   1.0000   1.0000   1.0000   1.0000   1.0000   1.0000
     1.0000   1.0000   1.0000   1.0000   1.0000   1.0000   1.0000   1.0000
     1.0000   1.0000   1.0000   1.0000   1.0000   1.0000   1.0000   1.0000
     1.0000   1.0000   1.0000   1.0000   1.0000   1.0000   1.0000   1.0000
     1.0000   1.0000   1.0000   1.0000   1.0000   1.0000   1.0000   1.0000
     1.0000   1.0000   1.0000   1.0000   1.0000   1.0000   1.0000   1.0000
     1.0000   1.0000   0.0000

          k = 0.6000 0.1155 0.0000 (112237 PWs)   bands (ev):

   -73.8139 -73.8103 -73.8071 -73.8050 -73.8025 -73.8015 -73.7990 -73.7964
   -73.7940 -73.7894 -73.7881 -73.7867 -73.7826 -73.7417 -73.7320 -73.7291
   -38.1951 -38.1907 -38.1809 -38.1777 -38.1694 -38.1656 -38.1578 -38.1431
   -38.1398 -38.1228 -38.0867 -38.0841 -38.0782 -38.0434 -38.0413 -38.0357
   -38.0282 -38.0249 -38.0149 -38.0082 -38.0056 -38.0000 -37.9986 -37.9968
   -37.9943 -37.9918 -37.9896 -37.9856 -37.9819 -37.9765 -37.9694 -37.9654
   -37.9617 -37.9554 -37.9527 -37.9514 -37.9488 -37.9433 -37.9378 -37.9352
   -37.9297 -37.9245 -37.9196 -37.9177 -37.9051 -37.8880 -37.8767 -37.8643
   -21.5111 -15.4418 -14.3331 -14.2880 -14.1123 -13.5928 -13.3016 -13.2838
   -12.9619 -12.9382 -12.8775 -12.8576 -12.8247 -12.7992 -12.7946 -12.6639
   -12.6304 -12.5915 -12.5007 -12.4704 -12.3911 -12.3681 -12.3404 -12.3190
   -12.3083 -12.2981 -12.2615 -12.2331 -12.2284 -12.1290 -12.1189 -12.1128
   -12.0774 -12.0150  -7.9901  -7.5688  -6.1547  -6.0414  -6.0086  -5.9633
    -5.9205  -5.9027  -5.8735  -5.8312  -5.8040  -5.7457  -5.6839  -5.6186
    -5.6079  -5.5340  -5.3522  -5.2754  -5.2512  -5.2193  -5.1933  -5.1670
    -5.1440  -4.8507  -4.8345  -4.6873  -4.6404  -4.6024  -4.5452  -4.5086
    -4.4849  -4.4294  -4.3770  -4.3167  -4.2947  -4.2380  -4.2282  -4.1947
    -4.1858  -4.1633  -4.1168  -4.0926  -3.9534  -3.9427  -3.7810  -3.6594
    -3.6105  -3.5742  -3.4226  -3.3632  -3.3537  -3.3250  -3.2908  -3.2814
    -3.2784  -3.2541  -3.2389  -3.2280  -3.2161  -3.1959  -3.1703  -3.1357
    -3.0814  -3.0725  -3.0496  -3.0139  -2.9848  -2.9298  -2.8331  -2.7955
    -2.7344  -2.7114  -2.6905  -2.6350  -2.6168  -2.5383  -2.4942  -2.4501
    -2.3840  -2.3262  -2.3109  -2.2883  -2.2394  -2.1913  -2.1675  -2.1354
    -2.1124  -2.0930  -2.0706  -2.0304  -2.0059  -1.9730  -1.9577  -1.9451
    -1.9256  -1.8960  -1.8916  -1.8744  -1.8639  -1.8551  -1.8477  -1.8321
    -1.7990  -1.7860  -1.7438  -1.7223  -1.6906  -1.6798  -1.6488  -1.6291
    -1.6117  -1.5919  -1.5233  -1.5101  -1.4651  -1.4246  -1.3880  -1.3124
    -1.2745  -1.2179  -1.1510  -1.1305  -1.0901  -1.0445  -1.0086  -0.9689
    -0.8048  -0.7844  -0.6908  -0.6884  -0.6503  -0.6443  -0.5928  -0.5863
    -0.5434  -0.3927  -0.2744  -0.2606  -0.1661  -0.1157  -0.0690   0.1228
     0.1956   1.3659   1.7113

     occupation numbers 
     1.0000   1.0000   1.0000   1.0000   1.0000   1.0000   1.0000   1.0000
     1.0000   1.0000   1.0000   1.0000   1.0000   1.0000   1.0000   1.0000
     1.0000   1.0000   1.0000   1.0000   1.0000   1.0000   1.0000   1.0000
     1.0000   1.0000   1.0000   1.0000   1.0000   1.0000   1.0000   1.0000
     1.0000   1.0000   1.0000   1.0000   1.0000   1.0000   1.0000   1.0000
     1.0000   1.0000   1.0000   1.0000   1.0000   1.0000   1.0000   1.0000
     1.0000   1.0000   1.0000   1.0000   1.0000   1.0000   1.0000   1.0000
     1.0000   1.0000   1.0000   1.0000   1.0000   1.0000   1.0000   1.0000
     1.0000   1.0000   1.0000   1.0000   1.0000   1.0000   1.0000   1.0000
     1.0000   1.0000   1.0000   1.0000   1.0000   1.0000   1.0000   1.0000
     1.0000   1.0000   1.0000   1.0000   1.0000   1.0000   1.0000   1.0000
     1.0000   1.0000   1.0000   1.0000   1.0000   1.0000   1.0000   1.0000
     1.0000   1.0000   1.0000   1.0000   1.0000   1.0000   1.0000   1.0000
     1.0000   1.0000   1.0000   1.0000   1.0000   1.0000   1.0000   1.0000
     1.0000   1.0000   1.0000   1.0000   1.0000   1.0000   1.0000   1.0000
     1.0000   1.0000   1.0000   1.0000   1.0000   1.0000   1.0000   1.0000
     1.0000   1.0000   1.0000   1.0000   1.0000   1.0000   1.0000   1.0000
     1.0000   1.0000   1.0000   1.0000   1.0000   1.0000   1.0000   1.0000
     1.0000   1.0000   1.0000   1.0000   1.0000   1.0000   1.0000   1.0000
     1.0000   1.0000   1.0000   1.0000   1.0000   1.0000   1.0000   1.0000
     1.0000   1.0000   1.0000   1.0000   1.0000   1.0000   1.0000   1.0000
     1.0000   1.0000   1.0000   1.0000   1.0000   1.0000   1.0000   1.0000
     1.0000   1.0000   1.0000   1.0000   1.0000   1.0000   1.0000   1.0000
     1.0000   1.0000   1.0000   1.0000   1.0000   1.0000   1.0000   1.0000
     1.0000   1.0000   1.0000   1.0000   1.0000   1.0000   1.0000   1.0000
     1.0000   1.0000   1.0000   1.0000   1.0000   1.0000   1.0000   1.0000
     1.0000   1.0000   1.0000   1.0000   1.0000   1.0000   1.0000   1.0000
     1.0000   1.0000   1.0000   1.0000   1.0000   1.0000   1.0000   1.0000
     1.0000   1.0000   1.0000   1.0000   1.0000   1.0000   1.0000   1.0000
     1.0000   1.0000   1.0000   1.0000   1.0000   1.0000   1.0000   1.0000
     1.0000   1.0000   0.0000

     highest occupied, lowest unoccupied level (ev):     1.6168    1.6756

!    total energy              =  -16138.55540592 Ry
     total all-electron energy =   -595550.628611 Ry
     estimated scf accuracy    <          4.5E-11 Ry

     The total energy is the sum of the following terms:
     one-electron contribution =  -18312.19933466 Ry
     hartree contribution      =    9259.87818733 Ry
     xc contribution           =    -931.74187093 Ry
     ewald contribution        =    6415.49729690 Ry
     DFT-D3 Dispersion         =      -0.65558209 Ry
     one-center paw contrib.   =  -12569.33410247 Ry
      -> PAW hartree energy AE =      92.00285141 Ry
      -> PAW hartree energy PS =     -91.51079735 Ry
      -> PAW xc energy AE      =    -644.66491652 Ry
      -> PAW xc energy PS      =      38.62151697 Ry
      -> total E_H with PAW    =    9260.37024139 Ry
      -> total E_XC with PAW   =   -1537.78527049 Ry

     total magnetization       =     1.00 Bohr mag/cell
     absolute magnetization    =     1.12 Bohr mag/cell

     convergence has been achieved in  31 iterations

     negative rho (up, down):  4.797E-03 5.164E-03

     Forces acting on atoms (cartesian axes, Ry/au):

     atom    1 type  2   force =    -0.00000497   -0.00008076   -0.00014829
     atom    2 type  2   force =    -0.00018885    0.00001819    0.00013019
     atom    3 type  2   force =    -0.00025578   -0.00016218   -0.00000118
     atom    4 type  2   force =     0.00028468    0.00027843    0.00004794
     atom    5 type  2   force =    -0.00001362   -0.00023555    0.00000359
     atom    6 type  2   force =    -0.00002292    0.00006824   -0.00000608
     atom    7 type  2   force =     0.00006284   -0.00002434    0.00008157
     atom    8 type  2   force =     0.00013671    0.00007752    0.00006933
     atom    9 type  2   force =    -0.00021097   -0.00007861    0.00005943
     atom   10 type  2   force =     0.00009153    0.00010980    0.00008592
     atom   11 type  2   force =    -0.00005797    0.00020097    0.00000853
     atom   12 type  2   force =    -0.00001164    0.00006814   -0.00013864
     atom   13 type  2   force =    -0.00013455    0.00015672    0.00008139
     atom   14 type  2   force =     0.00011845    0.00001111   -0.00000058
     atom   15 type  2   force =    -0.00000373   -0.00016904   -0.00007277
     atom   16 type  2   force =    -0.00024217   -0.00015558   -0.00004434
     atom   17 type  1   force =    -0.00008836    0.00017363   -0.00002275
     atom   18 type  1   force =    -0.00005821   -0.00018506   -0.00006569
     atom   19 type  1   force =    -0.00010879    0.00010823   -0.00003196
     atom   20 type  1   force =     0.00012510   -0.00002005   -0.00006800
     atom   21 type  1   force =    -0.00008710    0.00000578    0.00005219
     atom   22 type  1   force =    -0.00003222   -0.00000368   -0.00034429
     atom   23 type  1   force =    -0.00006393    0.00002042    0.00002420
     atom   24 type  1   force =     0.00012302    0.00000268    0.00001679
     atom   25 type  1   force =    -0.00001969   -0.00003979    0.00001785
     atom   26 type  1   force =     0.00005303   -0.00007891   -0.00008678
     atom   27 type  1   force =     0.00009709    0.00006989   -0.00004198
     atom   28 type  1   force =    -0.00028399    0.00003576   -0.00036874
     atom   29 type  1   force =    -0.00002085   -0.00012591   -0.00012718
     atom   30 type  1   force =    -0.00007565   -0.00000591    0.00008097
     atom   31 type  1   force =    -0.00020973   -0.00006616   -0.00003961
     atom   32 type  1   force =     0.00025651    0.00008120   -0.00017220
     atom   33 type  1   force =     0.00002552    0.00005114   -0.00015623
     atom   34 type  1   force =     0.00001094    0.00006417    0.00004363
     atom   35 type  1   force =     0.00002288   -0.00000014   -0.00003505
     atom   36 type  1   force =    -0.00003585   -0.00004473    0.00004721
     atom   37 type  1   force =    -0.00011290    0.00001516   -0.00012268
     atom   38 type  1   force =     0.00008978   -0.00016112    0.00001341
     atom   39 type  1   force =     0.00014748    0.00003336    0.00002824
     atom   40 type  1   force =     0.00011056   -0.00003155    0.00007175
     atom   41 type  1   force =    -0.00011697    0.00005040    0.00006665
     atom   42 type  1   force =     0.00004398    0.00005764    0.00000367
     atom   43 type  1   force =    -0.00025149    0.00000798    0.00014962
     atom   44 type  1   force =    -0.00007739    0.00009745   -0.00036899
     atom   45 type  1   force =    -0.00009838   -0.00004392    0.00005366
     atom   46 type  1   force =     0.00000912    0.00003993   -0.00015309
     atom   47 type  1   force =    -0.00004654   -0.00017214   -0.00015884
     atom   48 type  1   force =    -0.00002761    0.00004798    0.00015356
     atom   49 type  3   force =     0.00095775   -0.00000970   -0.00032690
     atom   50 type  3   force =    -0.00033146   -0.00077511    0.00059424
     atom   51 type  3   force =    -0.00036886   -0.00010221   -0.00012773
     atom   52 type  3   force =     0.00044720    0.00034861    0.00050202
     atom   53 type  3   force =    -0.00023465    0.00058654    0.00013741
     atom   54 type  4   force =    -0.00440368    0.01119831   -0.00762742
     atom   55 type  5   force =     0.00004440    0.00037486   -0.00065067
     atom   56 type  6   force =     0.00094805   -0.00167207    0.00030607
     atom   57 type  6   force =    -0.00007323    0.00013004    0.00049222
     atom   58 type  6   force =     0.00416811   -0.01014605    0.00808538
     The non-local contrib.  to forces
     atom    1 type  2   force =    -0.00047574    0.00023846   -0.00009195
     atom    2 type  2   force =     0.00035627   -0.00015086   -0.00019384
     atom    3 type  2   force =    -0.00390243   -0.00385966    0.00603992
     atom    4 type  2   force =    -0.00236722   -0.00004738    0.00309728
     atom    5 type  2   force =    -0.00055047    0.00926469    0.00836181
     atom    6 type  2   force =     0.00405402   -0.00045204    0.01270222
     atom    7 type  2   force =     0.00359554   -0.00281913    0.00571226
     atom    8 type  2   force =     0.00048119    0.00022201    0.00051913
     atom    9 type  2   force =     0.00018551    0.00103476    0.00332052
     atom   10 type  2   force =    -0.00362722    0.00165958    0.01381917
     atom   11 type  2   force =    -0.00039982   -0.00030701    0.01550765
     atom   12 type  2   force =     0.00588803   -0.00340580    0.00757022
     atom   13 type  2   force =    -0.00013376    0.00028937   -0.00031451
     atom   14 type  2   force =     0.00074678    0.00162011    0.00308094
     atom   15 type  2   force =    -0.00071668   -0.00209970    0.00704621
     atom   16 type  2   force =    -0.00285999   -0.00023349    0.00573712
     atom   17 type  1   force =     0.00084175    0.00126828   -0.27570909
     atom   18 type  1   force =     0.00428994    0.00240440   -0.27657483
     atom   19 type  1   force =     0.00094852    0.00009426   -0.27534359
     atom   20 type  1   force =    -0.00088133   -0.00064044   -0.27641007
     atom   21 type  1   force =    -0.00026893    0.00141314   -0.27545002
     atom   22 type  1   force =     0.01182302    0.02357078   -0.15679678
     atom   23 type  1   force =    -0.00166897   -0.00214729   -0.18680259
     atom   24 type  1   force =     0.00274230   -0.00128737   -0.27540003
     atom   25 type  1   force =     0.00010680   -0.00086188   -0.27674425
     atom   26 type  1   force =     0.00288253    0.00951006   -0.25647934
     atom   27 type  1   force =     0.01816776    0.00623453   -0.22553982
     atom   28 type  1   force =     0.01935323   -0.01745125   -0.19308930
     atom   29 type  1   force =     0.00088780   -0.00184031   -0.27491125
     atom   30 type  1   force =    -0.00195934    0.00125275   -0.27604204
     atom   31 type  1   force =    -0.02392222   -0.01161587   -0.21280586
     atom   32 type  1   force =    -0.00974273   -0.00786874   -0.24422102
     atom   33 type  1   force =    -0.00022821    0.00030975    0.27623273
     atom   34 type  1   force =     0.00171735    0.00243459    0.27673876
     atom   35 type  1   force =     0.00154162   -0.00049418    0.27628634
     atom   36 type  1   force =    -0.00083229   -0.00082611    0.27581843
     atom   37 type  1   force =     0.00033183    0.00196870    0.27562292
     atom   38 type  1   force =     0.00295524    0.00258741    0.27717072
     atom   39 type  1   force =     0.00248639    0.00067269    0.27703418
     atom   40 type  1   force =     0.00205481   -0.00164394    0.27530999
     atom   41 type  1   force =     0.00021972    0.00048396    0.27665563
     atom   42 type  1   force =    -0.00263970    0.00246834    0.27560828
     atom   43 type  1   force =    -0.00192610   -0.00055534    0.27975774
     atom   44 type  1   force =     0.00088686   -0.00429908    0.27701830
     atom   45 type  1   force =    -0.00063621   -0.00172415    0.27610660
     atom   46 type  1   force =    -0.00124751   -0.00047783    0.27628512
     atom   47 type  1   force =    -0.00341959   -0.00008920    0.27527144
     atom   48 type  1   force =    -0.00234829   -0.00163824    0.27541266
     atom   49 type  3   force =    -0.18434194    0.03153309   -0.06009915
     atom   50 type  3   force =    -0.00816525   -0.13030763   -0.07519465
     atom   51 type  3   force =     0.19389903   -0.01619515   -0.09602206
     atom   52 type  3   force =     0.02021856    0.14043762   -0.09313314
     atom   53 type  3   force =     0.02079592    0.02820776    0.14779365
     atom   54 type  4   force =    -0.85965851   -0.27909294    0.91038478
     atom   55 type  5   force =     1.88411742    0.54122742   -1.51282599
     atom   56 type  6   force =    -0.00662858   -0.07218738   -0.06502059
     atom   57 type  6   force =     0.01166738   -0.01483012    0.09895516
     atom   58 type  6   force =    -0.03073348    0.08658562   -0.04038867
     The ionic contribution  to forces
     atom    1 type  2   force =    -0.93934636   -0.19564457   -8.51289967
     atom    2 type  2   force =    -0.97114295   -1.15703020   -8.88065424
     atom    3 type  2   force =     1.92226567    0.65022898   -9.44036080
     atom    4 type  2   force =     1.76658124    1.72475814   -9.24219282
     atom    5 type  2   force =    -0.76028863   -3.39401855  -10.32625514
     atom    6 type  2   force =    -3.93399703   -3.11187709  -14.38223868
     atom    7 type  2   force =    -3.78919106    1.11544584  -12.06380326
     atom    8 type  2   force =    -0.45959844    0.22258993   -8.34472627
     atom    9 type  2   force =     1.12835551   -2.55054875  -10.29988312
     atom   10 type  2   force =     1.18900652   -3.57206262  -19.43256498
     atom   11 type  2   force =    -2.00134991    2.17455790  -20.50299440
     atom   12 type  2   force =    -1.90162325    2.98575100  -10.56730205
     atom   13 type  2   force =     0.52976139    0.57645133   -8.42045262
     atom   14 type  2   force =     3.83233550   -2.05746971  -11.86220628
     atom   15 type  2   force =     3.84725349    1.90220537  -17.31903743
     atom   16 type  2   force =     0.57168541    4.70767809  -12.98806716
     atom   17 type  1   force =    -0.14017213   -0.66153629   32.26046895
     atom   18 type  1   force =    -2.24132013   -1.69658242   31.29291710
     atom   19 type  1   force =    -1.12788706    0.05272183   31.69827824
     atom   20 type  1   force =     1.01152184    0.86396158   32.41864822
     atom   21 type  1   force =     0.17395223   -1.94604731   32.03426140
     atom   22 type  1   force =    -2.23779336   -5.30497557   25.62113094
     atom   23 type  1   force =    -4.76126348    0.06302884   24.69024736
     atom   24 type  1   force =    -2.11325570    1.73123976   31.40479108
     atom   25 type  1   force =    -0.02600272    0.43238282   32.25561729
     atom   26 type  1   force =     2.91773262   -4.06829565   28.41087253
     atom   27 type  1   force =     1.27441081   -0.00842004   20.49326354
     atom   28 type  1   force =    -2.26277997    5.24413799   26.48494941
     atom   29 type  1   force =     0.01961449    1.75655687   32.08021515
     atom   30 type  1   force =     1.12872618   -0.96857876   32.14813970
     atom   31 type  1   force =     4.85890774    0.33661183   28.22768315
     atom   32 type  1   force =     3.17855016    3.98401681   28.83896469
     atom   33 type  1   force =    -0.05127244   -0.12670108  -39.08036439
     atom   34 type  1   force =    -0.56948257   -0.42787959  -39.19404775
     atom   35 type  1   force =    -0.28919217   -0.04256354  -39.24782577
     atom   36 type  1   force =     0.27300898    0.22244500  -39.09022930
     atom   37 type  1   force =    -0.01843643   -0.48726066  -39.20303293
     atom   38 type  1   force =    -0.41731330   -0.93188936  -40.31607547
     atom   39 type  1   force =    -0.90998448   -0.05707689  -40.68688203
     atom   40 type  1   force =    -0.52225305    0.40400829  -39.34427977
     atom   41 type  1   force =     0.05823352    0.12835224  -39.16782148
     atom   42 type  1   force =     0.64041984   -0.72203747  -40.20975889
     atom   43 type  1   force =     0.29417927    0.05132609  -41.17833550
     atom   44 type  1   force =    -0.25864635    0.97340409  -40.33015343
     atom   45 type  1   force =     0.01554293    0.50324502  -39.10219034
     atom   46 type  1   force =     0.32788575   -0.23271182  -39.01169173
     atom   47 type  1   force =     0.87995957   -0.02484645  -39.93847683
     atom   48 type  1   force =     0.55134252    0.76662424  -40.07768056
     atom   49 type  3   force =   -21.27101071    3.68414104   58.89082869
     atom   50 type  3   force =    -1.57949777  -20.68510003   58.08171156
     atom   51 type  3   force =    21.71873404   -2.58698116   61.19650600
     atom   52 type  3   force =     2.76347082   20.98140283   58.84259257
     atom   53 type  3   force =     7.92487051    2.07519752   63.36449788
     atom   54 type  4   force =     4.39869008    0.07783362   20.60255871
     atom   55 type  5   force =   -13.34398671   -2.91083418   24.86138481
     atom   56 type  6   force =     0.54208004    2.65365477    5.39043619
     atom   57 type  6   force =    -2.24661502    0.17437196    1.35202941
     atom   58 type  6   force =     1.40562451   -3.29136188    4.82149050
     The local contribution  to forces
     atom    1 type  2   force =     0.93941582    0.19578967    8.51282226
     atom    2 type  2   force =     0.97064516    1.15667549    8.88072819
     atom    3 type  2   force =    -1.91895185   -0.64717477    9.43508300
     atom    4 type  2   force =    -1.76432638   -1.72430875    9.23945773
     atom    5 type  2   force =     0.76042642    3.38458149   10.31752152
     atom    6 type  2   force =     3.92918446    3.11092124   14.36714015
     atom    7 type  2   force =     3.78431080   -1.11232464   12.05646504
     atom    8 type  2   force =     0.45920771   -0.22283601    8.34467033
     atom    9 type  2   force =    -1.12850141    2.54894549   10.29611313
     atom   10 type  2   force =    -1.18516292    3.57093498   19.41583839
     atom   11 type  2   force =     2.00243013   -2.17386729   20.48260087
     atom   12 type  2   force =     1.89593247   -2.98213533   10.55933915
     atom   13 type  2   force =    -0.52953444   -0.57629598    8.42058103
     atom   14 type  2   force =    -3.83144202    2.05562072   11.85700669
     atom   15 type  2   force =    -3.84597278   -1.90007344   17.30737274
     atom   16 type  2   force =    -0.56917739   -4.70596568   12.98000013
     atom   17 type  1   force =     0.13921007    0.66020558  -31.98616772
     atom   18 type  1   force =     2.23633024    1.69349468  -31.01824573
     atom   19 type  1   force =     1.12653881   -0.05264417  -31.42459719
     atom   20 type  1   force =    -1.01015111   -0.86303700  -32.14370803
     atom   21 type  1   force =    -0.17366554    1.94402682  -31.76022346
     atom   22 type  1   force =     2.22586201    5.28066751  -25.46418456
     atom   23 type  1   force =     4.76147508   -0.06091890  -24.50310590
     atom   24 type  1   force =     2.10993848   -1.72939068  -31.13116814
     atom   25 type  1   force =     0.02576890   -0.43142144  -31.98024548
     atom   26 type  1   force =    -2.92073279    4.05919284  -28.15442608
     atom   27 type  1   force =    -1.29111756    0.00188642  -20.26613515
     atom   28 type  1   force =     2.24366248   -5.22602785  -26.29209195
     atom   29 type  1   force =    -0.02045204   -1.75432766  -31.80686367
     atom   30 type  1   force =    -1.12648671    0.96703391  -31.87347999
     atom   31 type  1   force =    -4.83525538   -0.32549607  -28.01442744
     atom   32 type  1   force =    -3.16931638   -3.97568851  -28.59510577
     atom   33 type  1   force =     0.05149256    0.12643328   38.80495139
     atom   34 type  1   force =     0.56778038    0.42556156   38.91835738
     atom   35 type  1   force =     0.28768234    0.04302155   38.97247245
     atom   36 type  1   force =    -0.27224034   -0.22169895   38.81543685
     atom   37 type  1   force =     0.01800438    0.48538697   38.92824853
     atom   38 type  1   force =     0.41443242    0.92912049   40.03969454
     atom   39 type  1   force =     0.90759097    0.05642524   40.41064958
     atom   40 type  1   force =     0.52040231   -0.40242060   39.06998995
     atom   41 type  1   force =    -0.05853052   -0.12875628   38.89222309
     atom   42 type  1   force =    -0.63770310    0.71963497   39.93496455
     atom   43 type  1   force =    -0.29251702   -0.05076132   40.89950183
     atom   44 type  1   force =     0.25768884   -0.96900049   40.05356509
     atom   45 type  1   force =    -0.01502292   -0.50157201   38.82712786
     atom   46 type  1   force =    -0.32666796    0.23320663   38.73625998
     atom   47 type  1   force =    -0.87662174    0.02472806   39.66384079
     atom   48 type  1   force =    -0.54901663   -0.76491884   39.80319747
     atom   49 type  3   force =    21.45291977   -3.71446817  -58.82009661
     atom   50 type  3   force =     1.59119123   20.81433708  -57.99673092
     atom   51 type  3   force =   -21.90975436    2.60163770  -61.09350145
     atom   52 type  3   force =    -2.78051539  -21.11932539  -58.74060233
     atom   53 type  3   force =    -7.94440198   -2.10183569  -63.50657143
     atom   54 type  4   force =    -3.56135278    0.20795696  -21.50794998
     atom   55 type  5   force =    11.47871169    2.37474440  -23.36012898
     atom   56 type  6   force =    -0.53455819   -2.58327004   -5.32531931
     atom   57 type  6   force =     2.23508848   -0.15927269   -1.45057183
     atom   58 type  6   force =    -1.37083481    3.19485612   -4.77315298
     The core correction contribution to forces
     atom    1 type  2   force =     0.00025929   -0.00048985   -0.00037516
     atom    2 type  2   force =    -0.00015600    0.00035612   -0.00024288
     atom    3 type  2   force =     0.00079685    0.00078225   -0.00149966
     atom    4 type  2   force =     0.00075028    0.00026052   -0.00095108
     atom    5 type  2   force =     0.00021031   -0.00077892   -0.00060689
     atom    6 type  2   force =    -0.00028697    0.00076917   -0.00009493
     atom    7 type  2   force =     0.00050945   -0.00013686    0.00031908
     atom    8 type  2   force =    -0.00002372    0.00012216   -0.00061756
     atom    9 type  2   force =     0.00000886   -0.00005565   -0.00027204
     atom   10 type  2   force =    -0.00007192   -0.00142582    0.00039519
     atom   11 type  2   force =    -0.00121297    0.00051053    0.00110304
     atom   12 type  2   force =    -0.00068054    0.00050208   -0.00079338
     atom   13 type  2   force =    -0.00018227   -0.00017946   -0.00006067
     atom   14 type  2   force =    -0.00063568   -0.00026346    0.00047246
     atom   15 type  2   force =     0.00047415    0.00032333    0.00113506
     atom   16 type  2   force =     0.00025958   -0.00056053    0.00045801
     atom   17 type  1   force =    -0.00005247   -0.00000715    0.00196461
     atom   18 type  1   force =    -0.00015894   -0.00008386    0.00203946
     atom   19 type  1   force =    -0.00004830   -0.00005478    0.00197248
     atom   20 type  1   force =    -0.00000400    0.00000148    0.00199027
     atom   21 type  1   force =    -0.00003856   -0.00003559    0.00197234
     atom   22 type  1   force =    -0.00009299   -0.00041922   -0.00040038
     atom   23 type  1   force =     0.00004683    0.00006937   -0.00003944
     atom   24 type  1   force =    -0.00006729    0.00004271    0.00198188
     atom   25 type  1   force =     0.00005177    0.00002251    0.00198617
     atom   26 type  1   force =    -0.00002199   -0.00024164    0.00142921
     atom   27 type  1   force =    -0.00045979   -0.00006035    0.00111688
     atom   28 type  1   force =    -0.00030224    0.00037844    0.00020034
     atom   29 type  1   force =    -0.00002111    0.00009983    0.00197921
     atom   30 type  1   force =     0.00007971   -0.00003683    0.00200940
     atom   31 type  1   force =     0.00052021    0.00026212    0.00063798
     atom   32 type  1   force =     0.00016333    0.00019623    0.00123048
     atom   33 type  1   force =     0.00001671   -0.00000373   -0.00193213
     atom   34 type  1   force =    -0.00003147   -0.00005387   -0.00198916
     atom   35 type  1   force =     0.00000255    0.00003606   -0.00193394
     atom   36 type  1   force =     0.00001928    0.00002512   -0.00191735
     atom   37 type  1   force =     0.00000514   -0.00004330   -0.00192650
     atom   38 type  1   force =     0.00001035    0.00001091   -0.00197482
     atom   39 type  1   force =     0.00002947    0.00002689   -0.00198059
     atom   40 type  1   force =    -0.00005820    0.00000905   -0.00192233
     atom   41 type  1   force =    -0.00003619   -0.00001293   -0.00194793
     atom   42 type  1   force =    -0.00002451   -0.00003869   -0.00193357
     atom   43 type  1   force =     0.00000271   -0.00001131   -0.00220903
     atom   44 type  1   force =    -0.00002580    0.00001946   -0.00198805
     atom   45 type  1   force =     0.00001194    0.00001599   -0.00195970
     atom   46 type  1   force =     0.00003335    0.00000919   -0.00196705
     atom   47 type  1   force =     0.00004963    0.00003144   -0.00190588
     atom   48 type  1   force =     0.00002354    0.00000565   -0.00189420
     atom   49 type  3   force =     0.00424982   -0.00133324   -0.00310487
     atom   50 type  3   force =    -0.00144882    0.00369872   -0.00371205
     atom   51 type  3   force =    -0.00463897    0.00092654   -0.00153764
     atom   52 type  3   force =    -0.00175195   -0.00488855   -0.00188335
     atom   53 type  3   force =    -0.00268270   -0.00117094   -0.00361504
     atom   54 type  4   force =     0.01781395    0.00442307   -0.01187797
     atom   55 type  5   force =    -0.01849751   -0.00481799    0.01189929
     atom   56 type  6   force =     0.00000000    0.00000000    0.00000000
     atom   57 type  6   force =     0.00000000    0.00000000    0.00000000
     atom   58 type  6   force =     0.00000000    0.00000000    0.00000000
     The Hubbard contrib.    to forces
     atom    1 type  2   force =     0.00000000    0.00000000    0.00000000
     atom    2 type  2   force =     0.00000000    0.00000000    0.00000000
     atom    3 type  2   force =     0.00000000    0.00000000    0.00000000
     atom    4 type  2   force =     0.00000000    0.00000000    0.00000000
     atom    5 type  2   force =     0.00000000    0.00000000    0.00000000
     atom    6 type  2   force =     0.00000000    0.00000000    0.00000000
     atom    7 type  2   force =     0.00000000    0.00000000    0.00000000
     atom    8 type  2   force =     0.00000000    0.00000000    0.00000000
     atom    9 type  2   force =     0.00000000    0.00000000    0.00000000
     atom   10 type  2   force =     0.00000000    0.00000000    0.00000000
     atom   11 type  2   force =     0.00000000    0.00000000    0.00000000
     atom   12 type  2   force =     0.00000000    0.00000000    0.00000000
     atom   13 type  2   force =     0.00000000    0.00000000    0.00000000
     atom   14 type  2   force =     0.00000000    0.00000000    0.00000000
     atom   15 type  2   force =     0.00000000    0.00000000    0.00000000
     atom   16 type  2   force =     0.00000000    0.00000000    0.00000000
     atom   17 type  1   force =     0.00000000    0.00000000    0.00000000
     atom   18 type  1   force =     0.00000000    0.00000000    0.00000000
     atom   19 type  1   force =     0.00000000    0.00000000    0.00000000
     atom   20 type  1   force =     0.00000000    0.00000000    0.00000000
     atom   21 type  1   force =     0.00000000    0.00000000    0.00000000
     atom   22 type  1   force =     0.00000000    0.00000000    0.00000000
     atom   23 type  1   force =     0.00000000    0.00000000    0.00000000
     atom   24 type  1   force =     0.00000000    0.00000000    0.00000000
     atom   25 type  1   force =     0.00000000    0.00000000    0.00000000
     atom   26 type  1   force =     0.00000000    0.00000000    0.00000000
     atom   27 type  1   force =     0.00000000    0.00000000    0.00000000
     atom   28 type  1   force =     0.00000000    0.00000000    0.00000000
     atom   29 type  1   force =     0.00000000    0.00000000    0.00000000
     atom   30 type  1   force =     0.00000000    0.00000000    0.00000000
     atom   31 type  1   force =     0.00000000    0.00000000    0.00000000
     atom   32 type  1   force =     0.00000000    0.00000000    0.00000000
     atom   33 type  1   force =     0.00000000    0.00000000    0.00000000
     atom   34 type  1   force =     0.00000000    0.00000000    0.00000000
     atom   35 type  1   force =     0.00000000    0.00000000    0.00000000
     atom   36 type  1   force =     0.00000000    0.00000000    0.00000000
     atom   37 type  1   force =     0.00000000    0.00000000    0.00000000
     atom   38 type  1   force =     0.00000000    0.00000000    0.00000000
     atom   39 type  1   force =     0.00000000    0.00000000    0.00000000
     atom   40 type  1   force =     0.00000000    0.00000000    0.00000000
     atom   41 type  1   force =     0.00000000    0.00000000    0.00000000
     atom   42 type  1   force =     0.00000000    0.00000000    0.00000000
     atom   43 type  1   force =     0.00000000    0.00000000    0.00000000
     atom   44 type  1   force =     0.00000000    0.00000000    0.00000000
     atom   45 type  1   force =     0.00000000    0.00000000    0.00000000
     atom   46 type  1   force =     0.00000000    0.00000000    0.00000000
     atom   47 type  1   force =     0.00000000    0.00000000    0.00000000
     atom   48 type  1   force =     0.00000000    0.00000000    0.00000000
     atom   49 type  3   force =     0.00000000    0.00000000    0.00000000
     atom   50 type  3   force =     0.00000000    0.00000000    0.00000000
     atom   51 type  3   force =     0.00000000    0.00000000    0.00000000
     atom   52 type  3   force =     0.00000000    0.00000000    0.00000000
     atom   53 type  3   force =     0.00000000    0.00000000    0.00000000
     atom   54 type  4   force =     0.00000000    0.00000000    0.00000000
     atom   55 type  5   force =     0.00000000    0.00000000    0.00000000
     atom   56 type  6   force =     0.00000000    0.00000000    0.00000000
     atom   57 type  6   force =     0.00000000    0.00000000    0.00000000
     atom   58 type  6   force =     0.00000000    0.00000000    0.00000000
     The SCF correction term to forces
     atom    1 type  2   force =     0.00000154   -0.00000495   -0.00000094
     atom    2 type  2   force =    -0.00000410   -0.00000092   -0.00000007
     atom    3 type  2   force =    -0.00000645    0.00000236   -0.00000019
     atom    4 type  2   force =    -0.00000044   -0.00000207   -0.00000044
     atom    5 type  2   force =     0.00000401   -0.00000248   -0.00000046
     atom    6 type  2   force =     0.00000605   -0.00000016    0.00000025
     atom    7 type  2   force =     0.00000090    0.00000131    0.00000041
     atom    8 type  2   force =    -0.00000474    0.00000510   -0.00000030
     atom    9 type  2   force =    -0.00000310    0.00000223   -0.00000065
     atom   10 type  2   force =     0.00000204    0.00000093   -0.00000017
     atom   11 type  2   force =     0.00000755    0.00000050    0.00000001
     atom   12 type  2   force =     0.00000251    0.00000157   -0.00000052
     atom   13 type  2   force =    -0.00000227   -0.00000030   -0.00000102
     atom   14 type  2   force =    -0.00000395    0.00000111   -0.00000071
     atom   15 type  2   force =    -0.00000181    0.00000173   -0.00000053
     atom   16 type  2   force =     0.00000266   -0.00000585   -0.00000105
     atom   17 type  1   force =     0.00000144   -0.00000173    0.00000101
     atom   18 type  1   force =    -0.00000023   -0.00000021    0.00000300
     atom   19 type  1   force =    -0.00000166   -0.00000051    0.00000291
     atom   20 type  1   force =    -0.00000189    0.00000109    0.00000079
     atom   21 type  1   force =    -0.00000056    0.00000112    0.00000050
     atom   22 type  1   force =     0.00000231   -0.00000032    0.00000080
     atom   23 type  1   force =     0.00000330    0.00000050    0.00000192
     atom   24 type  1   force =    -0.00000024    0.00000145    0.00000299
     atom   25 type  1   force =    -0.00000073    0.00000097    0.00000158
     atom   26 type  1   force =    -0.00000100    0.00000022   -0.00000019
     atom   27 type  1   force =     0.00000031    0.00000071   -0.00000143
     atom   28 type  1   force =     0.00000209   -0.00000156    0.00000010
     atom   29 type  1   force =    -0.00000017   -0.00000167    0.00000183
     atom   30 type  1   force =    -0.00000104    0.00000025    0.00000143
     atom   31 type  1   force =    -0.00000190    0.00000066    0.00000008
     atom   32 type  1   force =     0.00000012   -0.00000106   -0.00000105
     atom   33 type  1   force =     0.00000130   -0.00000181   -0.00000118
     atom   34 type  1   force =    -0.00000034   -0.00000055   -0.00000304
     atom   35 type  1   force =    -0.00000184   -0.00000054   -0.00000290
     atom   36 type  1   force =    -0.00000198    0.00000122   -0.00000084
     atom   37 type  1   force =    -0.00000050    0.00000107   -0.00000064
     atom   38 type  1   force =     0.00000236   -0.00000042   -0.00000093
     atom   39 type  1   force =     0.00000335    0.00000059   -0.00000216
     atom   40 type  1   force =    -0.00000018    0.00000171   -0.00000312
     atom   41 type  1   force =    -0.00000059    0.00000096   -0.00000184
     atom   42 type  1   force =    -0.00000083    0.00000028   -0.00000007
     atom   43 type  1   force =     0.00000047    0.00000069    0.00000138
     atom   44 type  1   force =     0.00000221   -0.00000128   -0.00000040
     atom   45 type  1   force =    -0.00000020   -0.00000170   -0.00000206
     atom   46 type  1   force =    -0.00000116    0.00000005   -0.00000156
     atom   47 type  1   force =    -0.00000209    0.00000053   -0.00000029
     atom   48 type  1   force =    -0.00000006   -0.00000090    0.00000084
     atom   49 type  3   force =     0.00000101   -0.00000023   -0.00000090
     atom   50 type  3   force =     0.00000047   -0.00000031   -0.00000117
     atom   51 type  3   force =     0.00000021    0.00000037   -0.00000176
     atom   52 type  3   force =     0.00000098    0.00000036   -0.00000161
     atom   53 type  3   force =     0.00000017    0.00000007   -0.00000002
     atom   54 type  4   force =    -0.00000006   -0.00000008    0.00000022
     atom   55 type  5   force =     0.00000049   -0.00000014    0.00000074
     atom   56 type  6   force =     0.00000000   -0.00000001    0.00000005
     atom   57 type  6   force =     0.00000004   -0.00000003    0.00000008
     atom   58 type  6   force =    -0.00000000   -0.00000001    0.00000004

     DFT-D3 dispersion contribution to forces:
     atom    1 type  2   force =     0.00014031    0.00003168    0.00039726
     atom    2 type  2   force =     0.00011259    0.00016976    0.00049313
     atom    3 type  2   force =    -0.00045774   -0.00014014    0.00073665
     atom    4 type  2   force =    -0.00035297   -0.00038083    0.00063736
     atom    5 type  2   force =     0.00018456    0.00071943    0.00098284
     atom    6 type  2   force =     0.00101636    0.00070834    0.00248500
     atom    7 type  2   force =     0.00083703   -0.00018965    0.00138814
     atom    8 type  2   force =     0.00007452   -0.00002446    0.00022411
     atom    9 type  2   force =    -0.00025652    0.00054451    0.00078167
     atom   10 type  2   force =    -0.00005515    0.00100398    0.00259843
     atom   11 type  2   force =     0.00046687   -0.00069245    0.00379145
     atom   12 type  2   force =     0.00046896   -0.00064418    0.00104804
     atom   13 type  2   force =    -0.00004338   -0.00010704    0.00032928
     atom   14 type  2   force =    -0.00088237    0.00050355    0.00164642
     atom   15 type  2   force =    -0.00104027   -0.00052512    0.00341127
     atom   16 type  2   force =    -0.00015262   -0.00106691    0.00182871
     atom   17 type  1   force =     0.00008280    0.00024614   -0.00058043
     atom   18 type  1   force =     0.00080073    0.00058356   -0.00020460
     atom   19 type  1   force =     0.00034071   -0.00000720   -0.00034472
     atom   20 type  1   force =    -0.00035859   -0.00030555   -0.00058909
     atom   21 type  1   force =    -0.00006592    0.00064881   -0.00050847
     atom   22 type  1   force =     0.00016662    0.00115434   -0.00009421
     atom   23 type  1   force =     0.00134312   -0.00001089   -0.00027705
     atom   24 type  1   force =     0.00076528   -0.00060198   -0.00019089
     atom   25 type  1   force =     0.00005611   -0.00016156   -0.00059736
     atom   26 type  1   force =     0.00019347   -0.00024352   -0.00148281
     atom   27 type  1   force =    -0.00090462    0.00042983   -0.00274590
     atom   28 type  1   force =    -0.00021975   -0.00099881   -0.00033725
     atom   29 type  1   force =    -0.00005000   -0.00061178   -0.00054836
     atom   30 type  1   force =    -0.00043462    0.00032398   -0.00054744
     atom   31 type  1   force =    -0.00045836    0.00017237   -0.00112742
     atom   32 type  1   force =     0.00060184   -0.00057233   -0.00103944
     atom   33 type  1   force =     0.00001542    0.00001594    0.00095745
     atom   34 type  1   force =     0.00002742    0.00000324    0.00098754
     atom   35 type  1   force =    -0.00000980    0.00000172    0.00096885
     atom   36 type  1   force =     0.00001033    0.00001019    0.00093951
     atom   37 type  1   force =    -0.00001751   -0.00003641    0.00096603
     atom   38 type  1   force =     0.00000253    0.00001106    0.00119946
     atom   39 type  1   force =     0.00002160   -0.00001393    0.00120935
     atom   40 type  1   force =    -0.00003531    0.00001516    0.00097713
     atom   41 type  1   force =    -0.00000308   -0.00001634    0.00095927
     atom   42 type  1   force =    -0.00000789    0.00003142    0.00112347
     atom   43 type  1   force =     0.00000900    0.00001039    0.00143329
     atom   44 type  1   force =     0.00001666   -0.00002404    0.00118960
     atom   45 type  1   force =     0.00000591   -0.00000586    0.00097140
     atom   46 type  1   force =     0.00000648    0.00001492    0.00096223
     atom   47 type  1   force =    -0.00001250    0.00000469    0.00111201
     atom   48 type  1   force =    -0.00002887   -0.00002271    0.00111744
     atom   49 type  3   force =    -0.00086038    0.00011901   -0.00785398
     atom   50 type  3   force =    -0.00241150   -0.00340174   -0.00547844
     atom   51 type  3   force =     0.00139101    0.00051070   -0.00557073
     atom   52 type  3   force =    -0.00097601    0.00272295   -0.00647003
     atom   53 type  3   force =     0.00118324    0.00018904   -0.00196753
     atom   54 type  4   force =     0.00010345    0.00007889   -0.00074310
     atom   55 type  5   force =    -0.00030117    0.00005656   -0.00098044
     atom   56 type  6   force =     0.00005460    0.00013180    0.00020981
     atom   57 type  6   force =    -0.00021430   -0.00013787    0.00007949
     atom   58 type  6   force =     0.00011171   -0.00022469    0.00013658

     Total force =     0.019964     Total SCF correction =     0.000024

     DFT-D3 dispersion Force =     0.017430


     Computing stress (Cartesian axis) and pressure


     negative rho (up, down):  4.797E-03 5.164E-03
          total   stress  (Ry/bohr**3)                   (kbar)     P=       -1.43
  -0.00001024  -0.00000123   0.00000085           -1.51       -0.18        0.13
  -0.00000123  -0.00000868  -0.00000055           -0.18       -1.28       -0.08
   0.00000085  -0.00000055  -0.00001019            0.13       -0.08       -1.50

     kinetic stress (kbar)   7256.40     -1.08     -9.29
                               -1.08   7272.90     -0.47
                               -9.29     -0.47   7301.77

     local   stress (kbar)-135463.21    -63.60    519.51
                              -63.60-134010.15    219.82
                              519.51    219.82 134100.91

     nonloc. stress (kbar)  -1419.22     -0.12      0.31
                               -0.12  -1420.45      0.33
                                0.31      0.33  -1427.30

     hartree stress (kbar)  68218.19     29.45   -249.32
                               29.45  67562.19   -102.81
                             -249.32   -102.81 -63301.40

     exc-cor stress (kbar)   2000.75      0.00     -0.00
                                0.00   2000.33     -0.04
                               -0.00     -0.04   2000.28

     corecor stress (kbar)  -3626.55      0.04      0.05
                                0.04  -3626.83      0.01
                                0.05      0.01  -3627.24

     ewald   stress (kbar)  63036.41     35.11   -261.09
                               35.11  62224.97   -116.92
                             -261.09   -116.92 -75045.96

     hubbard stress (kbar)      0.00      0.00      0.00
                                0.00      0.00      0.00
                                0.00      0.00      0.00

     DFT-D   stress (kbar)     -4.26      0.02     -0.04
                                0.02     -4.22      0.01
                               -0.04      0.01     -2.55

     XDM     stress (kbar)      0.00      0.00      0.00
                                0.00      0.00      0.00
                                0.00      0.00      0.00

     dft-nl  stress (kbar)      0.00      0.00      0.00
                                0.00      0.00      0.00
                                0.00      0.00      0.00

     TS-vdW  stress (kbar)      0.00      0.00      0.00
                                0.00      0.00      0.00
                                0.00      0.00      0.00

     MDB     stress (kbar)      0.00      0.00      0.00
                                0.00      0.00      0.00
                                0.00      0.00      0.00

     3D-RISM stress (kbar)      0.00      0.00      0.00
                                0.00      0.00      0.00
                                0.00      0.00      0.00


     Writing all to output data dir ./Ag-WS2-H2NOH.save/ :
     XML data file, charge density, pseudopotentials, collected wavefunctions

     init_run     :    183.32s CPU    188.01s WALL (       1 calls)
     electrons    :  10093.55s CPU  10293.59s WALL (       1 calls)
     forces       :     36.11s CPU     37.38s WALL (       1 calls)
     force_dftd3  :      0.11s CPU      0.12s WALL (       1 calls)
     stress       :    128.09s CPU    131.71s WALL (       1 calls)
     stres_dftd3  :      0.11s CPU      0.13s WALL (       1 calls)

     Called by init_run:
     wfcinit      :    174.90s CPU    178.96s WALL (       1 calls)
     wfcinit:atom :      0.67s CPU      0.69s WALL (      26 calls)
     wfcinit:wfcr :    170.59s CPU    174.50s WALL (      26 calls)
     potinit      :      2.81s CPU      2.95s WALL (       1 calls)
     hinit0       :      1.72s CPU      1.81s WALL (       1 calls)

     Called by electrons:
     c_bands      :   8742.56s CPU   8901.36s WALL (      32 calls)
     sum_band     :   1256.18s CPU   1286.40s WALL (      32 calls)
     v_of_rho     :     16.41s CPU     17.49s WALL (      32 calls)
     v_h          :      0.80s CPU      0.90s WALL (      32 calls)
     v_xc         :     16.51s CPU     17.54s WALL (      34 calls)
     newd         :     45.18s CPU     54.21s WALL (      32 calls)
     PAW_pot      :     29.92s CPU     30.29s WALL (      32 calls)
     mix_rho      :      4.12s CPU      4.40s WALL (      32 calls)
     energy_dftd3 :      0.06s CPU      0.06s WALL (       1 calls)

     Called by c_bands:
     init_us_2    :    102.85s CPU    105.62s WALL (    1742 calls)
     cegterg      :   8610.02s CPU   8765.84s WALL (     832 calls)

     Called by sum_band:
     sum_band:wei :      0.01s CPU      0.01s WALL (      32 calls)
     sum_band:loo :   1171.87s CPU   1190.58s WALL (      32 calls)
     sum_band:buf :      9.20s CPU      9.43s WALL (     832 calls)
     sum_band:ini :     49.21s CPU     50.42s WALL (     832 calls)
     sum_band:cal :    245.47s CPU    252.35s WALL (     832 calls)
     sum_band:bec :      3.38s CPU      3.44s WALL (     832 calls)
     addusdens    :     81.12s CPU     92.43s WALL (      32 calls)
                                        0.00s GPU  (      32 calls)
     addusd:skk   :      1.18s CPU      1.32s WALL (     192 calls)
                                        0.00s GPU  (     192 calls)

     Called by *egterg:
     cdiaghg      :    471.00s CPU    490.31s WALL (    6006 calls)
     cegterg:over :    459.21s CPU    470.69s WALL (    5200 calls)
     cegterg:upda :    215.51s CPU    219.59s WALL (    5200 calls)
     cegterg:last :    404.10s CPU    411.17s WALL (    1694 calls)
     cdiaghg:chol :     40.13s CPU     40.47s WALL (    6006 calls)
     cdiaghg:inve :      6.60s CPU      6.67s WALL (    6006 calls)
     cdiaghg:para :    133.53s CPU    145.09s WALL (   12012 calls)
     h_psi        :   6498.07s CPU   6597.68s WALL (    6058 calls)
     s_psi        :    568.67s CPU    575.64s WALL (    6058 calls)
     g_psi        :      8.06s CPU      8.34s WALL (    5200 calls)

     Called by h_psi:
     h_psi:calbec :    780.37s CPU    801.76s WALL (    6058 calls)
     vloc_psi     :   5109.14s CPU   5177.12s WALL (    6058 calls)
     add_vuspsi   :    585.78s CPU    594.09s WALL (    6058 calls)

     General routines
     calbec       :   1142.27s CPU   1174.01s WALL (    7332 calls)
     fft          :     17.89s CPU     19.40s WALL (     840 calls)
     ffts         :      1.63s CPU      1.73s WALL (     128 calls)
     fftw         :   5456.86s CPU   5522.03s WALL ( 1219768 calls)
     interpolate  :      2.56s CPU      2.70s WALL (      64 calls)

     Parallel routines

     PAW routines
     PAW_pot      :     29.92s CPU     30.29s WALL (      32 calls)

     PWSCF        :  10449.32s CPU  10692.00s WALL


   This run was terminated on:   7:45:55   2Aug2026            

=------------------------------------------------------------------------------=
   JOB DONE.
=------------------------------------------------------------------------------=
