
     Program PWSCF v.7.4.1 starts on  1Aug2026 at  2:53:11 

     This program is part of the open-source Quantum ESPRESSO suite
     for quantum simulation of materials; please cite
         "P. Giannozzi et al., J. Phys.:Condens. Matter 21 395502 (2009);
         "P. Giannozzi et al., J. Phys.:Condens. Matter 29 465901 (2017);
         "P. Giannozzi et al., J. Chem. Phys. 152 154105 (2020);
          URL http://www.quantum-espresso.org", 
     in publications or presentations arising from this work. More details at
     http://www.quantum-espresso.org/quote

     Parallel version (MPI & OpenMP), running on      64 processor cores
     Number of MPI processes:                64
     Threads/MPI process:                     1

     MPI processes distributed on     1 nodes
     96830 MiB available memory on the printing compute node when the environment starts

     Reading input from disp_009_atom55_+1y.in

     Current dimensions of program PWSCF are:
     Max number of different atomic species (ntypx) = 10
     Max number of k-points (npk) =  40000
     Max angular momentum in pseudopotentials (lmaxx) =  4
     file S.pbe-n-kjpaw_psl.1.0.0.UPF: wavefunction(s)  3S 3P renormalized
     file W.pbe-spn-kjpaw_psl.1.0.0.UPF: wavefunction(s)  6S 5P 5D renormalized
     file Ag.pbe-n-kjpaw_psl.1.0.0.UPF: wavefunction(s)  5S 5P renormalized
     file N.pbe-n-kjpaw_psl.1.0.0.UPF: wavefunction(s)  2S renormalized
     file O.pbe-n-kjpaw_psl.1.0.0.UPF: wavefunction(s)  2S 2P renormalized
     file H.pbe-kjpaw_psl.1.0.0.UPF: wavefunction(s)  1S renormalized
     Message from routine setup:
     the system is metallic, specify occupations

     R & G space division:  proc/nbgrp/npool/nimage =      64
     Subspace diagonalization in iterative solution of the eigenvalue problem:
     one sub-group per band group will be used
     ELPA distributed-memory algorithm (size of sub-group:  2*  2 procs)


     Parallelization info
     --------------------
     sticks:   dense  smooth     PW     G-vecs:    dense   smooth      PW
     Min         247     123     32                39673    14017    1874
     Max         248     124     33                39680    14030    1885
     Sum       15841    7909   2065              2539249   897387  120111

     Using Slab Decomposition



     bravais-lattice index     =            0
     lattice parameter (alat)  =      23.9624  a.u.
     unit-cell volume          =   18794.0729 (a.u.)^3
     number of atoms/cell      =           58
     number of atomic types    =            6
     number of electrons       =       485.00 (up: 243.00, down: 242.00)
     number of Kohn-Sham states=          243
     kinetic-energy cutoff     =      50.0000  Ry
     charge density cutoff     =     400.0000  Ry
     scf convergence threshold =      1.0E-10
     mixing beta               =       0.4000
     number of iterations used =            8  plain     mixing
     Exchange-correlation= SLA  PW   PBX  PBC
                           (   1   4   3   4   0   0   0)

     celldm(1)=  23.962422  celldm(2)=   0.000000  celldm(3)=   0.000000
     celldm(4)=   0.000000  celldm(5)=   0.000000  celldm(6)=   0.000000

     crystal axes: (cart. coord. in units of alat)
               a(1) = (   1.000000   0.000000   0.000000 )  
               a(2) = (  -0.500000   0.866025   0.000000 )  
               a(3) = (   0.000000   0.000000   1.577241 )  

     reciprocal axes: (cart. coord. in units 2 pi/alat)
               b(1) = (  1.000000  0.577350 -0.000000 )  
               b(2) = (  0.000000  1.154701  0.000000 )  
               b(3) = (  0.000000 -0.000000  0.634018 )  


     PseudoPot. # 1 for S  read from file:
     /share/work_r640/fmigm008/pseudo/S.pbe-n-kjpaw_psl.1.0.0.UPF
     MD5 check sum: fb45dfebcf3e72a4e1bd4a866ec2e262
     Pseudo is Projector augmented-wave + core cor, Zval =  6.0
     Generated using &quot;atomic&quot; code by A. Dal Corso  v.6.3
     Shape of augmentation charge: PSQ
     Using radial grid of 1151 points,  6 beta functions with: 
                l(1) =   0
                l(2) =   0
                l(3) =   1
                l(4) =   1
                l(5) =   2
                l(6) =   2
     Q(r) pseudized with 0 coefficients 


     PseudoPot. # 2 for W  read from file:
     /share/work_r640/fmigm008/pseudo/W.pbe-spn-kjpaw_psl.1.0.0.UPF
     MD5 check sum: 03c3df5b60893f488392c7401945500a
     Pseudo is Projector augmented-wave + core cor, Zval = 14.0
     Generated using &quot;atomic&quot; code by A. Dal Corso  v.6.2.2
     Shape of augmentation charge: PSQ
     Using radial grid of 1273 points,  6 beta functions with: 
                l(1) =   0
                l(2) =   0
                l(3) =   1
                l(4) =   1
                l(5) =   2
                l(6) =   2
     Q(r) pseudized with 0 coefficients 


     PseudoPot. # 3 for Ag read from file:
     /share/work_r640/fmigm008/pseudo/Ag.pbe-n-kjpaw_psl.1.0.0.UPF
     MD5 check sum: 51099775af2a3182a6a1caffb86952a3
     Pseudo is Projector augmented-wave + core cor, Zval = 11.0
     Generated using &quot;atomic&quot; code by A. Dal Corso  v.6.2.2
     Shape of augmentation charge: PSQ
     Using radial grid of 1237 points,  6 beta functions with: 
                l(1) =   0
                l(2) =   0
                l(3) =   1
                l(4) =   1
                l(5) =   2
                l(6) =   2
     Q(r) pseudized with 0 coefficients 


     PseudoPot. # 4 for N  read from file:
     /share/work_r640/fmigm008/pseudo/N.pbe-n-kjpaw_psl.1.0.0.UPF
     MD5 check sum: 14c48229446f9f2d411169a3abcbc3fa
     Pseudo is Projector augmented-wave + core cor, Zval =  5.0
     Generated using &quot;atomic&quot; code by A. Dal Corso  v.6.3
     Shape of augmentation charge: PSQ
     Using radial grid of 1085 points,  4 beta functions with: 
                l(1) =   0
                l(2) =   0
                l(3) =   1
                l(4) =   1
     Q(r) pseudized with 0 coefficients 


     PseudoPot. # 5 for O  read from file:
     /share/work_r640/fmigm008/pseudo/O.pbe-n-kjpaw_psl.1.0.0.UPF
     MD5 check sum: e99d9cef9b487d1ca56f5b95ecd0fd7a
     Pseudo is Projector augmented-wave + core cor, Zval =  6.0
     Generated using &quot;atomic&quot; code by A. Dal Corso  v.6.3
     Shape of augmentation charge: PSQ
     Using radial grid of 1095 points,  4 beta functions with: 
                l(1) =   0
                l(2) =   0
                l(3) =   1
                l(4) =   1
     Q(r) pseudized with 0 coefficients 


     PseudoPot. # 6 for H  read from file:
     /share/work_r640/fmigm008/pseudo/H.pbe-kjpaw_psl.1.0.0.UPF
     MD5 check sum: d81a744832360e4a8af0b0b5b123bc2a
     Pseudo is Projector augmented-wave, Zval =  1.0
     Generated using &quot;atomic&quot; code by A. Dal Corso  v.6.3MaX
     Shape of augmentation charge: PSQ
     Using radial grid of  929 points,  2 beta functions with: 
                l(1) =   0
                l(2) =   0
     Q(r) pseudized with 0 coefficients 


     atomic species   valence    mass     pseudopotential
     S                 6.00    32.06500     S ( 1.00)
     W                14.00   183.84000     W ( 1.00)
     Ag               11.00   107.87000     Ag( 1.00)
     N                 5.00    14.00700     N ( 1.00)
     O                 6.00    15.99900     O ( 1.00)
     H                 1.00     1.00800     H ( 1.00)

     Starting magnetic structure 
     atomic species   magnetization
     S               0.000
     W               0.000
     Ag              0.000
     N               0.000
     O               0.000
     H               0.000

     No symmetry found


                                    s                        frac. trans.

      isym =  1     identity                                     

 cryst.   s( 1) = (     1          0          0      )
                  (     0          1          0      )
                  (     0          0          1      )

 cart.    s( 1) = (  1.0000000  0.0000000  0.0000000 )
                  (  0.0000000  1.0000000  0.0000000 )
                  (  0.0000000  0.0000000  1.0000000 )


   Cartesian axes

     site n.     atom                  positions (alat units)
         1        W      tau(   1) = (  -0.0028587   0.1395947   0.2444812  )
         2        W      tau(   2) = (  -0.1282026   0.3564836   0.2443568  )
         3        W      tau(   3) = (  -0.2537731   0.5727289   0.2442261  )
         4        W      tau(   4) = (  -0.3783723   0.7888166   0.2441498  )
         5        W      tau(   5) = (   0.2469096   0.1395426   0.2440120  )
         6        W      tau(   6) = (   0.1225026   0.3570726   0.2432304  )
         7        W      tau(   7) = (  -0.0034888   0.5727502   0.2429844  )
         8        W      tau(   8) = (  -0.1283671   0.7891505   0.2439766  )
         9        W      tau(   9) = (   0.4969194   0.1397378   0.2430413  )
        10        W      tau(  10) = (   0.3721499   0.3552416   0.2405337  )
        11        W      tau(  11) = (   0.2452295   0.5727639   0.2402480  )
        12        W      tau(  12) = (   0.1220165   0.7890246   0.2436243  )
        13        W      tau(  13) = (   0.7467445   0.1394449   0.2440642  )
        14        W      tau(  14) = (   0.6211264   0.3563823   0.2436826  )
        15        W      tau(  15) = (   0.4971469   0.5732720   0.2421413  )
        16        W      tau(  16) = (   0.3721785   0.7886524   0.2428338  )
        17        S      tau(  17) = (   0.1219502   0.0672380   0.3684592  )
        18        S      tau(  18) = (  -0.0024014   0.2846735   0.3681910  )
        19        S      tau(  19) = (  -0.1281525   0.5008469   0.3682441  )
        20        S      tau(  20) = (  -0.2533258   0.7170167   0.3685687  )
        21        S      tau(  21) = (   0.3722606   0.0676427   0.3679766  )
        22        S      tau(  22) = (   0.2484890   0.2849851   0.3676532  )
        23        S      tau(  23) = (   0.1218721   0.5017515   0.3660861  )
        24        S      tau(  24) = (  -0.0030403   0.7167922   0.3679041  )
        25        S      tau(  25) = (   0.6215745   0.0674060   0.3678624  )
        26        S      tau(  26) = (   0.4959803   0.2843589   0.3667029  )
        27        S      tau(  27) = (   0.3710177   0.5007270   0.3638206  )
        28        S      tau(  28) = (   0.2481984   0.7153351   0.3669892  )
        29        S      tau(  29) = (   0.8717811   0.0668114   0.3679626  )
        30        S      tau(  30) = (   0.7463862   0.2840842   0.3681041  )
        31        S      tau(  31) = (   0.6195449   0.5004430   0.3687043  )
        32        S      tau(  32) = (   0.4956231   0.7159829   0.3681683  )
        33        S      tau(  33) = (   0.1218639   0.0672424   0.1203644  )
        34        S      tau(  34) = (  -0.0031686   0.2839920   0.1203246  )
        35        S      tau(  35) = (  -0.1290559   0.5005458   0.1199474  )
        36        S      tau(  36) = (  -0.2533637   0.7168463   0.1201865  )
        37        S      tau(  37) = (   0.3715067   0.0672515   0.1197328  )
        38        S      tau(  38) = (   0.2459712   0.2831895   0.1185177  )
        39        S      tau(  39) = (   0.1200987   0.4999851   0.1172124  )
        40        S      tau(  40) = (  -0.0034124   0.7174366   0.1195727  )
        41        S      tau(  41) = (   0.6220409   0.0671938   0.1195919  )
        42        S      tau(  42) = (   0.4978914   0.2834015   0.1177695  )
        43        S      tau(  43) = (   0.3720771   0.5008174   0.1169455  )
        44        S      tau(  44) = (   0.2466393   0.7180153   0.1180007  )
        45        S      tau(  45) = (   0.8722199   0.0680125   0.1199081  )
        46        S      tau(  46) = (   0.7469729   0.2840633   0.1202901  )
        47        S      tau(  47) = (   0.6222799   0.5003741   0.1191499  )
        48        S      tau(  48) = (   0.4972527   0.7176301   0.1185580  )
        49        Ag     tau(  49) = (   0.1547683   0.5150674   0.5753024  )
        50        Ag     tau(  50) = (   0.3069329   0.3595674   0.5464056  )
        51        Ag     tau(  51) = (   0.5024756   0.4743393   0.5615070  )
        52        Ag     tau(  52) = (   0.3399570   0.6321033   0.5430870  )
        53        Ag     tau(  53) = (   0.3428646   0.4953663   0.7084671  )
        54        N      tau(  54) = (   0.2596825   0.4648737   0.8674395  )
        55        O      tau(  55) = (   0.1477385   0.4525404   0.8500100  )
        56        H      tau(  56) = (   0.2650389   0.5234661   0.9229976  )
        57        H      tau(  57) = (   0.1408570   0.4629232   0.7729758  )
        58        H      tau(  58) = (   0.2837088   0.3964009   0.9032094  )

     --------------------------------------------
     DFT-D3 Dispersion Correction (3-body terms):
     --------------------------------------------
       Reference C6 values for interpolation: 

         atom   Coordination number   C6
         H          0.912             6.05
         H          0.000            15.18
         N          0.000            50.54
         N          0.994            44.25
         N          2.014            39.35
         N          2.990            31.16
         O          0.000            31.01
         O          0.993            25.63
         O          1.989            20.74
         S          0.000           268.01
         S          0.995           261.99
         S          1.990           251.62
         Ag         0.000           853.49
         Ag         0.968           537.23
         W          0.000          1628.72
         W          1.929          1086.81
         W         10.915           796.19

       Values used:

         atom   Coordination number  R0_AB[au]  C6      C8
         W          9.805            3.766    796.19 128250.55
         W          9.806            3.766    796.19 128250.55
         W          9.854            3.766    796.19 128250.55
         W          9.866            3.766    796.19 128250.55
         W          9.842            3.766    796.19 128250.55
         W          9.851            3.766    796.19 128250.55
         W          9.870            3.766    796.19 128250.55
         W          9.833            3.766    796.19 128250.55
         W          9.854            3.766    796.19 128250.55
         W          9.880            3.766    796.19 128250.55
         W          9.879            3.766    796.19 128250.55
         W          9.846            3.766    796.19 128250.55
         W          9.811            3.766    796.19 128250.55
         W          9.849            3.766    796.19 128250.55
         W          9.870            3.766    796.19 128250.55
         W          9.855            3.766    796.19 128250.55
         S          3.670            3.128    251.62  12327.25
         S          3.672            3.128    251.62  12327.25
         S          3.679            3.128    251.62  12327.25
         S          3.675            3.128    251.62  12327.25
         S          3.690            3.128    251.62  12327.25
         S          4.579            3.128    251.62  12327.25
         S          4.512            3.128    251.62  12327.25
         S          3.693            3.128    251.62  12327.25
         S          3.676            3.128    251.62  12327.25
         S          3.843            3.128    251.62  12327.25
         S          4.976            3.128    251.62  12327.25
         S          4.443            3.128    251.62  12327.25
         S          3.677            3.128    251.62  12327.25
         S          3.672            3.128    251.62  12327.25
         S          4.198            3.128    251.62  12327.25
         S          3.918            3.128    251.62  12327.25
         S          3.700            3.128    251.62  12327.25
         S          3.699            3.128    251.62  12327.25
         S          3.697            3.128    251.62  12327.25
         S          3.697            3.128    251.62  12327.25
         S          3.689            3.128    251.62  12327.25
         S          3.673            3.128    251.62  12327.25
         S          3.669            3.128    251.62  12327.25
         S          3.689            3.128    251.62  12327.25
         S          3.693            3.128    251.62  12327.25
         S          3.672            3.128    251.62  12327.25
         S          3.662            3.128    251.62  12327.25
         S          3.672            3.128    251.62  12327.25
         S          3.693            3.128    251.62  12327.25
         S          3.697            3.128    251.62  12327.25
         S          3.686            3.128    251.62  12327.25
         S          3.680            3.128    251.62  12327.25
         Ag         3.221            3.147    537.23  47741.54
         Ag         3.973            3.147    537.23  47741.54
         Ag         3.317            3.147    537.23  47741.54
         Ag         4.158            3.147    537.23  47741.54
         Ag         4.123            3.147    537.23  47741.54
         N          3.752            2.478     31.16    687.50
         O          2.002            2.345     20.82    420.10
         H          1.006            2.062      6.18     74.66
         H          1.031            2.062      6.16     74.41
         H          1.006            2.062      6.18     74.65

         Molecular C6 ( Ry / a.u.^6 ) =   1190031.12


   Crystallographic axes

     site n.     atom                  positions (cryst. coord.)
         1        W      tau(   1) = (  0.0777364  0.1611901  0.1550056  )
         2        W      tau(   2) = (  0.0776133  0.4116318  0.1549267  )
         3        W      tau(   3) = (  0.0768921  0.6613303  0.1548438  )
         4        W      tau(   4) = (  0.0770512  0.9108469  0.1547955  )
         5        W      tau(   5) = (  0.3274746  0.1611299  0.1547081  )
         6        W      tau(   6) = (  0.3286586  0.4123119  0.1542125  )
         7        W      tau(   7) = (  0.3271886  0.6613549  0.1540566  )
         8        W      tau(   8) = (  0.3272492  0.9112326  0.1546856  )
         9        W      tau(   9) = (  0.5775970  0.1613553  0.1540926  )
        10        W      tau(  10) = (  0.5772488  0.4101977  0.1525028  )
        11        W      tau(  11) = (  0.5759149  0.6613708  0.1523217  )
        12        W      tau(  12) = (  0.5775601  0.9110871  0.1544623  )
        13        W      tau(  13) = (  0.8272530  0.1610171  0.1547412  )
        14        W      tau(  14) = (  0.8268839  0.4115149  0.1544993  )
        15        W      tau(  15) = (  0.8281256  0.6619575  0.1535220  )
        16        W      tau(  16) = (  0.8275072  0.9106573  0.1539611  )
        17        S      tau(  17) = (  0.1607701  0.0776397  0.2336099  )
        18        S      tau(  18) = (  0.1619549  0.3287126  0.2334399  )
        19        S      tau(  19) = (  0.1610116  0.5783281  0.2334735  )
        20        S      tau(  20) = (  0.1606439  0.8279395  0.2336794  )
        21        S      tau(  21) = (  0.4113141  0.0781070  0.2333040  )
        22        S      tau(  22) = (  0.4130252  0.3290725  0.2330989  )
        23        S      tau(  23) = (  0.4115585  0.5793727  0.2321053  )
        24        S      tau(  24) = (  0.4107998  0.8276803  0.2332579  )
        25        S      tau(  25) = (  0.6604913  0.0778337  0.2332315  )
        26        S      tau(  26) = (  0.6601550  0.3283494  0.2324963  )
        27        S      tau(  27) = (  0.6601125  0.5781897  0.2306689  )
        28        S      tau(  28) = (  0.6611973  0.8259978  0.2326779  )
        29        S      tau(  29) = (  0.9103547  0.0771472  0.2332950  )
        30        S      tau(  30) = (  0.9104023  0.3280322  0.2333848  )
        31        S      tau(  31) = (  0.9084758  0.5778618  0.2337653  )
        32        S      tau(  32) = (  0.9089960  0.8267459  0.2334255  )
        33        S      tau(  33) = (  0.1606863  0.0776448  0.0763132  )
        34        S      tau(  34) = (  0.1607942  0.3279257  0.0762880  )
        35        S      tau(  35) = (  0.1599344  0.5779805  0.0760488  )
        36        S      tau(  36) = (  0.1605077  0.8277428  0.0762004  )
        37        S      tau(  37) = (  0.4103343  0.0776554  0.0759128  )
        38        S      tau(  38) = (  0.4094707  0.3269991  0.0751424  )
        39        S      tau(  39) = (  0.4087652  0.5773330  0.0743148  )
        40        S      tau(  40) = (  0.4107999  0.8284245  0.0758113  )
        41        S      tau(  41) = (  0.6608352  0.0775887  0.0758235  )
        42        S      tau(  42) = (  0.6615133  0.3272438  0.0746680  )
        43        S      tau(  43) = (  0.6612241  0.5782941  0.0741456  )
        44        S      tau(  44) = (  0.6611856  0.8290927  0.0748146  )
        45        S      tau(  45) = (  0.9114869  0.0785340  0.0760239  )
        46        S      tau(  46) = (  0.9109769  0.3280081  0.0762661  )
        47        S      tau(  47) = (  0.9111710  0.5777822  0.0755432  )
        48        S      tau(  48) = (  0.9115766  0.8286478  0.0751680  )
        49        Ag     tau(  49) = (  0.4521427  0.5947486  0.3647523  )
        50        Ag     tau(  50) = (  0.5145293  0.4151927  0.3464312  )
        51        Ag     tau(  51) = (  0.7763355  0.5477198  0.3560058  )
        52        Ag     tau(  52) = (  0.7049020  0.7298900  0.3443271  )
        53        Ag     tau(  53) = (  0.6288645  0.5719998  0.4491812  )
        54        N      tau(  54) = (  0.5280775  0.5367899  0.5499726  )
        55        O      tau(  55) = (  0.4090128  0.5225486  0.5389220  )
        56        H      tau(  56) = (  0.5672622  0.6044466  0.5851974  )
        57        H      tau(  57) = (  0.4081259  0.5345377  0.4900809  )
        58        H      tau(  58) = (  0.5125710  0.4577243  0.5726514  )

     number of k points=    13
                       cart. coord. in units 2pi/alat
        k(    1) = (   0.0000000   0.0000000   0.0000000), wk =   0.0400000
        k(    2) = (   0.0000000   0.2309401   0.0000000), wk =   0.0800000
        k(    3) = (   0.0000000   0.4618802   0.0000000), wk =   0.0800000
        k(    4) = (   0.2000000   0.3464102   0.0000000), wk =   0.0800000
        k(    5) = (   0.2000000   0.5773503   0.0000000), wk =   0.0800000
        k(    6) = (  -0.2000000   0.1154701   0.0000000), wk =   0.0800000
        k(    7) = (   0.2000000   0.1154701   0.0000000), wk =   0.0800000
        k(    8) = (  -0.4000000   0.2309401   0.0000000), wk =   0.0800000
        k(    9) = (   0.4000000   0.2309401   0.0000000), wk =   0.0800000
        k(   10) = (  -0.2000000   0.3464102   0.0000000), wk =   0.0800000
        k(   11) = (   0.4000000  -0.0000000   0.0000000), wk =   0.0800000
        k(   12) = (  -0.4000000   0.4618802   0.0000000), wk =   0.0800000
        k(   13) = (   0.6000000   0.1154701   0.0000000), wk =   0.0800000

                       cryst. coord.
        k(    1) = (   0.0000000   0.0000000   0.0000000), wk =   0.0400000
        k(    2) = (   0.0000000   0.2000000   0.0000000), wk =   0.0800000
        k(    3) = (   0.0000000   0.4000000   0.0000000), wk =   0.0800000
        k(    4) = (   0.2000000   0.2000000   0.0000000), wk =   0.0800000
        k(    5) = (   0.2000000   0.4000000   0.0000000), wk =   0.0800000
        k(    6) = (  -0.2000000   0.2000000   0.0000000), wk =   0.0800000
        k(    7) = (   0.2000000   0.0000000   0.0000000), wk =   0.0800000
        k(    8) = (  -0.4000000   0.4000000   0.0000000), wk =   0.0800000
        k(    9) = (   0.4000000   0.0000000   0.0000000), wk =   0.0800000
        k(   10) = (  -0.2000000   0.4000000   0.0000000), wk =   0.0800000
        k(   11) = (   0.4000000  -0.2000000   0.0000000), wk =   0.0800000
        k(   12) = (  -0.4000000   0.6000000   0.0000000), wk =   0.0800000
        k(   13) = (   0.6000000  -0.2000000   0.0000000), wk =   0.0800000

     Dense  grid:  2539249 G-vectors     FFT dimensions: ( 160, 160, 243)

     Smooth grid:   897387 G-vectors     FFT dimensions: ( 108, 108, 180)

     Dynamical RAM for                 wfc:       6.50 MB

     Dynamical RAM for     wfc (w. buffer):     175.50 MB

     Dynamical RAM for           str. fact:       3.63 MB

     Dynamical RAM for           local pot:       0.00 MB

     Dynamical RAM for          nlocal pot:      26.11 MB

     Dynamical RAM for                qrad:       9.63 MB

     Dynamical RAM for          rho,v,vnew:       8.32 MB

     Dynamical RAM for               rhoin:       2.77 MB

     Dynamical RAM for            rho*nmix:      19.38 MB

     Dynamical RAM for           G-vectors:       2.38 MB

     Dynamical RAM for          h,s,v(r/c):       2.70 MB

     Dynamical RAM for          <psi|beta>:       3.62 MB

     Dynamical RAM for                 psi:      13.00 MB

     Dynamical RAM for                hpsi:      13.00 MB

     Dynamical RAM for                spsi:      13.00 MB

     Dynamical RAM for      wfcinit/wfcrot:      14.35 MB

     Dynamical RAM for           addusdens:     132.60 MB

     Dynamical RAM for          addusforce:     170.39 MB

     Dynamical RAM for         addusstress:     122.61 MB

     Estimated static dynamical RAM per process >     237.27 MB

     Estimated max dynamical RAM per process >     427.03 MB

     Estimated total dynamical RAM >      26.69 GB
     Generating pointlists ...
     new r_m :   0.0782 (alat units)  1.8731 (a.u.) for type    1
     new r_m :   0.0782 (alat units)  1.8731 (a.u.) for type    2
     new r_m :   0.0751 (alat units)  1.7989 (a.u.) for type    3
     new r_m :   0.0334 (alat units)  0.7997 (a.u.) for type    4
     new r_m :   0.0322 (alat units)  0.7713 (a.u.) for type    5
     new r_m :   0.0322 (alat units)  0.7713 (a.u.) for type    6

     Initial potential from superposition of free atoms

     starting charge     484.9880, renormalised to     485.0000

     negative rho (up, down):  1.010E-03 1.010E-03
     Starting wfcs are  392 randomized atomic wfcs
     Checking if some PAW data can be deallocated... 
       PAW data deallocated on   32 nodes for type:  1
       PAW data deallocated on   42 nodes for type:  2
       PAW data deallocated on   59 nodes for type:  3
       PAW data deallocated on   63 nodes for type:  4
       PAW data deallocated on   63 nodes for type:  5
       PAW data deallocated on   61 nodes for type:  6

     total cpu time spent up to now is      184.8 secs

     per-process dynamical memory:   308.7 Mb

     Self-consistent Calculation

     iteration #  1     ecut=    50.00 Ry     beta= 0.40
     Davidson diagonalization with overlap

---- Real-time Memory Report at c_bands before calling an iterative solver
           365 MiB given to the printing process from OS
           301 MiB allocation reported by mallinfo(arena+hblkhd)
         78707 MiB available memory on the node where the printing process lives
------------------
     ethr =  1.00E-02,  avg # of iterations =  2.0

     Threshold (ethr) on eigenvalues was too large:
     Diagonalizing with lowered threshold

     Davidson diagonalization with overlap

---- Real-time Memory Report at c_bands before calling an iterative solver
           471 MiB given to the printing process from OS
           304 MiB allocation reported by mallinfo(arena+hblkhd)
         77372 MiB available memory on the node where the printing process lives
------------------
     ethr =  4.34E-04,  avg # of iterations =  4.8

     negative rho (up, down):  1.026E-02 6.718E-03

     total cpu time spent up to now is      921.6 secs

     total energy              =  -16138.22522092 Ry
     estimated scf accuracy    <       2.44213028 Ry

     total magnetization       =     1.00 Bohr mag/cell
     absolute magnetization    =     4.14 Bohr mag/cell

     iteration #  2     ecut=    50.00 Ry     beta= 0.40
     Davidson diagonalization with overlap

---- Real-time Memory Report at c_bands before calling an iterative solver
           479 MiB given to the printing process from OS
           311 MiB allocation reported by mallinfo(arena+hblkhd)
         75124 MiB available memory on the node where the printing process lives
------------------
     ethr =  5.04E-04,  avg # of iterations =  7.3

     negative rho (up, down):  3.210E-02 2.297E-02

     total cpu time spent up to now is     1306.7 secs

     total energy              =  -16138.44700394 Ry
     estimated scf accuracy    <       0.41264704 Ry

     total magnetization       =     1.00 Bohr mag/cell
     absolute magnetization    =     3.05 Bohr mag/cell

     iteration #  3     ecut=    50.00 Ry     beta= 0.40
     Davidson diagonalization with overlap

---- Real-time Memory Report at c_bands before calling an iterative solver
           481 MiB given to the printing process from OS
           312 MiB allocation reported by mallinfo(arena+hblkhd)
         75082 MiB available memory on the node where the printing process lives
------------------
     ethr =  8.51E-05,  avg # of iterations =  8.3

     negative rho (up, down):  3.682E-02 2.751E-02

     total cpu time spent up to now is     1710.7 secs

     total energy              =  -16138.51413520 Ry
     estimated scf accuracy    <       0.22294323 Ry

     total magnetization       =     1.00 Bohr mag/cell
     absolute magnetization    =     2.37 Bohr mag/cell

     iteration #  4     ecut=    50.00 Ry     beta= 0.40
     Davidson diagonalization with overlap

---- Real-time Memory Report at c_bands before calling an iterative solver
           482 MiB given to the printing process from OS
           314 MiB allocation reported by mallinfo(arena+hblkhd)
         75003 MiB available memory on the node where the printing process lives
------------------
     ethr =  4.60E-05,  avg # of iterations =  9.8

     negative rho (up, down):  3.088E-02 2.401E-02

     total cpu time spent up to now is     2079.2 secs

     total energy              =  -16138.54494599 Ry
     estimated scf accuracy    <       0.05188401 Ry

     total magnetization       =     1.00 Bohr mag/cell
     absolute magnetization    =     1.98 Bohr mag/cell

     iteration #  5     ecut=    50.00 Ry     beta= 0.40
     Davidson diagonalization with overlap

---- Real-time Memory Report at c_bands before calling an iterative solver
           510 MiB given to the printing process from OS
           346 MiB allocation reported by mallinfo(arena+hblkhd)
         74526 MiB available memory on the node where the printing process lives
------------------
     ethr =  1.07E-05,  avg # of iterations =  7.2

     negative rho (up, down):  2.122E-02 1.686E-02

     total cpu time spent up to now is     2466.3 secs

     total energy              =  -16138.55004500 Ry
     estimated scf accuracy    <       0.03160208 Ry

     total magnetization       =     1.00 Bohr mag/cell
     absolute magnetization    =     1.71 Bohr mag/cell

     iteration #  6     ecut=    50.00 Ry     beta= 0.40
     Davidson diagonalization with overlap

---- Real-time Memory Report at c_bands before calling an iterative solver
           515 MiB given to the printing process from OS
           347 MiB allocation reported by mallinfo(arena+hblkhd)
         73345 MiB available memory on the node where the printing process lives
------------------
     ethr =  6.52E-06,  avg # of iterations =  7.3

     negative rho (up, down):  1.385E-02 1.145E-02

     total cpu time spent up to now is     2822.2 secs

     total energy              =  -16138.55322383 Ry
     estimated scf accuracy    <       0.01666701 Ry

     total magnetization       =     1.00 Bohr mag/cell
     absolute magnetization    =     1.49 Bohr mag/cell

     iteration #  7     ecut=    50.00 Ry     beta= 0.40
     Davidson diagonalization with overlap

---- Real-time Memory Report at c_bands before calling an iterative solver
           516 MiB given to the printing process from OS
           349 MiB allocation reported by mallinfo(arena+hblkhd)
         74023 MiB available memory on the node where the printing process lives
------------------
     ethr =  3.44E-06,  avg # of iterations =  5.5

     negative rho (up, down):  1.987E-02 2.041E-02

     total cpu time spent up to now is     3156.5 secs

     total energy              =  -16138.55188314 Ry
     estimated scf accuracy    <       0.00828783 Ry

     total magnetization       =     1.00 Bohr mag/cell
     absolute magnetization    =     1.33 Bohr mag/cell

     iteration #  8     ecut=    50.00 Ry     beta= 0.40
     Davidson diagonalization with overlap

---- Real-time Memory Report at c_bands before calling an iterative solver
           517 MiB given to the printing process from OS
           350 MiB allocation reported by mallinfo(arena+hblkhd)
         74041 MiB available memory on the node where the printing process lives
------------------
     ethr =  1.71E-06,  avg # of iterations =  7.9

     negative rho (up, down):  2.104E-02 2.220E-02

     total cpu time spent up to now is     3495.2 secs

     total energy              =  -16138.55149503 Ry
     estimated scf accuracy    <       0.00220740 Ry

     total magnetization       =     1.00 Bohr mag/cell
     absolute magnetization    =     1.22 Bohr mag/cell

     iteration #  9     ecut=    50.00 Ry     beta= 0.40
     Davidson diagonalization with overlap

---- Real-time Memory Report at c_bands before calling an iterative solver
           518 MiB given to the printing process from OS
           351 MiB allocation reported by mallinfo(arena+hblkhd)
         74073 MiB available memory on the node where the printing process lives
------------------
     ethr =  4.55E-07,  avg # of iterations =  7.8

     negative rho (up, down):  1.522E-02 1.615E-02

     total cpu time spent up to now is     3885.6 secs

     total energy              =  -16138.55341986 Ry
     estimated scf accuracy    <       0.00050563 Ry

     total magnetization       =     1.00 Bohr mag/cell
     absolute magnetization    =     1.17 Bohr mag/cell

     iteration # 10     ecut=    50.00 Ry     beta= 0.40
     Davidson diagonalization with overlap

---- Real-time Memory Report at c_bands before calling an iterative solver
           519 MiB given to the printing process from OS
           352 MiB allocation reported by mallinfo(arena+hblkhd)
         73865 MiB available memory on the node where the printing process lives
------------------
     ethr =  1.04E-07,  avg # of iterations =  7.1

     negative rho (up, down):  1.098E-02 1.175E-02

     total cpu time spent up to now is     4281.4 secs

     total energy              =  -16138.55449414 Ry
     estimated scf accuracy    <       0.00015557 Ry

     total magnetization       =     1.00 Bohr mag/cell
     absolute magnetization    =     1.15 Bohr mag/cell

     iteration # 11     ecut=    50.00 Ry     beta= 0.40
     Davidson diagonalization with overlap

---- Real-time Memory Report at c_bands before calling an iterative solver
           521 MiB given to the printing process from OS
           354 MiB allocation reported by mallinfo(arena+hblkhd)
         73906 MiB available memory on the node where the printing process lives
------------------
     ethr =  3.21E-08,  avg # of iterations =  7.7

     negative rho (up, down):  7.874E-03 8.471E-03

     total cpu time spent up to now is     4723.4 secs

     total energy              =  -16138.55510288 Ry
     estimated scf accuracy    <       0.00010498 Ry

     total magnetization       =     1.00 Bohr mag/cell
     absolute magnetization    =     1.14 Bohr mag/cell

     iteration # 12     ecut=    50.00 Ry     beta= 0.40
     Davidson diagonalization with overlap

---- Real-time Memory Report at c_bands before calling an iterative solver
           523 MiB given to the printing process from OS
           355 MiB allocation reported by mallinfo(arena+hblkhd)
         73894 MiB available memory on the node where the printing process lives
------------------
     ethr =  2.16E-08,  avg # of iterations =  6.7

     negative rho (up, down):  6.009E-03 6.471E-03

     total cpu time spent up to now is     5112.9 secs

     total energy              =  -16138.55536789 Ry
     estimated scf accuracy    <       0.00003052 Ry

     total magnetization       =     1.00 Bohr mag/cell
     absolute magnetization    =     1.13 Bohr mag/cell

     iteration # 13     ecut=    50.00 Ry     beta= 0.40
     Davidson diagonalization with overlap

---- Real-time Memory Report at c_bands before calling an iterative solver
           523 MiB given to the printing process from OS
           355 MiB allocation reported by mallinfo(arena+hblkhd)
         73725 MiB available memory on the node where the printing process lives
------------------
     ethr =  6.29E-09,  avg # of iterations =  7.0

     negative rho (up, down):  5.195E-03 5.600E-03

     total cpu time spent up to now is     5520.2 secs

     total energy              =  -16138.55546094 Ry
     estimated scf accuracy    <       0.00001469 Ry

     total magnetization       =     1.00 Bohr mag/cell
     absolute magnetization    =     1.12 Bohr mag/cell

     iteration # 14     ecut=    50.00 Ry     beta= 0.40
     Davidson diagonalization with overlap

---- Real-time Memory Report at c_bands before calling an iterative solver
           523 MiB given to the printing process from OS
           355 MiB allocation reported by mallinfo(arena+hblkhd)
         72173 MiB available memory on the node where the printing process lives
------------------
     ethr =  3.03E-09,  avg # of iterations =  2.0

     negative rho (up, down):  4.870E-03 5.250E-03

     total cpu time spent up to now is     5834.9 secs

     total energy              =  -16138.55549776 Ry
     estimated scf accuracy    <       0.00001045 Ry

     total magnetization       =     1.00 Bohr mag/cell
     absolute magnetization    =     1.12 Bohr mag/cell

     iteration # 15     ecut=    50.00 Ry     beta= 0.40
     Davidson diagonalization with overlap

---- Real-time Memory Report at c_bands before calling an iterative solver
           523 MiB given to the printing process from OS
           355 MiB allocation reported by mallinfo(arena+hblkhd)
         73750 MiB available memory on the node where the printing process lives
------------------
     ethr =  2.15E-09,  avg # of iterations =  2.0

     negative rho (up, down):  4.838E-03 5.211E-03

     total cpu time spent up to now is     6126.6 secs

     total energy              =  -16138.55550261 Ry
     estimated scf accuracy    <       0.00000921 Ry

     total magnetization       =     1.00 Bohr mag/cell
     absolute magnetization    =     1.12 Bohr mag/cell

     iteration # 16     ecut=    50.00 Ry     beta= 0.40
     Davidson diagonalization with overlap

---- Real-time Memory Report at c_bands before calling an iterative solver
           523 MiB given to the printing process from OS
           355 MiB allocation reported by mallinfo(arena+hblkhd)
         73817 MiB available memory on the node where the printing process lives
------------------
     ethr =  1.90E-09,  avg # of iterations =  1.0

     negative rho (up, down):  5.852E-03 6.267E-03

     total cpu time spent up to now is     6403.0 secs

     total energy              =  -16138.55540176 Ry
     estimated scf accuracy    <       0.00000954 Ry

     total magnetization       =     1.00 Bohr mag/cell
     absolute magnetization    =     1.12 Bohr mag/cell

     iteration # 17     ecut=    50.00 Ry     beta= 0.40
     Davidson diagonalization with overlap

---- Real-time Memory Report at c_bands before calling an iterative solver
           523 MiB given to the printing process from OS
           355 MiB allocation reported by mallinfo(arena+hblkhd)
         73722 MiB available memory on the node where the printing process lives
------------------
     ethr =  1.90E-09,  avg # of iterations =  7.1

     negative rho (up, down):  4.860E-03 5.234E-03

     total cpu time spent up to now is     6851.1 secs

     total energy              =  -16138.55550173 Ry
     estimated scf accuracy    <       0.00005114 Ry

     total magnetization       =     1.00 Bohr mag/cell
     absolute magnetization    =     1.12 Bohr mag/cell

     iteration # 18     ecut=    50.00 Ry     beta= 0.40
     Davidson diagonalization with overlap

---- Real-time Memory Report at c_bands before calling an iterative solver
           523 MiB given to the printing process from OS
           355 MiB allocation reported by mallinfo(arena+hblkhd)
         73843 MiB available memory on the node where the printing process lives
------------------
     ethr =  1.90E-09,  avg # of iterations =  6.1

     negative rho (up, down):  4.827E-03 5.203E-03

     total cpu time spent up to now is     7188.3 secs

     total energy              =  -16138.55550159 Ry
     estimated scf accuracy    <       0.00002623 Ry

     total magnetization       =     1.00 Bohr mag/cell
     absolute magnetization    =     1.12 Bohr mag/cell

     iteration # 19     ecut=    50.00 Ry     beta= 0.40
     Davidson diagonalization with overlap

---- Real-time Memory Report at c_bands before calling an iterative solver
           523 MiB given to the printing process from OS
           355 MiB allocation reported by mallinfo(arena+hblkhd)
         73696 MiB available memory on the node where the printing process lives
------------------
     ethr =  1.90E-09,  avg # of iterations =  8.0

     negative rho (up, down):  4.801E-03 5.174E-03

     total cpu time spent up to now is     7549.9 secs

     total energy              =  -16138.55550360 Ry
     estimated scf accuracy    <       0.00000828 Ry

     total magnetization       =     1.00 Bohr mag/cell
     absolute magnetization    =     1.12 Bohr mag/cell

     iteration # 20     ecut=    50.00 Ry     beta= 0.40
     Davidson diagonalization with overlap

---- Real-time Memory Report at c_bands before calling an iterative solver
           523 MiB given to the printing process from OS
           355 MiB allocation reported by mallinfo(arena+hblkhd)
         73653 MiB available memory on the node where the printing process lives
------------------
     ethr =  1.71E-09,  avg # of iterations =  6.5

     negative rho (up, down):  4.797E-03 5.168E-03

     total cpu time spent up to now is     7964.9 secs

     total energy              =  -16138.55550594 Ry
     estimated scf accuracy    <       0.00000252 Ry

     total magnetization       =     1.00 Bohr mag/cell
     absolute magnetization    =     1.12 Bohr mag/cell

     iteration # 21     ecut=    50.00 Ry     beta= 0.40
     Davidson diagonalization with overlap

---- Real-time Memory Report at c_bands before calling an iterative solver
           523 MiB given to the printing process from OS
           355 MiB allocation reported by mallinfo(arena+hblkhd)
         73617 MiB available memory on the node where the printing process lives
------------------
     ethr =  5.20E-10,  avg # of iterations =  6.4

     negative rho (up, down):  4.809E-03 5.181E-03

     total cpu time spent up to now is     8335.7 secs

     total energy              =  -16138.55550430 Ry
     estimated scf accuracy    <       0.00000256 Ry

     total magnetization       =     1.00 Bohr mag/cell
     absolute magnetization    =     1.12 Bohr mag/cell

     iteration # 22     ecut=    50.00 Ry     beta= 0.40
     Davidson diagonalization with overlap

---- Real-time Memory Report at c_bands before calling an iterative solver
           523 MiB given to the printing process from OS
           355 MiB allocation reported by mallinfo(arena+hblkhd)
         73634 MiB available memory on the node where the printing process lives
------------------
     ethr =  5.20E-10,  avg # of iterations =  2.0

     negative rho (up, down):  4.800E-03 5.169E-03

     total cpu time spent up to now is     8627.8 secs

     total energy              =  -16138.55550555 Ry
     estimated scf accuracy    <       0.00000268 Ry

     total magnetization       =     1.00 Bohr mag/cell
     absolute magnetization    =     1.12 Bohr mag/cell

     iteration # 23     ecut=    50.00 Ry     beta= 0.40
     Davidson diagonalization with overlap

---- Real-time Memory Report at c_bands before calling an iterative solver
           523 MiB given to the printing process from OS
           355 MiB allocation reported by mallinfo(arena+hblkhd)
         73554 MiB available memory on the node where the printing process lives
------------------
     ethr =  5.20E-10,  avg # of iterations =  7.3

     negative rho (up, down):  4.798E-03 5.165E-03

     total cpu time spent up to now is     8955.0 secs

     total energy              =  -16138.55550594 Ry
     estimated scf accuracy    <       0.00000081 Ry

     total magnetization       =     1.00 Bohr mag/cell
     absolute magnetization    =     1.12 Bohr mag/cell

     iteration # 24     ecut=    50.00 Ry     beta= 0.40
     Davidson diagonalization with overlap

---- Real-time Memory Report at c_bands before calling an iterative solver
           523 MiB given to the printing process from OS
           355 MiB allocation reported by mallinfo(arena+hblkhd)
         73699 MiB available memory on the node where the printing process lives
------------------
     ethr =  1.68E-10,  avg # of iterations =  7.1

     negative rho (up, down):  4.798E-03 5.166E-03

     total cpu time spent up to now is     9378.6 secs

     total energy              =  -16138.55550598 Ry
     estimated scf accuracy    <       0.00000019 Ry

     total magnetization       =     1.00 Bohr mag/cell
     absolute magnetization    =     1.12 Bohr mag/cell

     iteration # 25     ecut=    50.00 Ry     beta= 0.40
     Davidson diagonalization with overlap

---- Real-time Memory Report at c_bands before calling an iterative solver
           523 MiB given to the printing process from OS
           355 MiB allocation reported by mallinfo(arena+hblkhd)
         73489 MiB available memory on the node where the printing process lives
------------------
     ethr =  3.97E-11,  avg # of iterations =  3.0

     negative rho (up, down):  4.797E-03 5.164E-03

     total cpu time spent up to now is     9693.1 secs

     total energy              =  -16138.55550610 Ry
     estimated scf accuracy    <       0.00000011 Ry

     total magnetization       =     1.00 Bohr mag/cell
     absolute magnetization    =     1.12 Bohr mag/cell

     iteration # 26     ecut=    50.00 Ry     beta= 0.40
     Davidson diagonalization with overlap

---- Real-time Memory Report at c_bands before calling an iterative solver
           523 MiB given to the printing process from OS
           355 MiB allocation reported by mallinfo(arena+hblkhd)
         73623 MiB available memory on the node where the printing process lives
------------------
     ethr =  2.30E-11,  avg # of iterations =  7.6

     negative rho (up, down):  4.797E-03 5.164E-03

     total cpu time spent up to now is    10104.7 secs

     total energy              =  -16138.55550612 Ry
     estimated scf accuracy    <       0.00000008 Ry

     total magnetization       =     1.00 Bohr mag/cell
     absolute magnetization    =     1.12 Bohr mag/cell

     iteration # 27     ecut=    50.00 Ry     beta= 0.40
     Davidson diagonalization with overlap

---- Real-time Memory Report at c_bands before calling an iterative solver
           523 MiB given to the printing process from OS
           355 MiB allocation reported by mallinfo(arena+hblkhd)
         73489 MiB available memory on the node where the printing process lives
------------------
     ethr =  1.64E-11,  avg # of iterations =  3.0

     negative rho (up, down):  4.797E-03 5.164E-03

     total cpu time spent up to now is    10421.0 secs

     total energy              =  -16138.55550611 Ry
     estimated scf accuracy    <       0.00000004 Ry

     total magnetization       =     1.00 Bohr mag/cell
     absolute magnetization    =     1.12 Bohr mag/cell

     iteration # 28     ecut=    50.00 Ry     beta= 0.40
     Davidson diagonalization with overlap

---- Real-time Memory Report at c_bands before calling an iterative solver
           523 MiB given to the printing process from OS
           355 MiB allocation reported by mallinfo(arena+hblkhd)
         73673 MiB available memory on the node where the printing process lives
------------------
     ethr =  7.74E-12,  avg # of iterations =  8.5

     negative rho (up, down):  4.797E-03 5.164E-03

     total cpu time spent up to now is    10856.9 secs

     total energy              =  -16138.55550612 Ry
     estimated scf accuracy    <       0.00000005 Ry

     total magnetization       =     1.00 Bohr mag/cell
     absolute magnetization    =     1.12 Bohr mag/cell

     iteration # 29     ecut=    50.00 Ry     beta= 0.40
     Davidson diagonalization with overlap

---- Real-time Memory Report at c_bands before calling an iterative solver
           523 MiB given to the printing process from OS
           355 MiB allocation reported by mallinfo(arena+hblkhd)
         75884 MiB available memory on the node where the printing process lives
------------------
     ethr =  7.74E-12,  avg # of iterations =  2.0

     negative rho (up, down):  4.796E-03 5.164E-03

     total cpu time spent up to now is    11151.7 secs

     total energy              =  -16138.55550612 Ry
     estimated scf accuracy    <       0.00000002 Ry

     total magnetization       =     1.00 Bohr mag/cell
     absolute magnetization    =     1.12 Bohr mag/cell

     iteration # 30     ecut=    50.00 Ry     beta= 0.40
     Davidson diagonalization with overlap

---- Real-time Memory Report at c_bands before calling an iterative solver
           523 MiB given to the printing process from OS
           355 MiB allocation reported by mallinfo(arena+hblkhd)
         75688 MiB available memory on the node where the printing process lives
------------------
     ethr =  4.63E-12,  avg # of iterations =  7.5

     negative rho (up, down):  4.796E-03 5.164E-03

     total cpu time spent up to now is    11531.9 secs

     total energy              =  -16138.55550612 Ry
     estimated scf accuracy    <          1.4E-09 Ry

     total magnetization       =     1.00 Bohr mag/cell
     absolute magnetization    =     1.12 Bohr mag/cell

     iteration # 31     ecut=    50.00 Ry     beta= 0.40
     Davidson diagonalization with overlap

---- Real-time Memory Report at c_bands before calling an iterative solver
           523 MiB given to the printing process from OS
           355 MiB allocation reported by mallinfo(arena+hblkhd)
         75136 MiB available memory on the node where the printing process lives
------------------
     ethr =  2.84E-13,  avg # of iterations =  6.3

     negative rho (up, down):  4.796E-03 5.164E-03

     total cpu time spent up to now is    11954.5 secs

     total energy              =  -16138.55550612 Ry
     estimated scf accuracy    <          2.3E-09 Ry

     total magnetization       =     1.00 Bohr mag/cell
     absolute magnetization    =     1.12 Bohr mag/cell

     iteration # 32     ecut=    50.00 Ry     beta= 0.40
     Davidson diagonalization with overlap

---- Real-time Memory Report at c_bands before calling an iterative solver
           523 MiB given to the printing process from OS
           355 MiB allocation reported by mallinfo(arena+hblkhd)
         74907 MiB available memory on the node where the printing process lives
------------------
     ethr =  2.84E-13,  avg # of iterations =  2.0

     negative rho (up, down):  4.796E-03 5.164E-03

     total cpu time spent up to now is    12255.1 secs

     total energy              =  -16138.55550612 Ry
     estimated scf accuracy    <          9.5E-10 Ry

     total magnetization       =     1.00 Bohr mag/cell
     absolute magnetization    =     1.12 Bohr mag/cell

     iteration # 33     ecut=    50.00 Ry     beta= 0.40
     Davidson diagonalization with overlap

---- Real-time Memory Report at c_bands before calling an iterative solver
           523 MiB given to the printing process from OS
           355 MiB allocation reported by mallinfo(arena+hblkhd)
         77829 MiB available memory on the node where the printing process lives
------------------
     ethr =  1.95E-13,  avg # of iterations =  6.8

     negative rho (up, down):  4.796E-03 5.164E-03

     Magnetic moment per site  (integrated on atomic sphere of radius R)
     atom   1 (R=0.078)  charge= 10.3731  magn=  0.0015
     atom   2 (R=0.078)  charge= 10.3731  magn=  0.0080
     atom   3 (R=0.078)  charge= 10.3740  magn= -0.0007
     atom   4 (R=0.078)  charge= 10.3743  magn=  0.0147
     atom   5 (R=0.078)  charge= 10.3763  magn=  0.0111
     atom   6 (R=0.078)  charge= 10.3757  magn=  0.0063
     atom   7 (R=0.078)  charge= 10.3783  magn=  0.0052
     atom   8 (R=0.078)  charge= 10.3749  magn=  0.0108
     atom   9 (R=0.078)  charge= 10.3753  magn=  0.0033
     atom  10 (R=0.078)  charge= 10.3820  magn=  0.0364
     atom  11 (R=0.078)  charge= 10.3836  magn=  0.0167
     atom  12 (R=0.078)  charge= 10.3743  magn=  0.0164
     atom  13 (R=0.078)  charge= 10.3731  magn=  0.0029
     atom  14 (R=0.078)  charge= 10.3740  magn= -0.0006
     atom  15 (R=0.078)  charge= 10.3816  magn=  0.0171
     atom  16 (R=0.078)  charge= 10.3760  magn=  0.0042
     atom  17 (R=0.078)  charge=  4.1591  magn=  0.0027
     atom  18 (R=0.078)  charge=  4.1558  magn=  0.0017
     atom  19 (R=0.078)  charge=  4.1586  magn= -0.0000
     atom  20 (R=0.078)  charge=  4.1590  magn=  0.0027
     atom  21 (R=0.078)  charge=  4.1594  magn=  0.0025
     atom  22 (R=0.078)  charge=  4.1750  magn=  0.0122
     atom  23 (R=0.078)  charge=  4.1787  magn=  0.0050
     atom  24 (R=0.078)  charge=  4.1586  magn=  0.0036
     atom  25 (R=0.078)  charge=  4.1591  magn=  0.0022
     atom  26 (R=0.078)  charge=  4.1626  magn=  0.0026
     atom  27 (R=0.078)  charge=  4.1805  magn=  0.0068
     atom  28 (R=0.078)  charge=  4.1668  magn=  0.0125
     atom  29 (R=0.078)  charge=  4.1578  magn=  0.0030
     atom  30 (R=0.078)  charge=  4.1574  magn=  0.0007
     atom  31 (R=0.078)  charge=  4.1566  magn=  0.0017
     atom  32 (R=0.078)  charge=  4.1575  magn=  0.0062
     atom  33 (R=0.078)  charge=  4.1610  magn=  0.0008
     atom  34 (R=0.078)  charge=  4.1591  magn=  0.0008
     atom  35 (R=0.078)  charge=  4.1606  magn= -0.0002
     atom  36 (R=0.078)  charge=  4.1609  magn=  0.0001
     atom  37 (R=0.078)  charge=  4.1601  magn=  0.0005
     atom  38 (R=0.078)  charge=  4.1589  magn=  0.0036
     atom  39 (R=0.078)  charge=  4.1568  magn=  0.0010
     atom  40 (R=0.078)  charge=  4.1595  magn= -0.0001
     atom  41 (R=0.078)  charge=  4.1602  magn=  0.0005
     atom  42 (R=0.078)  charge=  4.1579  magn=  0.0018
     atom  43 (R=0.078)  charge=  4.1526  magn=  0.0025
     atom  44 (R=0.078)  charge=  4.1584  magn=  0.0032
     atom  45 (R=0.078)  charge=  4.1594  magn=  0.0015
     atom  46 (R=0.078)  charge=  4.1597  magn=  0.0002
     atom  47 (R=0.078)  charge=  4.1603  magn=  0.0006
     atom  48 (R=0.078)  charge=  4.1598  magn=  0.0022
     atom  49 (R=0.075)  charge=  8.3763  magn=  0.0118
     atom  50 (R=0.075)  charge=  8.3724  magn=  0.0310
     atom  51 (R=0.075)  charge=  8.3760  magn=  0.0134
     atom  52 (R=0.075)  charge=  8.3726  magn=  0.0331
     atom  53 (R=0.075)  charge=  8.3618  magn=  0.0186
     atom  54 (R=0.033)  charge=  1.3263  magn= -0.0002
     atom  55 (R=0.032)  charge=  2.0155  magn=  0.0004
     atom  56 (R=0.032)  charge=  0.4148  magn=  0.0002
     atom  57 (R=0.032)  charge=  0.4028  magn=  0.0001
     atom  58 (R=0.032)  charge=  0.4147  magn=  0.0001

     total cpu time spent up to now is    12645.5 secs

     End of self-consistent calculation

 ------ SPIN UP ------------


          k = 0.0000 0.0000 0.0000 (112117 PWs)   bands (ev):

   -73.8166 -73.8131 -73.8101 -73.8076 -73.8056 -73.8048 -73.8021 -73.8002
   -73.7954 -73.7934 -73.7906 -73.7885 -73.7867 -73.7540 -73.7492 -73.7396
   -38.2245 -38.2196 -38.2184 -38.1635 -38.1627 -38.1579 -38.1574 -38.1510
   -38.1432 -38.0595 -38.0565 -38.0539 -38.0533 -38.0482 -38.0461 -38.0443
   -38.0308 -38.0291 -38.0265 -38.0259 -38.0221 -38.0214 -38.0191 -38.0170
   -38.0164 -38.0135 -38.0119 -38.0041 -37.9953 -37.9922 -37.9909 -37.9879
   -37.9863 -37.9821 -37.9684 -37.9582 -37.9569 -37.9540 -37.9514 -37.9459
   -37.9249 -37.9180 -37.9135 -37.9129 -37.9091 -37.9042 -37.8699 -37.8666
   -21.5396 -15.4316 -14.5986 -13.7119 -13.6987 -13.6746 -13.6442 -13.6310
   -13.6208 -12.9832 -12.7135 -12.6778 -12.6555 -12.6397 -12.6033 -12.5816
   -12.5401 -12.5073 -12.4734 -12.4570 -12.4458 -12.4437 -12.4224 -12.4211
   -12.4163 -12.2238 -12.2018 -12.1905 -12.1748 -12.1578 -12.1540 -12.1502
   -12.1471 -12.1445  -7.9312  -7.5996  -6.3435  -6.3278  -6.3097  -6.2851
    -6.1681  -5.6157  -5.5744  -5.5524  -5.5340  -5.5289  -5.4951  -5.4465
    -5.4158  -5.3930  -5.3153  -5.2852  -5.2632  -5.1073  -5.0951  -5.0659
    -5.0609  -5.0564  -5.0553  -5.0009  -4.9994  -4.9905  -4.5259  -4.4430
    -4.4037  -4.3488  -4.2957  -4.2858  -4.2699  -4.2488  -4.2346  -4.1844
    -4.0824  -4.0124  -3.9805  -3.9643  -3.9382  -3.7973  -3.7623  -3.7603
    -3.7053  -3.6799  -3.6764  -3.6148  -3.5170  -3.4762  -3.4092  -3.4048
    -3.3753  -3.3679  -3.3005  -3.2273  -3.1988  -3.1850  -3.1662  -3.1450
    -3.1355  -3.1274  -3.1133  -3.1100  -3.0653  -2.9635  -2.8240  -2.7710
    -2.7251  -2.6797  -2.6511  -2.5937  -2.5852  -2.5237  -2.5154  -2.4678
    -2.4629  -2.4362  -2.4348  -2.4291  -2.4023  -2.3450  -2.2950  -2.2120
    -2.1349  -2.0875  -1.9824  -1.9792  -1.9568  -1.9351  -1.8720  -1.8398
    -1.8176  -1.7850  -1.7708  -1.7700  -1.7560  -1.7536  -1.7460  -1.7452
    -1.7396  -1.7112  -1.7020  -1.6688  -1.6621  -1.6474  -1.6376  -1.6119
    -1.5831  -1.5338  -1.5257  -1.5083  -1.4552  -1.4200  -1.3753  -1.3588
    -1.3132  -1.2766  -1.2063  -1.0999  -1.0597  -1.0316  -1.0162  -0.9975
    -0.7306  -0.6953  -0.6910  -0.6888  -0.6795  -0.6756  -0.6505  -0.6473
    -0.6312  -0.3982  -0.3897  -0.3782  -0.3631  -0.3507  -0.3425  -0.3241
     0.1961   1.2550   1.5339

     occupation numbers 
     1.0000   1.0000   1.0000   1.0000   1.0000   1.0000   1.0000   1.0000
     1.0000   1.0000   1.0000   1.0000   1.0000   1.0000   1.0000   1.0000
     1.0000   1.0000   1.0000   1.0000   1.0000   1.0000   1.0000   1.0000
     1.0000   1.0000   1.0000   1.0000   1.0000   1.0000   1.0000   1.0000
     1.0000   1.0000   1.0000   1.0000   1.0000   1.0000   1.0000   1.0000
     1.0000   1.0000   1.0000   1.0000   1.0000   1.0000   1.0000   1.0000
     1.0000   1.0000   1.0000   1.0000   1.0000   1.0000   1.0000   1.0000
     1.0000   1.0000   1.0000   1.0000   1.0000   1.0000   1.0000   1.0000
     1.0000   1.0000   1.0000   1.0000   1.0000   1.0000   1.0000   1.0000
     1.0000   1.0000   1.0000   1.0000   1.0000   1.0000   1.0000   1.0000
     1.0000   1.0000   1.0000   1.0000   1.0000   1.0000   1.0000   1.0000
     1.0000   1.0000   1.0000   1.0000   1.0000   1.0000   1.0000   1.0000
     1.0000   1.0000   1.0000   1.0000   1.0000   1.0000   1.0000   1.0000
     1.0000   1.0000   1.0000   1.0000   1.0000   1.0000   1.0000   1.0000
     1.0000   1.0000   1.0000   1.0000   1.0000   1.0000   1.0000   1.0000
     1.0000   1.0000   1.0000   1.0000   1.0000   1.0000   1.0000   1.0000
     1.0000   1.0000   1.0000   1.0000   1.0000   1.0000   1.0000   1.0000
     1.0000   1.0000   1.0000   1.0000   1.0000   1.0000   1.0000   1.0000
     1.0000   1.0000   1.0000   1.0000   1.0000   1.0000   1.0000   1.0000
     1.0000   1.0000   1.0000   1.0000   1.0000   1.0000   1.0000   1.0000
     1.0000   1.0000   1.0000   1.0000   1.0000   1.0000   1.0000   1.0000
     1.0000   1.0000   1.0000   1.0000   1.0000   1.0000   1.0000   1.0000
     1.0000   1.0000   1.0000   1.0000   1.0000   1.0000   1.0000   1.0000
     1.0000   1.0000   1.0000   1.0000   1.0000   1.0000   1.0000   1.0000
     1.0000   1.0000   1.0000   1.0000   1.0000   1.0000   1.0000   1.0000
     1.0000   1.0000   1.0000   1.0000   1.0000   1.0000   1.0000   1.0000
     1.0000   1.0000   1.0000   1.0000   1.0000   1.0000   1.0000   1.0000
     1.0000   1.0000   1.0000   1.0000   1.0000   1.0000   1.0000   1.0000
     1.0000   1.0000   1.0000   1.0000   1.0000   1.0000   1.0000   1.0000
     1.0000   1.0000   1.0000   1.0000   1.0000   1.0000   1.0000   1.0000
     1.0000   1.0000   1.0000

          k = 0.0000 0.2309 0.0000 (112171 PWs)   bands (ev):

   -73.8164 -73.8133 -73.8101 -73.8078 -73.8054 -73.8047 -73.8021 -73.8001
   -73.7955 -73.7934 -73.7905 -73.7886 -73.7867 -73.7540 -73.7492 -73.7396
   -38.2193 -38.2143 -38.2121 -38.1700 -38.1653 -38.1619 -38.1550 -38.1475
   -38.1405 -38.1033 -38.0785 -38.0764 -38.0524 -38.0488 -38.0452 -38.0323
   -38.0289 -38.0261 -38.0238 -38.0212 -38.0180 -38.0159 -38.0130 -38.0112
   -38.0041 -37.9987 -37.9969 -37.9955 -37.9937 -37.9918 -37.9882 -37.9868
   -37.9853 -37.9820 -37.9687 -37.9615 -37.9593 -37.9544 -37.9514 -37.9461
   -37.9322 -37.9225 -37.9215 -37.9111 -37.9079 -37.9006 -37.8773 -37.8681
   -21.5396 -15.4316 -14.5570 -13.9773 -13.8025 -13.7854 -13.4944 -13.4614
   -13.3247 -12.9672 -12.8071 -12.7354 -12.6976 -12.6877 -12.6552 -12.5877
   -12.5551 -12.5432 -12.4945 -12.4769 -12.4572 -12.4374 -12.4236 -12.3170
   -12.2852 -12.2634 -12.2442 -12.2142 -12.1854 -12.1745 -12.1681 -12.1527
   -12.0953 -12.0802  -7.9312  -7.5996  -6.2820  -6.2706  -6.2389  -6.2368
    -6.1661  -5.6711  -5.6478  -5.6306  -5.5602  -5.5190  -5.4897  -5.4716
    -5.4306  -5.4185  -5.3964  -5.3215  -5.3173  -5.2879  -5.2708  -5.0738
    -5.0667  -5.0186  -5.0026  -4.9567  -4.7400  -4.7347  -4.5923  -4.4858
    -4.4543  -4.3867  -4.3235  -4.2894  -4.2107  -4.1618  -4.1474  -4.1211
    -4.1003  -4.0634  -4.0441  -4.0019  -3.9856  -3.9133  -3.9102  -3.9017
    -3.6748  -3.5761  -3.5435  -3.5097  -3.4699  -3.4443  -3.4392  -3.3846
    -3.3647  -3.3162  -3.2980  -3.2812  -3.2766  -3.2098  -3.1955  -3.1500
    -3.1052  -2.9980  -2.9662  -2.9352  -2.8601  -2.7947  -2.7775  -2.7497
    -2.7253  -2.7188  -2.7001  -2.6876  -2.6594  -2.6365  -2.6114  -2.5455
    -2.5221  -2.5061  -2.4785  -2.4434  -2.3648  -2.3165  -2.2062  -2.1652
    -2.1259  -2.0886  -2.0192  -2.0050  -1.9862  -1.9697  -1.9384  -1.9118
    -1.8921  -1.8651  -1.8539  -1.8202  -1.7936  -1.7659  -1.7498  -1.7389
    -1.7227  -1.7057  -1.6906  -1.6674  -1.6517  -1.6103  -1.5866  -1.5534
    -1.5372  -1.4961  -1.4853  -1.4622  -1.4345  -1.3736  -1.3377  -1.3281
    -1.2979  -1.2823  -1.2479  -1.2264  -1.1681  -1.0730  -1.0489  -1.0283
    -0.8979  -0.7809  -0.7632  -0.7507  -0.5736  -0.5655  -0.5536  -0.5353
    -0.5223  -0.5124  -0.4138  -0.3780  -0.3666  -0.2674  -0.1713  -0.1463
     0.1771   1.2614   1.5652

     occupation numbers 
     1.0000   1.0000   1.0000   1.0000   1.0000   1.0000   1.0000   1.0000
     1.0000   1.0000   1.0000   1.0000   1.0000   1.0000   1.0000   1.0000
     1.0000   1.0000   1.0000   1.0000   1.0000   1.0000   1.0000   1.0000
     1.0000   1.0000   1.0000   1.0000   1.0000   1.0000   1.0000   1.0000
     1.0000   1.0000   1.0000   1.0000   1.0000   1.0000   1.0000   1.0000
     1.0000   1.0000   1.0000   1.0000   1.0000   1.0000   1.0000   1.0000
     1.0000   1.0000   1.0000   1.0000   1.0000   1.0000   1.0000   1.0000
     1.0000   1.0000   1.0000   1.0000   1.0000   1.0000   1.0000   1.0000
     1.0000   1.0000   1.0000   1.0000   1.0000   1.0000   1.0000   1.0000
     1.0000   1.0000   1.0000   1.0000   1.0000   1.0000   1.0000   1.0000
     1.0000   1.0000   1.0000   1.0000   1.0000   1.0000   1.0000   1.0000
     1.0000   1.0000   1.0000   1.0000   1.0000   1.0000   1.0000   1.0000
     1.0000   1.0000   1.0000   1.0000   1.0000   1.0000   1.0000   1.0000
     1.0000   1.0000   1.0000   1.0000   1.0000   1.0000   1.0000   1.0000
     1.0000   1.0000   1.0000   1.0000   1.0000   1.0000   1.0000   1.0000
     1.0000   1.0000   1.0000   1.0000   1.0000   1.0000   1.0000   1.0000
     1.0000   1.0000   1.0000   1.0000   1.0000   1.0000   1.0000   1.0000
     1.0000   1.0000   1.0000   1.0000   1.0000   1.0000   1.0000   1.0000
     1.0000   1.0000   1.0000   1.0000   1.0000   1.0000   1.0000   1.0000
     1.0000   1.0000   1.0000   1.0000   1.0000   1.0000   1.0000   1.0000
     1.0000   1.0000   1.0000   1.0000   1.0000   1.0000   1.0000   1.0000
     1.0000   1.0000   1.0000   1.0000   1.0000   1.0000   1.0000   1.0000
     1.0000   1.0000   1.0000   1.0000   1.0000   1.0000   1.0000   1.0000
     1.0000   1.0000   1.0000   1.0000   1.0000   1.0000   1.0000   1.0000
     1.0000   1.0000   1.0000   1.0000   1.0000   1.0000   1.0000   1.0000
     1.0000   1.0000   1.0000   1.0000   1.0000   1.0000   1.0000   1.0000
     1.0000   1.0000   1.0000   1.0000   1.0000   1.0000   1.0000   1.0000
     1.0000   1.0000   1.0000   1.0000   1.0000   1.0000   1.0000   1.0000
     1.0000   1.0000   1.0000   1.0000   1.0000   1.0000   1.0000   1.0000
     1.0000   1.0000   1.0000   1.0000   1.0000   1.0000   1.0000   1.0000
     1.0000   1.0000   1.0000

          k = 0.0000 0.4619 0.0000 (112236 PWs)   bands (ev):

   -73.8161 -73.8137 -73.8102 -73.8080 -73.8052 -73.8046 -73.8022 -73.8000
   -73.7957 -73.7934 -73.7903 -73.7888 -73.7867 -73.7540 -73.7492 -73.7396
   -38.2061 -38.2035 -38.1901 -38.1875 -38.1755 -38.1659 -38.1596 -38.1466
   -38.1306 -38.1259 -38.1052 -38.1008 -38.0634 -38.0581 -38.0469 -38.0381
   -38.0310 -38.0201 -38.0165 -38.0122 -38.0089 -38.0063 -38.0026 -38.0003
   -37.9983 -37.9969 -37.9965 -37.9908 -37.9881 -37.9852 -37.9820 -37.9783
   -37.9732 -37.9697 -37.9665 -37.9650 -37.9527 -37.9511 -37.9490 -37.9473
   -37.9426 -37.9359 -37.9312 -37.9156 -37.9107 -37.8948 -37.8932 -37.8710
   -21.5396 -15.4316 -14.4353 -14.2339 -13.8723 -13.8535 -13.2654 -13.2302
   -13.0205 -12.9996 -12.9703 -12.9175 -12.8331 -12.7311 -12.7047 -12.6890
   -12.5218 -12.5145 -12.4630 -12.4498 -12.4369 -12.4247 -12.3824 -12.3691
   -12.3505 -12.2842 -12.2165 -12.2017 -12.1773 -12.1590 -12.1571 -12.1527
   -12.0561 -12.0393  -7.9312  -7.5996  -6.1797  -6.1269  -6.1140  -6.0919
    -6.0274  -5.8734  -5.8611  -5.8387  -5.7148  -5.5350  -5.5003  -5.4888
    -5.4607  -5.4462  -5.4378  -5.3941  -5.3744  -5.3266  -5.3021  -5.0671
    -5.0638  -5.0311  -5.0096  -4.8114  -4.6329  -4.5299  -4.4872  -4.4409
    -4.3948  -4.3759  -4.3498  -4.3142  -4.2457  -4.2325  -4.1921  -4.1611
    -4.1301  -4.1195  -4.1035  -4.0774  -4.0659  -4.0525  -4.0430  -3.6977
    -3.5762  -3.5119  -3.4829  -3.4444  -3.4215  -3.3929  -3.3709  -3.3114
    -3.2975  -3.2828  -3.2634  -3.2409  -3.2218  -3.1895  -3.1648  -3.1084
    -3.0681  -3.0618  -3.0109  -2.9726  -2.9544  -2.9166  -2.8654  -2.7770
    -2.7534  -2.7094  -2.6693  -2.6404  -2.6120  -2.5735  -2.5407  -2.4971
    -2.4525  -2.4332  -2.3983  -2.3201  -2.2803  -2.2560  -2.2429  -2.1880
    -2.1287  -2.0998  -2.0471  -2.0209  -2.0113  -2.0011  -1.9840  -1.9556
    -1.9338  -1.9097  -1.8812  -1.8745  -1.8568  -1.8449  -1.8403  -1.8282
    -1.7773  -1.7722  -1.7264  -1.7156  -1.7009  -1.6713  -1.6346  -1.6211
    -1.5948  -1.5556  -1.5346  -1.5057  -1.4352  -1.3910  -1.3027  -1.2904
    -1.2375  -1.2044  -1.1921  -1.1511  -1.1208  -1.0988  -1.0500  -1.0102
    -0.9787  -0.8955  -0.7345  -0.7234  -0.6419  -0.6257  -0.4959  -0.4581
    -0.4445  -0.4342  -0.3988  -0.3813  -0.3144  -0.0951   0.0012   0.0243
     0.1275   1.2712   1.6177

     occupation numbers 
     1.0000   1.0000   1.0000   1.0000   1.0000   1.0000   1.0000   1.0000
     1.0000   1.0000   1.0000   1.0000   1.0000   1.0000   1.0000   1.0000
     1.0000   1.0000   1.0000   1.0000   1.0000   1.0000   1.0000   1.0000
     1.0000   1.0000   1.0000   1.0000   1.0000   1.0000   1.0000   1.0000
     1.0000   1.0000   1.0000   1.0000   1.0000   1.0000   1.0000   1.0000
     1.0000   1.0000   1.0000   1.0000   1.0000   1.0000   1.0000   1.0000
     1.0000   1.0000   1.0000   1.0000   1.0000   1.0000   1.0000   1.0000
     1.0000   1.0000   1.0000   1.0000   1.0000   1.0000   1.0000   1.0000
     1.0000   1.0000   1.0000   1.0000   1.0000   1.0000   1.0000   1.0000
     1.0000   1.0000   1.0000   1.0000   1.0000   1.0000   1.0000   1.0000
     1.0000   1.0000   1.0000   1.0000   1.0000   1.0000   1.0000   1.0000
     1.0000   1.0000   1.0000   1.0000   1.0000   1.0000   1.0000   1.0000
     1.0000   1.0000   1.0000   1.0000   1.0000   1.0000   1.0000   1.0000
     1.0000   1.0000   1.0000   1.0000   1.0000   1.0000   1.0000   1.0000
     1.0000   1.0000   1.0000   1.0000   1.0000   1.0000   1.0000   1.0000
     1.0000   1.0000   1.0000   1.0000   1.0000   1.0000   1.0000   1.0000
     1.0000   1.0000   1.0000   1.0000   1.0000   1.0000   1.0000   1.0000
     1.0000   1.0000   1.0000   1.0000   1.0000   1.0000   1.0000   1.0000
     1.0000   1.0000   1.0000   1.0000   1.0000   1.0000   1.0000   1.0000
     1.0000   1.0000   1.0000   1.0000   1.0000   1.0000   1.0000   1.0000
     1.0000   1.0000   1.0000   1.0000   1.0000   1.0000   1.0000   1.0000
     1.0000   1.0000   1.0000   1.0000   1.0000   1.0000   1.0000   1.0000
     1.0000   1.0000   1.0000   1.0000   1.0000   1.0000   1.0000   1.0000
     1.0000   1.0000   1.0000   1.0000   1.0000   1.0000   1.0000   1.0000
     1.0000   1.0000   1.0000   1.0000   1.0000   1.0000   1.0000   1.0000
     1.0000   1.0000   1.0000   1.0000   1.0000   1.0000   1.0000   1.0000
     1.0000   1.0000   1.0000   1.0000   1.0000   1.0000   1.0000   1.0000
     1.0000   1.0000   1.0000   1.0000   1.0000   1.0000   1.0000   1.0000
     1.0000   1.0000   1.0000   1.0000   1.0000   1.0000   1.0000   1.0000
     1.0000   1.0000   1.0000   1.0000   1.0000   1.0000   1.0000   1.0000
     1.0000   1.0000   1.0000

          k = 0.2000 0.3464 0.0000 (112231 PWs)   bands (ev):

   -73.8161 -73.8138 -73.8102 -73.8078 -73.8053 -73.8045 -73.8023 -73.8001
   -73.7954 -73.7936 -73.7903 -73.7888 -73.7867 -73.7540 -73.7492 -73.7396
   -38.2115 -38.2028 -38.1995 -38.1787 -38.1757 -38.1639 -38.1552 -38.1477
   -38.1318 -38.1233 -38.1160 -38.0772 -38.0592 -38.0555 -38.0471 -38.0368
   -38.0317 -38.0286 -38.0248 -38.0192 -38.0155 -38.0090 -38.0026 -37.9997
   -37.9950 -37.9922 -37.9905 -37.9887 -37.9864 -37.9837 -37.9823 -37.9809
   -37.9758 -37.9722 -37.9687 -37.9654 -37.9586 -37.9546 -37.9514 -37.9468
   -37.9407 -37.9315 -37.9257 -37.9206 -37.9046 -37.8995 -37.8862 -37.8716
   -21.5396 -15.4316 -14.4752 -14.1036 -14.0589 -13.5671 -13.5642 -13.1748
   -13.1184 -13.0095 -12.9354 -12.8101 -12.7897 -12.7105 -12.6714 -12.6055
   -12.5950 -12.5765 -12.5715 -12.4576 -12.4247 -12.3912 -12.3768 -12.3133
   -12.2900 -12.2730 -12.2520 -12.2323 -12.2204 -12.1547 -12.1502 -12.1078
   -12.0951 -12.0356  -7.9312  -7.5996  -6.1881  -6.1755  -6.1476  -6.1279
    -6.1052  -5.7664  -5.7374  -5.7211  -5.6815  -5.6443  -5.6019  -5.5666
    -5.5053  -5.4738  -5.3557  -5.3346  -5.2843  -5.2760  -5.2434  -5.2289
    -5.0954  -4.9056  -4.8900  -4.8161  -4.7512  -4.6067  -4.4916  -4.4707
    -4.3983  -4.3672  -4.3380  -4.3046  -4.2761  -4.2632  -4.2350  -4.2269
    -4.1732  -4.1228  -4.1076  -4.0922  -4.0556  -3.7664  -3.7367  -3.7267
    -3.7189  -3.6940  -3.6131  -3.4983  -3.4314  -3.4015  -3.3524  -3.3229
    -3.2992  -3.2463  -3.2266  -3.2072  -3.1695  -3.1507  -3.1087  -3.0917
    -3.0417  -3.0161  -2.9909  -2.9519  -2.9443  -2.9265  -2.9163  -2.9008
    -2.8191  -2.7435  -2.7230  -2.6543  -2.6363  -2.5623  -2.5225  -2.4797
    -2.4664  -2.4394  -2.3874  -2.3625  -2.3158  -2.2214  -2.1855  -2.1653
    -2.1319  -2.1253  -2.0973  -2.0888  -2.0184  -1.9995  -1.9818  -1.9523
    -1.9288  -1.9067  -1.8839  -1.8584  -1.8384  -1.8294  -1.7996  -1.7577
    -1.7393  -1.7198  -1.7118  -1.6795  -1.6722  -1.6233  -1.5962  -1.5754
    -1.5667  -1.5418  -1.5377  -1.5087  -1.4283  -1.3934  -1.3813  -1.3662
    -1.2922  -1.2264  -1.2080  -1.1859  -1.1566  -1.1187  -1.0345  -1.0177
    -0.8751  -0.8484  -0.6818  -0.6724  -0.6389  -0.6316  -0.6160  -0.5418
    -0.5330  -0.4392  -0.3762  -0.2557  -0.2114  -0.2001  -0.1594   0.0714
     0.1402   1.2841   1.5899

     occupation numbers 
     1.0000   1.0000   1.0000   1.0000   1.0000   1.0000   1.0000   1.0000
     1.0000   1.0000   1.0000   1.0000   1.0000   1.0000   1.0000   1.0000
     1.0000   1.0000   1.0000   1.0000   1.0000   1.0000   1.0000   1.0000
     1.0000   1.0000   1.0000   1.0000   1.0000   1.0000   1.0000   1.0000
     1.0000   1.0000   1.0000   1.0000   1.0000   1.0000   1.0000   1.0000
     1.0000   1.0000   1.0000   1.0000   1.0000   1.0000   1.0000   1.0000
     1.0000   1.0000   1.0000   1.0000   1.0000   1.0000   1.0000   1.0000
     1.0000   1.0000   1.0000   1.0000   1.0000   1.0000   1.0000   1.0000
     1.0000   1.0000   1.0000   1.0000   1.0000   1.0000   1.0000   1.0000
     1.0000   1.0000   1.0000   1.0000   1.0000   1.0000   1.0000   1.0000
     1.0000   1.0000   1.0000   1.0000   1.0000   1.0000   1.0000   1.0000
     1.0000   1.0000   1.0000   1.0000   1.0000   1.0000   1.0000   1.0000
     1.0000   1.0000   1.0000   1.0000   1.0000   1.0000   1.0000   1.0000
     1.0000   1.0000   1.0000   1.0000   1.0000   1.0000   1.0000   1.0000
     1.0000   1.0000   1.0000   1.0000   1.0000   1.0000   1.0000   1.0000
     1.0000   1.0000   1.0000   1.0000   1.0000   1.0000   1.0000   1.0000
     1.0000   1.0000   1.0000   1.0000   1.0000   1.0000   1.0000   1.0000
     1.0000   1.0000   1.0000   1.0000   1.0000   1.0000   1.0000   1.0000
     1.0000   1.0000   1.0000   1.0000   1.0000   1.0000   1.0000   1.0000
     1.0000   1.0000   1.0000   1.0000   1.0000   1.0000   1.0000   1.0000
     1.0000   1.0000   1.0000   1.0000   1.0000   1.0000   1.0000   1.0000
     1.0000   1.0000   1.0000   1.0000   1.0000   1.0000   1.0000   1.0000
     1.0000   1.0000   1.0000   1.0000   1.0000   1.0000   1.0000   1.0000
     1.0000   1.0000   1.0000   1.0000   1.0000   1.0000   1.0000   1.0000
     1.0000   1.0000   1.0000   1.0000   1.0000   1.0000   1.0000   1.0000
     1.0000   1.0000   1.0000   1.0000   1.0000   1.0000   1.0000   1.0000
     1.0000   1.0000   1.0000   1.0000   1.0000   1.0000   1.0000   1.0000
     1.0000   1.0000   1.0000   1.0000   1.0000   1.0000   1.0000   1.0000
     1.0000   1.0000   1.0000   1.0000   1.0000   1.0000   1.0000   1.0000
     1.0000   1.0000   1.0000   1.0000   1.0000   1.0000   1.0000   1.0000
     1.0000   1.0000   1.0000

          k = 0.2000 0.5774 0.0000 (112237 PWs)   bands (ev):

   -73.8160 -73.8139 -73.8103 -73.8081 -73.8052 -73.8044 -73.8023 -73.8000
   -73.7956 -73.7935 -73.7903 -73.7888 -73.7867 -73.7540 -73.7492 -73.7396
   -38.2004 -38.1965 -38.1863 -38.1831 -38.1762 -38.1707 -38.1649 -38.1501
   -38.1468 -38.1324 -38.0923 -38.0907 -38.0866 -38.0505 -38.0451 -38.0395
   -38.0334 -38.0301 -38.0171 -38.0168 -38.0070 -38.0045 -38.0023 -38.0006
   -37.9995 -37.9967 -37.9918 -37.9880 -37.9853 -37.9817 -37.9746 -37.9702
   -37.9688 -37.9662 -37.9613 -37.9586 -37.9559 -37.9526 -37.9499 -37.9456
   -37.9421 -37.9373 -37.9314 -37.9286 -37.9171 -37.8970 -37.8880 -37.8747
   -21.5396 -15.4316 -14.3362 -14.2928 -14.1145 -13.5954 -13.3017 -13.2934
   -12.9542 -12.9484 -12.8884 -12.8533 -12.8417 -12.8020 -12.7926 -12.6581
   -12.6308 -12.6030 -12.4921 -12.4841 -12.3839 -12.3722 -12.3587 -12.3233
   -12.3094 -12.2967 -12.2586 -12.2332 -12.2321 -12.1304 -12.1204 -12.1181
   -12.0784 -12.0160  -7.9312  -7.5996  -6.1758  -6.0581  -6.0094  -5.9862
    -5.9213  -5.8961  -5.8759  -5.8499  -5.8092  -5.7434  -5.6870  -5.6241
    -5.6129  -5.5408  -5.3636  -5.2666  -5.2550  -5.2194  -5.2042  -5.1708
    -5.1549  -4.8562  -4.8320  -4.7536  -4.6340  -4.5786  -4.5480  -4.5214
    -4.4746  -4.4183  -4.3989  -4.3192  -4.3119  -4.2391  -4.2326  -4.2127
    -4.1889  -4.1651  -4.1222  -4.0953  -3.9536  -3.9499  -3.7926  -3.6632
    -3.6514  -3.5671  -3.4421  -3.3931  -3.3615  -3.3293  -3.3094  -3.2861
    -3.2728  -3.2615  -3.2446  -3.2344  -3.2157  -3.2010  -3.1436  -3.1255
    -3.1019  -3.0805  -3.0621  -3.0355  -3.0080  -2.9592  -2.8789  -2.8311
    -2.7536  -2.7272  -2.6980  -2.6725  -2.6333  -2.5560  -2.5190  -2.4573
    -2.3982  -2.3336  -2.3201  -2.3083  -2.2547  -2.2068  -2.1797  -2.1357
    -2.1206  -2.1104  -2.0798  -2.0618  -2.0177  -1.9869  -1.9670  -1.9558
    -1.9389  -1.9183  -1.8975  -1.8809  -1.8701  -1.8564  -1.8434  -1.8355
    -1.8248  -1.7820  -1.7694  -1.7408  -1.7059  -1.6909  -1.6807  -1.6512
    -1.6184  -1.5729  -1.5609  -1.5080  -1.4786  -1.4664  -1.4142  -1.3339
    -1.2853  -1.1958  -1.1602  -1.1442  -1.0971  -1.0811  -1.0085  -0.9993
    -0.8138  -0.7993  -0.7021  -0.6912  -0.6600  -0.6455  -0.5927  -0.5831
    -0.5662  -0.4153  -0.2789  -0.2702  -0.1889  -0.1252  -0.0668   0.0902
     0.1883   1.2932   1.6062

     occupation numbers 
     1.0000   1.0000   1.0000   1.0000   1.0000   1.0000   1.0000   1.0000
     1.0000   1.0000   1.0000   1.0000   1.0000   1.0000   1.0000   1.0000
     1.0000   1.0000   1.0000   1.0000   1.0000   1.0000   1.0000   1.0000
     1.0000   1.0000   1.0000   1.0000   1.0000   1.0000   1.0000   1.0000
     1.0000   1.0000   1.0000   1.0000   1.0000   1.0000   1.0000   1.0000
     1.0000   1.0000   1.0000   1.0000   1.0000   1.0000   1.0000   1.0000
     1.0000   1.0000   1.0000   1.0000   1.0000   1.0000   1.0000   1.0000
     1.0000   1.0000   1.0000   1.0000   1.0000   1.0000   1.0000   1.0000
     1.0000   1.0000   1.0000   1.0000   1.0000   1.0000   1.0000   1.0000
     1.0000   1.0000   1.0000   1.0000   1.0000   1.0000   1.0000   1.0000
     1.0000   1.0000   1.0000   1.0000   1.0000   1.0000   1.0000   1.0000
     1.0000   1.0000   1.0000   1.0000   1.0000   1.0000   1.0000   1.0000
     1.0000   1.0000   1.0000   1.0000   1.0000   1.0000   1.0000   1.0000
     1.0000   1.0000   1.0000   1.0000   1.0000   1.0000   1.0000   1.0000
     1.0000   1.0000   1.0000   1.0000   1.0000   1.0000   1.0000   1.0000
     1.0000   1.0000   1.0000   1.0000   1.0000   1.0000   1.0000   1.0000
     1.0000   1.0000   1.0000   1.0000   1.0000   1.0000   1.0000   1.0000
     1.0000   1.0000   1.0000   1.0000   1.0000   1.0000   1.0000   1.0000
     1.0000   1.0000   1.0000   1.0000   1.0000   1.0000   1.0000   1.0000
     1.0000   1.0000   1.0000   1.0000   1.0000   1.0000   1.0000   1.0000
     1.0000   1.0000   1.0000   1.0000   1.0000   1.0000   1.0000   1.0000
     1.0000   1.0000   1.0000   1.0000   1.0000   1.0000   1.0000   1.0000
     1.0000   1.0000   1.0000   1.0000   1.0000   1.0000   1.0000   1.0000
     1.0000   1.0000   1.0000   1.0000   1.0000   1.0000   1.0000   1.0000
     1.0000   1.0000   1.0000   1.0000   1.0000   1.0000   1.0000   1.0000
     1.0000   1.0000   1.0000   1.0000   1.0000   1.0000   1.0000   1.0000
     1.0000   1.0000   1.0000   1.0000   1.0000   1.0000   1.0000   1.0000
     1.0000   1.0000   1.0000   1.0000   1.0000   1.0000   1.0000   1.0000
     1.0000   1.0000   1.0000   1.0000   1.0000   1.0000   1.0000   1.0000
     1.0000   1.0000   1.0000   1.0000   1.0000   1.0000   1.0000   1.0000
     1.0000   1.0000   1.0000

          k =-0.2000 0.1155 0.0000 (112171 PWs)   bands (ev):

   -73.8165 -73.8132 -73.8102 -73.8080 -73.8055 -73.8044 -73.8022 -73.8001
   -73.7954 -73.7935 -73.7906 -73.7885 -73.7867 -73.7540 -73.7492 -73.7396
   -38.2193 -38.2145 -38.2117 -38.1685 -38.1647 -38.1635 -38.1586 -38.1459
   -38.1393 -38.1026 -38.0798 -38.0757 -38.0508 -38.0482 -38.0443 -38.0340
   -38.0278 -38.0273 -38.0247 -38.0235 -38.0164 -38.0155 -38.0133 -38.0120
   -38.0037 -38.0003 -37.9972 -37.9958 -37.9930 -37.9914 -37.9878 -37.9860
   -37.9851 -37.9819 -37.9686 -37.9620 -37.9595 -37.9538 -37.9514 -37.9461
   -37.9324 -37.9243 -37.9204 -37.9102 -37.9081 -37.9000 -37.8744 -37.8712
   -21.5396 -15.4316 -14.5570 -13.9761 -13.8026 -13.7882 -13.4793 -13.4746
   -13.3254 -12.9676 -12.7921 -12.7594 -12.6921 -12.6822 -12.6575 -12.5874
   -12.5651 -12.5217 -12.4979 -12.4789 -12.4701 -12.4325 -12.4218 -12.3081
   -12.2947 -12.2617 -12.2443 -12.2135 -12.1868 -12.1757 -12.1678 -12.1506
   -12.0950 -12.0809  -7.9312  -7.5996  -6.2860  -6.2653  -6.2449  -6.2321
    -6.1662  -5.6794  -5.6401  -5.6257  -5.5500  -5.5322  -5.4931  -5.4695
    -5.4393  -5.4207  -5.3845  -5.3287  -5.3112  -5.2829  -5.2770  -5.0825
    -5.0633  -5.0163  -5.0001  -4.9520  -4.7409  -4.7359  -4.5741  -4.5159
    -4.4510  -4.3730  -4.3408  -4.2811  -4.2089  -4.1627  -4.1482  -4.1233
    -4.1004  -4.0668  -4.0408  -3.9969  -3.9845  -3.9159  -3.9061  -3.8975
    -3.6697  -3.5910  -3.5368  -3.5039  -3.4792  -3.4616  -3.4457  -3.3759
    -3.3668  -3.3198  -3.2961  -3.2798  -3.2659  -3.2069  -3.1954  -3.1554
    -3.1044  -2.9871  -2.9659  -2.9313  -2.8352  -2.8033  -2.7774  -2.7508
    -2.7319  -2.7155  -2.6992  -2.6912  -2.6772  -2.6536  -2.6073  -2.5478
    -2.5200  -2.4851  -2.4708  -2.4473  -2.3711  -2.3139  -2.1990  -2.1766
    -2.1356  -2.0903  -2.0227  -2.0062  -1.9807  -1.9674  -1.9459  -1.9087
    -1.8863  -1.8675  -1.8433  -1.8210  -1.8087  -1.7766  -1.7488  -1.7308
    -1.7108  -1.7032  -1.6843  -1.6682  -1.6546  -1.6098  -1.5774  -1.5569
    -1.5291  -1.5066  -1.4964  -1.4364  -1.4273  -1.3742  -1.3526  -1.3310
    -1.3146  -1.2771  -1.2574  -1.2242  -1.1653  -1.0819  -1.0469  -1.0173
    -0.9009  -0.7768  -0.7598  -0.7415  -0.5866  -0.5698  -0.5534  -0.5341
    -0.5195  -0.5111  -0.4158  -0.3838  -0.3597  -0.2654  -0.1730  -0.1461
     0.1759   1.2832   1.5414

     occupation numbers 
     1.0000   1.0000   1.0000   1.0000   1.0000   1.0000   1.0000   1.0000
     1.0000   1.0000   1.0000   1.0000   1.0000   1.0000   1.0000   1.0000
     1.0000   1.0000   1.0000   1.0000   1.0000   1.0000   1.0000   1.0000
     1.0000   1.0000   1.0000   1.0000   1.0000   1.0000   1.0000   1.0000
     1.0000   1.0000   1.0000   1.0000   1.0000   1.0000   1.0000   1.0000
     1.0000   1.0000   1.0000   1.0000   1.0000   1.0000   1.0000   1.0000
     1.0000   1.0000   1.0000   1.0000   1.0000   1.0000   1.0000   1.0000
     1.0000   1.0000   1.0000   1.0000   1.0000   1.0000   1.0000   1.0000
     1.0000   1.0000   1.0000   1.0000   1.0000   1.0000   1.0000   1.0000
     1.0000   1.0000   1.0000   1.0000   1.0000   1.0000   1.0000   1.0000
     1.0000   1.0000   1.0000   1.0000   1.0000   1.0000   1.0000   1.0000
     1.0000   1.0000   1.0000   1.0000   1.0000   1.0000   1.0000   1.0000
     1.0000   1.0000   1.0000   1.0000   1.0000   1.0000   1.0000   1.0000
     1.0000   1.0000   1.0000   1.0000   1.0000   1.0000   1.0000   1.0000
     1.0000   1.0000   1.0000   1.0000   1.0000   1.0000   1.0000   1.0000
     1.0000   1.0000   1.0000   1.0000   1.0000   1.0000   1.0000   1.0000
     1.0000   1.0000   1.0000   1.0000   1.0000   1.0000   1.0000   1.0000
     1.0000   1.0000   1.0000   1.0000   1.0000   1.0000   1.0000   1.0000
     1.0000   1.0000   1.0000   1.0000   1.0000   1.0000   1.0000   1.0000
     1.0000   1.0000   1.0000   1.0000   1.0000   1.0000   1.0000   1.0000
     1.0000   1.0000   1.0000   1.0000   1.0000   1.0000   1.0000   1.0000
     1.0000   1.0000   1.0000   1.0000   1.0000   1.0000   1.0000   1.0000
     1.0000   1.0000   1.0000   1.0000   1.0000   1.0000   1.0000   1.0000
     1.0000   1.0000   1.0000   1.0000   1.0000   1.0000   1.0000   1.0000
     1.0000   1.0000   1.0000   1.0000   1.0000   1.0000   1.0000   1.0000
     1.0000   1.0000   1.0000   1.0000   1.0000   1.0000   1.0000   1.0000
     1.0000   1.0000   1.0000   1.0000   1.0000   1.0000   1.0000   1.0000
     1.0000   1.0000   1.0000   1.0000   1.0000   1.0000   1.0000   1.0000
     1.0000   1.0000   1.0000   1.0000   1.0000   1.0000   1.0000   1.0000
     1.0000   1.0000   1.0000   1.0000   1.0000   1.0000   1.0000   1.0000
     1.0000   1.0000   1.0000

          k = 0.2000 0.1155 0.0000 (112171 PWs)   bands (ev):

   -73.8164 -73.8134 -73.8101 -73.8077 -73.8056 -73.8045 -73.8023 -73.8002
   -73.7953 -73.7936 -73.7905 -73.7886 -73.7867 -73.7540 -73.7492 -73.7396
   -38.2190 -38.2151 -38.2114 -38.1692 -38.1656 -38.1624 -38.1574 -38.1461
   -38.1395 -38.1028 -38.0796 -38.0760 -38.0510 -38.0485 -38.0448 -38.0340
   -38.0279 -38.0259 -38.0249 -38.0230 -38.0166 -38.0147 -38.0138 -38.0121
   -38.0040 -37.9994 -37.9973 -37.9958 -37.9932 -37.9910 -37.9890 -37.9860
   -37.9850 -37.9819 -37.9685 -37.9613 -37.9601 -37.9540 -37.9513 -37.9460
   -37.9324 -37.9237 -37.9199 -37.9122 -37.9073 -37.9002 -37.8760 -37.8696
   -21.5396 -15.4316 -14.5570 -13.9763 -13.8017 -13.7887 -13.4785 -13.4762
   -13.3245 -12.9676 -12.7923 -12.7587 -12.6916 -12.6834 -12.6578 -12.5874
   -12.5664 -12.5201 -12.4956 -12.4808 -12.4696 -12.4348 -12.4211 -12.3036
   -12.2945 -12.2648 -12.2474 -12.2086 -12.1923 -12.1727 -12.1709 -12.1481
   -12.0922 -12.0834  -7.9312  -7.5996  -6.2806  -6.2670  -6.2476  -6.2337
    -6.1661  -5.6733  -5.6435  -5.6233  -5.5511  -5.5366  -5.4901  -5.4721
    -5.4450  -5.4244  -5.3716  -5.3281  -5.3146  -5.2836  -5.2760  -5.0782
    -5.0711  -5.0142  -5.0039  -4.9466  -4.7418  -4.7366  -4.5698  -4.5118
    -4.4483  -4.3948  -4.3399  -4.2747  -4.2080  -4.1633  -4.1501  -4.1236
    -4.1000  -4.0570  -4.0408  -4.0039  -3.9828  -3.9133  -3.9103  -3.8999
    -3.6620  -3.5713  -3.5520  -3.5109  -3.4693  -3.4581  -3.4419  -3.3848
    -3.3727  -3.3123  -3.3024  -3.2834  -3.2604  -3.2139  -3.1974  -3.1480
    -3.1107  -3.0031  -2.9610  -2.9136  -2.8313  -2.8092  -2.7848  -2.7535
    -2.7390  -2.7130  -2.6996  -2.6932  -2.6687  -2.6394  -2.6005  -2.5510
    -2.5337  -2.5017  -2.4754  -2.4315  -2.3676  -2.3072  -2.2040  -2.1825
    -2.1247  -2.0922  -2.0202  -2.0011  -1.9734  -1.9701  -1.9321  -1.9094
    -1.9017  -1.8786  -1.8397  -1.8282  -1.8085  -1.7825  -1.7522  -1.7374
    -1.7122  -1.6945  -1.6816  -1.6597  -1.6414  -1.6270  -1.5914  -1.5455
    -1.5337  -1.5057  -1.4607  -1.4462  -1.4257  -1.4057  -1.3575  -1.3121
    -1.3062  -1.2977  -1.2518  -1.2113  -1.1710  -1.0659  -1.0472  -1.0298
    -0.9000  -0.7670  -0.7586  -0.7560  -0.5982  -0.5628  -0.5489  -0.5335
    -0.5218  -0.5161  -0.4112  -0.3846  -0.3560  -0.2661  -0.1692  -0.1500
     0.1765   1.2779   1.5478

     occupation numbers 
     1.0000   1.0000   1.0000   1.0000   1.0000   1.0000   1.0000   1.0000
     1.0000   1.0000   1.0000   1.0000   1.0000   1.0000   1.0000   1.0000
     1.0000   1.0000   1.0000   1.0000   1.0000   1.0000   1.0000   1.0000
     1.0000   1.0000   1.0000   1.0000   1.0000   1.0000   1.0000   1.0000
     1.0000   1.0000   1.0000   1.0000   1.0000   1.0000   1.0000   1.0000
     1.0000   1.0000   1.0000   1.0000   1.0000   1.0000   1.0000   1.0000
     1.0000   1.0000   1.0000   1.0000   1.0000   1.0000   1.0000   1.0000
     1.0000   1.0000   1.0000   1.0000   1.0000   1.0000   1.0000   1.0000
     1.0000   1.0000   1.0000   1.0000   1.0000   1.0000   1.0000   1.0000
     1.0000   1.0000   1.0000   1.0000   1.0000   1.0000   1.0000   1.0000
     1.0000   1.0000   1.0000   1.0000   1.0000   1.0000   1.0000   1.0000
     1.0000   1.0000   1.0000   1.0000   1.0000   1.0000   1.0000   1.0000
     1.0000   1.0000   1.0000   1.0000   1.0000   1.0000   1.0000   1.0000
     1.0000   1.0000   1.0000   1.0000   1.0000   1.0000   1.0000   1.0000
     1.0000   1.0000   1.0000   1.0000   1.0000   1.0000   1.0000   1.0000
     1.0000   1.0000   1.0000   1.0000   1.0000   1.0000   1.0000   1.0000
     1.0000   1.0000   1.0000   1.0000   1.0000   1.0000   1.0000   1.0000
     1.0000   1.0000   1.0000   1.0000   1.0000   1.0000   1.0000   1.0000
     1.0000   1.0000   1.0000   1.0000   1.0000   1.0000   1.0000   1.0000
     1.0000   1.0000   1.0000   1.0000   1.0000   1.0000   1.0000   1.0000
     1.0000   1.0000   1.0000   1.0000   1.0000   1.0000   1.0000   1.0000
     1.0000   1.0000   1.0000   1.0000   1.0000   1.0000   1.0000   1.0000
     1.0000   1.0000   1.0000   1.0000   1.0000   1.0000   1.0000   1.0000
     1.0000   1.0000   1.0000   1.0000   1.0000   1.0000   1.0000   1.0000
     1.0000   1.0000   1.0000   1.0000   1.0000   1.0000   1.0000   1.0000
     1.0000   1.0000   1.0000   1.0000   1.0000   1.0000   1.0000   1.0000
     1.0000   1.0000   1.0000   1.0000   1.0000   1.0000   1.0000   1.0000
     1.0000   1.0000   1.0000   1.0000   1.0000   1.0000   1.0000   1.0000
     1.0000   1.0000   1.0000   1.0000   1.0000   1.0000   1.0000   1.0000
     1.0000   1.0000   1.0000   1.0000   1.0000   1.0000   1.0000   1.0000
     1.0000   1.0000   1.0000

          k =-0.4000 0.2309 0.0000 (112236 PWs)   bands (ev):

   -73.8162 -73.8135 -73.8102 -73.8085 -73.8053 -73.8039 -73.8025 -73.8001
   -73.7953 -73.7936 -73.7906 -73.7885 -73.7867 -73.7540 -73.7492 -73.7396
   -38.2073 -38.2015 -38.1900 -38.1837 -38.1827 -38.1639 -38.1608 -38.1467
   -38.1300 -38.1236 -38.1055 -38.1006 -38.0627 -38.0576 -38.0467 -38.0395
   -38.0288 -38.0243 -38.0141 -38.0119 -38.0091 -38.0078 -38.0039 -37.9994
   -37.9982 -37.9971 -37.9949 -37.9923 -37.9872 -37.9855 -37.9820 -37.9790
   -37.9748 -37.9691 -37.9657 -37.9649 -37.9529 -37.9509 -37.9490 -37.9464
   -37.9442 -37.9379 -37.9294 -37.9167 -37.9087 -37.8918 -37.8901 -37.8758
   -21.5396 -15.4316 -14.4358 -14.2327 -13.8696 -13.8578 -13.2495 -13.2439
   -13.0250 -12.9976 -12.9752 -12.9108 -12.8324 -12.7332 -12.7038 -12.6850
   -12.5364 -12.5093 -12.4617 -12.4529 -12.4305 -12.4231 -12.3864 -12.3633
   -12.3529 -12.2820 -12.2221 -12.2001 -12.1757 -12.1613 -12.1547 -12.1521
   -12.0561 -12.0400  -7.9312  -7.5996  -6.1793  -6.1331  -6.1145  -6.0894
    -6.0229  -5.8768  -5.8564  -5.8397  -5.7117  -5.5345  -5.5114  -5.4902
    -5.4545  -5.4469  -5.4377  -5.3892  -5.3798  -5.3175  -5.3100  -5.0826
    -5.0582  -5.0239  -5.0058  -4.8050  -4.6097  -4.5572  -4.4824  -4.4424
    -4.4141  -4.3737  -4.3526  -4.3116  -4.2468  -4.2229  -4.1959  -4.1621
    -4.1226  -4.1144  -4.1020  -4.0752  -4.0690  -4.0543  -4.0431  -3.6917
    -3.5721  -3.5253  -3.4792  -3.4599  -3.4263  -3.3994  -3.3592  -3.3193
    -3.3023  -3.2814  -3.2609  -3.2427  -3.2156  -3.2000  -3.1512  -3.1164
    -3.0739  -3.0493  -3.0153  -2.9736  -2.9392  -2.9074  -2.8416  -2.7818
    -2.7444  -2.7158  -2.6673  -2.6343  -2.6160  -2.5886  -2.5574  -2.4999
    -2.4330  -2.4274  -2.4010  -2.3379  -2.2865  -2.2551  -2.2458  -2.1783
    -2.1287  -2.1193  -2.0609  -2.0328  -2.0192  -1.9955  -1.9657  -1.9374
    -1.9189  -1.9020  -1.8915  -1.8709  -1.8658  -1.8531  -1.8398  -1.8251
    -1.7931  -1.7652  -1.7233  -1.6999  -1.6939  -1.6730  -1.6540  -1.6154
    -1.5935  -1.5647  -1.5068  -1.4785  -1.4532  -1.3608  -1.3335  -1.3031
    -1.2669  -1.2229  -1.1746  -1.1299  -1.1226  -1.1039  -1.0782  -0.9907
    -0.9725  -0.8804  -0.7366  -0.7211  -0.6420  -0.6248  -0.5112  -0.4568
    -0.4510  -0.4257  -0.4049  -0.3781  -0.3050  -0.1022  -0.0000   0.0303
     0.1220   1.3293   1.5534

     occupation numbers 
     1.0000   1.0000   1.0000   1.0000   1.0000   1.0000   1.0000   1.0000
     1.0000   1.0000   1.0000   1.0000   1.0000   1.0000   1.0000   1.0000
     1.0000   1.0000   1.0000   1.0000   1.0000   1.0000   1.0000   1.0000
     1.0000   1.0000   1.0000   1.0000   1.0000   1.0000   1.0000   1.0000
     1.0000   1.0000   1.0000   1.0000   1.0000   1.0000   1.0000   1.0000
     1.0000   1.0000   1.0000   1.0000   1.0000   1.0000   1.0000   1.0000
     1.0000   1.0000   1.0000   1.0000   1.0000   1.0000   1.0000   1.0000
     1.0000   1.0000   1.0000   1.0000   1.0000   1.0000   1.0000   1.0000
     1.0000   1.0000   1.0000   1.0000   1.0000   1.0000   1.0000   1.0000
     1.0000   1.0000   1.0000   1.0000   1.0000   1.0000   1.0000   1.0000
     1.0000   1.0000   1.0000   1.0000   1.0000   1.0000   1.0000   1.0000
     1.0000   1.0000   1.0000   1.0000   1.0000   1.0000   1.0000   1.0000
     1.0000   1.0000   1.0000   1.0000   1.0000   1.0000   1.0000   1.0000
     1.0000   1.0000   1.0000   1.0000   1.0000   1.0000   1.0000   1.0000
     1.0000   1.0000   1.0000   1.0000   1.0000   1.0000   1.0000   1.0000
     1.0000   1.0000   1.0000   1.0000   1.0000   1.0000   1.0000   1.0000
     1.0000   1.0000   1.0000   1.0000   1.0000   1.0000   1.0000   1.0000
     1.0000   1.0000   1.0000   1.0000   1.0000   1.0000   1.0000   1.0000
     1.0000   1.0000   1.0000   1.0000   1.0000   1.0000   1.0000   1.0000
     1.0000   1.0000   1.0000   1.0000   1.0000   1.0000   1.0000   1.0000
     1.0000   1.0000   1.0000   1.0000   1.0000   1.0000   1.0000   1.0000
     1.0000   1.0000   1.0000   1.0000   1.0000   1.0000   1.0000   1.0000
     1.0000   1.0000   1.0000   1.0000   1.0000   1.0000   1.0000   1.0000
     1.0000   1.0000   1.0000   1.0000   1.0000   1.0000   1.0000   1.0000
     1.0000   1.0000   1.0000   1.0000   1.0000   1.0000   1.0000   1.0000
     1.0000   1.0000   1.0000   1.0000   1.0000   1.0000   1.0000   1.0000
     1.0000   1.0000   1.0000   1.0000   1.0000   1.0000   1.0000   1.0000
     1.0000   1.0000   1.0000   1.0000   1.0000   1.0000   1.0000   1.0000
     1.0000   1.0000   1.0000   1.0000   1.0000   1.0000   1.0000   1.0000
     1.0000   1.0000   1.0000   1.0000   1.0000   1.0000   1.0000   1.0000
     1.0000   1.0000   1.0000

          k = 0.4000 0.2309 0.0000 (112236 PWs)   bands (ev):

   -73.8160 -73.8140 -73.8101 -73.8078 -73.8054 -73.8041 -73.8025 -73.8002
   -73.7951 -73.7938 -73.7903 -73.7888 -73.7867 -73.7540 -73.7492 -73.7396
   -38.2056 -38.2036 -38.1897 -38.1864 -38.1800 -38.1628 -38.1612 -38.1466
   -38.1295 -38.1241 -38.1062 -38.1010 -38.0622 -38.0586 -38.0465 -38.0398
   -38.0280 -38.0244 -38.0134 -38.0110 -38.0103 -38.0091 -38.0039 -37.9997
   -37.9974 -37.9961 -37.9944 -37.9911 -37.9891 -37.9856 -37.9817 -37.9790
   -37.9762 -37.9689 -37.9663 -37.9638 -37.9524 -37.9499 -37.9495 -37.9462
   -37.9443 -37.9370 -37.9295 -37.9176 -37.9091 -37.8936 -37.8912 -37.8734
   -21.5396 -15.4316 -14.4356 -14.2329 -13.8690 -13.8584 -13.2494 -13.2449
   -13.0216 -12.9976 -12.9772 -12.9100 -12.8333 -12.7308 -12.7056 -12.6858
   -12.5433 -12.5021 -12.4659 -12.4505 -12.4294 -12.4233 -12.3867 -12.3619
   -12.3504 -12.2819 -12.2288 -12.1980 -12.1777 -12.1603 -12.1551 -12.1495
   -12.0531 -12.0425  -7.9312  -7.5996  -6.1791  -6.1252  -6.1148  -6.0893
    -6.0368  -5.8695  -5.8561  -5.8364  -5.7167  -5.5356  -5.5099  -5.4931
    -5.4491  -5.4484  -5.4403  -5.3887  -5.3832  -5.3153  -5.3091  -5.0738
    -5.0699  -5.0222  -5.0105  -4.7772  -4.6231  -4.5612  -4.4909  -4.4527
    -4.4203  -4.3727  -4.3507  -4.3056  -4.2411  -4.2272  -4.1918  -4.1595
    -4.1261  -4.1158  -4.1032  -4.0771  -4.0640  -4.0520  -4.0436  -3.6788
    -3.5647  -3.5264  -3.4697  -3.4523  -3.4322  -3.4029  -3.3619  -3.3287
    -3.2924  -3.2853  -3.2559  -3.2412  -3.2203  -3.2061  -3.1406  -3.1195
    -3.0919  -3.0578  -3.0217  -2.9720  -2.9412  -2.9069  -2.8534  -2.7818
    -2.7479  -2.6927  -2.6585  -2.6343  -2.6215  -2.6059  -2.5224  -2.5054
    -2.4632  -2.4329  -2.3775  -2.3357  -2.2786  -2.2608  -2.2468  -2.1624
    -2.1277  -2.1201  -2.0459  -2.0175  -2.0116  -1.9879  -1.9810  -1.9655
    -1.9416  -1.9065  -1.8959  -1.8701  -1.8579  -1.8486  -1.8401  -1.8248
    -1.8093  -1.7545  -1.7335  -1.7147  -1.6965  -1.6513  -1.6368  -1.6279
    -1.6001  -1.5578  -1.5141  -1.5008  -1.4269  -1.3643  -1.3156  -1.2959
    -1.2628  -1.2388  -1.1938  -1.1357  -1.1197  -1.0662  -1.0571  -1.0058
    -0.9785  -0.8917  -0.7318  -0.7273  -0.6406  -0.6311  -0.5210  -0.4605
    -0.4497  -0.4239  -0.4058  -0.3682  -0.2987  -0.1038   0.0013   0.0263
     0.1251   1.3124   1.5739

     occupation numbers 
     1.0000   1.0000   1.0000   1.0000   1.0000   1.0000   1.0000   1.0000
     1.0000   1.0000   1.0000   1.0000   1.0000   1.0000   1.0000   1.0000
     1.0000   1.0000   1.0000   1.0000   1.0000   1.0000   1.0000   1.0000
     1.0000   1.0000   1.0000   1.0000   1.0000   1.0000   1.0000   1.0000
     1.0000   1.0000   1.0000   1.0000   1.0000   1.0000   1.0000   1.0000
     1.0000   1.0000   1.0000   1.0000   1.0000   1.0000   1.0000   1.0000
     1.0000   1.0000   1.0000   1.0000   1.0000   1.0000   1.0000   1.0000
     1.0000   1.0000   1.0000   1.0000   1.0000   1.0000   1.0000   1.0000
     1.0000   1.0000   1.0000   1.0000   1.0000   1.0000   1.0000   1.0000
     1.0000   1.0000   1.0000   1.0000   1.0000   1.0000   1.0000   1.0000
     1.0000   1.0000   1.0000   1.0000   1.0000   1.0000   1.0000   1.0000
     1.0000   1.0000   1.0000   1.0000   1.0000   1.0000   1.0000   1.0000
     1.0000   1.0000   1.0000   1.0000   1.0000   1.0000   1.0000   1.0000
     1.0000   1.0000   1.0000   1.0000   1.0000   1.0000   1.0000   1.0000
     1.0000   1.0000   1.0000   1.0000   1.0000   1.0000   1.0000   1.0000
     1.0000   1.0000   1.0000   1.0000   1.0000   1.0000   1.0000   1.0000
     1.0000   1.0000   1.0000   1.0000   1.0000   1.0000   1.0000   1.0000
     1.0000   1.0000   1.0000   1.0000   1.0000   1.0000   1.0000   1.0000
     1.0000   1.0000   1.0000   1.0000   1.0000   1.0000   1.0000   1.0000
     1.0000   1.0000   1.0000   1.0000   1.0000   1.0000   1.0000   1.0000
     1.0000   1.0000   1.0000   1.0000   1.0000   1.0000   1.0000   1.0000
     1.0000   1.0000   1.0000   1.0000   1.0000   1.0000   1.0000   1.0000
     1.0000   1.0000   1.0000   1.0000   1.0000   1.0000   1.0000   1.0000
     1.0000   1.0000   1.0000   1.0000   1.0000   1.0000   1.0000   1.0000
     1.0000   1.0000   1.0000   1.0000   1.0000   1.0000   1.0000   1.0000
     1.0000   1.0000   1.0000   1.0000   1.0000   1.0000   1.0000   1.0000
     1.0000   1.0000   1.0000   1.0000   1.0000   1.0000   1.0000   1.0000
     1.0000   1.0000   1.0000   1.0000   1.0000   1.0000   1.0000   1.0000
     1.0000   1.0000   1.0000   1.0000   1.0000   1.0000   1.0000   1.0000
     1.0000   1.0000   1.0000   1.0000   1.0000   1.0000   1.0000   1.0000
     1.0000   1.0000   1.0000

          k =-0.2000 0.3464 0.0000 (112231 PWs)   bands (ev):

   -73.8162 -73.8135 -73.8102 -73.8082 -73.8053 -73.8043 -73.8022 -73.8001
   -73.7956 -73.7935 -73.7905 -73.7886 -73.7867 -73.7540 -73.7492 -73.7396
   -38.2118 -38.2017 -38.2003 -38.1788 -38.1752 -38.1638 -38.1551 -38.1489
   -38.1324 -38.1251 -38.1126 -38.0766 -38.0605 -38.0551 -38.0475 -38.0368
   -38.0318 -38.0281 -38.0247 -38.0199 -38.0157 -38.0078 -38.0032 -37.9993
   -37.9958 -37.9929 -37.9909 -37.9880 -37.9859 -37.9835 -37.9818 -37.9806
   -37.9762 -37.9731 -37.9691 -37.9647 -37.9579 -37.9549 -37.9513 -37.9467
   -37.9411 -37.9320 -37.9262 -37.9211 -37.9030 -37.8982 -37.8862 -37.8727
   -21.5396 -15.4316 -14.4752 -14.1027 -14.0597 -13.5738 -13.5569 -13.1755
   -13.1190 -13.0095 -12.9352 -12.8083 -12.7913 -12.7063 -12.6725 -12.6198
   -12.5851 -12.5767 -12.5687 -12.4549 -12.4260 -12.3937 -12.3793 -12.3102
   -12.2917 -12.2739 -12.2513 -12.2265 -12.2227 -12.1565 -12.1497 -12.1083
   -12.0953 -12.0353  -7.9312  -7.5996  -6.1939  -6.1790  -6.1442  -6.1219
    -6.1033  -5.7691  -5.7381  -5.7170  -5.6998  -5.6265  -5.6025  -5.5641
    -5.5079  -5.4762  -5.3565  -5.3313  -5.3003  -5.2656  -5.2423  -5.2215
    -5.0979  -4.9143  -4.8949  -4.7970  -4.7561  -4.6093  -4.5179  -4.4483
    -4.3959  -4.3449  -4.3356  -4.3097  -4.2808  -4.2611  -4.2460  -4.2279
    -4.1646  -4.1305  -4.1115  -4.0935  -4.0544  -3.7751  -3.7405  -3.7292
    -3.7091  -3.6925  -3.6148  -3.5086  -3.4239  -3.3833  -3.3746  -3.3096
    -3.2952  -3.2434  -3.2338  -3.2045  -3.1672  -3.1478  -3.1281  -3.0844
    -3.0639  -3.0133  -2.9752  -2.9462  -2.9344  -2.9275  -2.9241  -2.9024
    -2.7989  -2.7441  -2.7226  -2.6781  -2.6314  -2.5642  -2.5320  -2.4786
    -2.4643  -2.4103  -2.3910  -2.3660  -2.3233  -2.2226  -2.1985  -2.1587
    -2.1386  -2.1242  -2.1090  -2.0845  -2.0384  -1.9912  -1.9841  -1.9447
    -1.9212  -1.9024  -1.8699  -1.8568  -1.8270  -1.8187  -1.7985  -1.7773
    -1.7515  -1.7133  -1.7048  -1.6822  -1.6560  -1.6395  -1.5898  -1.5843
    -1.5618  -1.5491  -1.5317  -1.5120  -1.4436  -1.3979  -1.3860  -1.3473
    -1.2910  -1.2494  -1.1976  -1.1739  -1.1590  -1.1222  -1.0477  -1.0058
    -0.8771  -0.8383  -0.6881  -0.6718  -0.6386  -0.6287  -0.6109  -0.5436
    -0.5369  -0.4292  -0.3862  -0.2583  -0.2070  -0.1996  -0.1617   0.0721
     0.1386   1.2920   1.5800

     occupation numbers 
     1.0000   1.0000   1.0000   1.0000   1.0000   1.0000   1.0000   1.0000
     1.0000   1.0000   1.0000   1.0000   1.0000   1.0000   1.0000   1.0000
     1.0000   1.0000   1.0000   1.0000   1.0000   1.0000   1.0000   1.0000
     1.0000   1.0000   1.0000   1.0000   1.0000   1.0000   1.0000   1.0000
     1.0000   1.0000   1.0000   1.0000   1.0000   1.0000   1.0000   1.0000
     1.0000   1.0000   1.0000   1.0000   1.0000   1.0000   1.0000   1.0000
     1.0000   1.0000   1.0000   1.0000   1.0000   1.0000   1.0000   1.0000
     1.0000   1.0000   1.0000   1.0000   1.0000   1.0000   1.0000   1.0000
     1.0000   1.0000   1.0000   1.0000   1.0000   1.0000   1.0000   1.0000
     1.0000   1.0000   1.0000   1.0000   1.0000   1.0000   1.0000   1.0000
     1.0000   1.0000   1.0000   1.0000   1.0000   1.0000   1.0000   1.0000
     1.0000   1.0000   1.0000   1.0000   1.0000   1.0000   1.0000   1.0000
     1.0000   1.0000   1.0000   1.0000   1.0000   1.0000   1.0000   1.0000
     1.0000   1.0000   1.0000   1.0000   1.0000   1.0000   1.0000   1.0000
     1.0000   1.0000   1.0000   1.0000   1.0000   1.0000   1.0000   1.0000
     1.0000   1.0000   1.0000   1.0000   1.0000   1.0000   1.0000   1.0000
     1.0000   1.0000   1.0000   1.0000   1.0000   1.0000   1.0000   1.0000
     1.0000   1.0000   1.0000   1.0000   1.0000   1.0000   1.0000   1.0000
     1.0000   1.0000   1.0000   1.0000   1.0000   1.0000   1.0000   1.0000
     1.0000   1.0000   1.0000   1.0000   1.0000   1.0000   1.0000   1.0000
     1.0000   1.0000   1.0000   1.0000   1.0000   1.0000   1.0000   1.0000
     1.0000   1.0000   1.0000   1.0000   1.0000   1.0000   1.0000   1.0000
     1.0000   1.0000   1.0000   1.0000   1.0000   1.0000   1.0000   1.0000
     1.0000   1.0000   1.0000   1.0000   1.0000   1.0000   1.0000   1.0000
     1.0000   1.0000   1.0000   1.0000   1.0000   1.0000   1.0000   1.0000
     1.0000   1.0000   1.0000   1.0000   1.0000   1.0000   1.0000   1.0000
     1.0000   1.0000   1.0000   1.0000   1.0000   1.0000   1.0000   1.0000
     1.0000   1.0000   1.0000   1.0000   1.0000   1.0000   1.0000   1.0000
     1.0000   1.0000   1.0000   1.0000   1.0000   1.0000   1.0000   1.0000
     1.0000   1.0000   1.0000   1.0000   1.0000   1.0000   1.0000   1.0000
     1.0000   1.0000   1.0000

          k = 0.4000-0.0000 0.0000 (112231 PWs)   bands (ev):

   -73.8162 -73.8137 -73.8102 -73.8081 -73.8054 -73.8040 -73.8025 -73.8002
   -73.7952 -73.7937 -73.7905 -73.7886 -73.7867 -73.7540 -73.7492 -73.7396
   -38.2118 -38.2024 -38.1992 -38.1786 -38.1754 -38.1652 -38.1556 -38.1491
   -38.1317 -38.1236 -38.1121 -38.0764 -38.0614 -38.0557 -38.0473 -38.0375
   -38.0303 -38.0283 -38.0248 -38.0214 -38.0136 -38.0088 -38.0035 -37.9981
   -37.9957 -37.9931 -37.9908 -37.9885 -37.9873 -37.9847 -37.9816 -37.9797
   -37.9747 -37.9742 -37.9689 -37.9650 -37.9579 -37.9544 -37.9511 -37.9464
   -37.9417 -37.9313 -37.9274 -37.9217 -37.9011 -37.8978 -37.8850 -37.8747
   -21.5396 -15.4316 -14.4754 -14.0992 -14.0632 -13.5683 -13.5632 -13.1705
   -13.1224 -13.0134 -12.9290 -12.8043 -12.7954 -12.7110 -12.6817 -12.6021
   -12.5992 -12.5738 -12.5608 -12.4566 -12.4233 -12.4125 -12.3645 -12.3073
   -12.2928 -12.2708 -12.2540 -12.2344 -12.2198 -12.1573 -12.1472 -12.1061
   -12.0968 -12.0357  -7.9312  -7.5996  -6.1867  -6.1814  -6.1485  -6.1193
    -6.1085  -5.7587  -5.7430  -5.7210  -5.6880  -5.6369  -5.6089  -5.5617
    -5.5059  -5.4735  -5.3521  -5.3352  -5.2929  -5.2719  -5.2447  -5.2296
    -5.0975  -4.9021  -4.8868  -4.8104  -4.7564  -4.5725  -4.5393  -4.4662
    -4.4100  -4.3470  -4.3382  -4.3135  -4.2758  -4.2646  -4.2439  -4.2110
    -4.1754  -4.1178  -4.1104  -4.0902  -4.0545  -3.7641  -3.7351  -3.7279
    -3.7084  -3.6990  -3.6268  -3.4863  -3.4313  -3.4033  -3.3729  -3.3271
    -3.2882  -3.2470  -3.2369  -3.2032  -3.1776  -3.1453  -3.1277  -3.0829
    -3.0441  -3.0066  -2.9699  -2.9525  -2.9416  -2.9245  -2.9085  -2.9006
    -2.7903  -2.7580  -2.7235  -2.6626  -2.6340  -2.5834  -2.5480  -2.4717
    -2.4681  -2.4213  -2.3886  -2.3474  -2.3215  -2.2278  -2.1814  -2.1630
    -2.1328  -2.1250  -2.1085  -2.1022  -2.0136  -1.9953  -1.9772  -1.9516
    -1.9277  -1.9015  -1.8837  -1.8658  -1.8534  -1.8224  -1.7956  -1.7716
    -1.7361  -1.7167  -1.6944  -1.6755  -1.6618  -1.6301  -1.5961  -1.5734
    -1.5573  -1.5479  -1.5334  -1.5064  -1.4506  -1.4135  -1.3706  -1.3409
    -1.2884  -1.2681  -1.2026  -1.1796  -1.1520  -1.1108  -1.0504  -1.0041
    -0.8682  -0.8503  -0.6825  -0.6752  -0.6396  -0.6235  -0.6153  -0.5419
    -0.5360  -0.4436  -0.3837  -0.2530  -0.2078  -0.1945  -0.1633   0.0694
     0.1386   1.3218   1.5489

     occupation numbers 
     1.0000   1.0000   1.0000   1.0000   1.0000   1.0000   1.0000   1.0000
     1.0000   1.0000   1.0000   1.0000   1.0000   1.0000   1.0000   1.0000
     1.0000   1.0000   1.0000   1.0000   1.0000   1.0000   1.0000   1.0000
     1.0000   1.0000   1.0000   1.0000   1.0000   1.0000   1.0000   1.0000
     1.0000   1.0000   1.0000   1.0000   1.0000   1.0000   1.0000   1.0000
     1.0000   1.0000   1.0000   1.0000   1.0000   1.0000   1.0000   1.0000
     1.0000   1.0000   1.0000   1.0000   1.0000   1.0000   1.0000   1.0000
     1.0000   1.0000   1.0000   1.0000   1.0000   1.0000   1.0000   1.0000
     1.0000   1.0000   1.0000   1.0000   1.0000   1.0000   1.0000   1.0000
     1.0000   1.0000   1.0000   1.0000   1.0000   1.0000   1.0000   1.0000
     1.0000   1.0000   1.0000   1.0000   1.0000   1.0000   1.0000   1.0000
     1.0000   1.0000   1.0000   1.0000   1.0000   1.0000   1.0000   1.0000
     1.0000   1.0000   1.0000   1.0000   1.0000   1.0000   1.0000   1.0000
     1.0000   1.0000   1.0000   1.0000   1.0000   1.0000   1.0000   1.0000
     1.0000   1.0000   1.0000   1.0000   1.0000   1.0000   1.0000   1.0000
     1.0000   1.0000   1.0000   1.0000   1.0000   1.0000   1.0000   1.0000
     1.0000   1.0000   1.0000   1.0000   1.0000   1.0000   1.0000   1.0000
     1.0000   1.0000   1.0000   1.0000   1.0000   1.0000   1.0000   1.0000
     1.0000   1.0000   1.0000   1.0000   1.0000   1.0000   1.0000   1.0000
     1.0000   1.0000   1.0000   1.0000   1.0000   1.0000   1.0000   1.0000
     1.0000   1.0000   1.0000   1.0000   1.0000   1.0000   1.0000   1.0000
     1.0000   1.0000   1.0000   1.0000   1.0000   1.0000   1.0000   1.0000
     1.0000   1.0000   1.0000   1.0000   1.0000   1.0000   1.0000   1.0000
     1.0000   1.0000   1.0000   1.0000   1.0000   1.0000   1.0000   1.0000
     1.0000   1.0000   1.0000   1.0000   1.0000   1.0000   1.0000   1.0000
     1.0000   1.0000   1.0000   1.0000   1.0000   1.0000   1.0000   1.0000
     1.0000   1.0000   1.0000   1.0000   1.0000   1.0000   1.0000   1.0000
     1.0000   1.0000   1.0000   1.0000   1.0000   1.0000   1.0000   1.0000
     1.0000   1.0000   1.0000   1.0000   1.0000   1.0000   1.0000   1.0000
     1.0000   1.0000   1.0000   1.0000   1.0000   1.0000   1.0000   1.0000
     1.0000   1.0000   1.0000

          k =-0.4000 0.4619 0.0000 (112237 PWs)   bands (ev):

   -73.8161 -73.8137 -73.8103 -73.8083 -73.8053 -73.8039 -73.8025 -73.8001
   -73.7954 -73.7937 -73.7905 -73.7886 -73.7867 -73.7540 -73.7492 -73.7396
   -38.2014 -38.1946 -38.1852 -38.1818 -38.1792 -38.1729 -38.1655 -38.1486
   -38.1458 -38.1322 -38.0939 -38.0897 -38.0845 -38.0516 -38.0444 -38.0408
   -38.0326 -38.0308 -38.0206 -38.0124 -38.0077 -38.0048 -38.0032 -37.9998
   -37.9987 -37.9959 -37.9931 -37.9876 -37.9855 -37.9817 -37.9744 -37.9712
   -37.9691 -37.9675 -37.9607 -37.9573 -37.9542 -37.9525 -37.9494 -37.9473
   -37.9451 -37.9378 -37.9334 -37.9265 -37.9144 -37.8956 -37.8849 -37.8791
   -21.5396 -15.4316 -14.3389 -14.2890 -14.1155 -13.5963 -13.2982 -13.2945
   -12.9614 -12.9493 -12.8864 -12.8565 -12.8274 -12.8009 -12.7961 -12.6654
   -12.6340 -12.5959 -12.4938 -12.4834 -12.3877 -12.3752 -12.3479 -12.3258
   -12.3092 -12.2970 -12.2608 -12.2345 -12.2292 -12.1336 -12.1196 -12.1146
   -12.0796 -12.0161  -7.9312  -7.5996  -6.1756  -6.0597  -6.0249  -5.9693
    -5.9150  -5.8903  -5.8773  -5.8594  -5.8079  -5.7446  -5.6892  -5.6258
    -5.6102  -5.5411  -5.3577  -5.2865  -5.2475  -5.2166  -5.2017  -5.1686
    -5.1576  -4.8545  -4.8327  -4.7459  -4.6203  -4.5901  -4.5445  -4.5251
    -4.4914  -4.4267  -4.3844  -4.3258  -4.3083  -4.2420  -4.2271  -4.2090
    -4.1935  -4.1639  -4.1201  -4.0943  -3.9570  -3.9470  -3.7924  -3.6712
    -3.6268  -3.5897  -3.4344  -3.3974  -3.3635  -3.3260  -3.3084  -3.2813
    -3.2784  -3.2672  -3.2421  -3.2317  -3.2200  -3.2139  -3.1496  -3.1211
    -3.0971  -3.0853  -3.0589  -3.0469  -2.9976  -2.9532  -2.8511  -2.8151
    -2.7443  -2.7308  -2.7124  -2.6821  -2.6315  -2.5951  -2.5111  -2.4195
    -2.4000  -2.3309  -2.3230  -2.3178  -2.2681  -2.1990  -2.1745  -2.1607
    -2.1467  -2.0901  -2.0795  -2.0521  -2.0286  -1.9792  -1.9687  -1.9485
    -1.9324  -1.9183  -1.8947  -1.8838  -1.8685  -1.8552  -1.8449  -1.8420
    -1.8190  -1.7964  -1.7627  -1.7294  -1.7042  -1.6961  -1.6728  -1.6541
    -1.6266  -1.5854  -1.5357  -1.5053  -1.4843  -1.4614  -1.4208  -1.3177
    -1.2848  -1.2364  -1.1706  -1.1165  -1.0936  -1.0763  -1.0445  -0.9736
    -0.8142  -0.7881  -0.7025  -0.6917  -0.6580  -0.6464  -0.5999  -0.5839
    -0.5674  -0.4144  -0.2809  -0.2747  -0.1793  -0.1193  -0.0774   0.0906
     0.1870   1.3301   1.5662

     occupation numbers 
     1.0000   1.0000   1.0000   1.0000   1.0000   1.0000   1.0000   1.0000
     1.0000   1.0000   1.0000   1.0000   1.0000   1.0000   1.0000   1.0000
     1.0000   1.0000   1.0000   1.0000   1.0000   1.0000   1.0000   1.0000
     1.0000   1.0000   1.0000   1.0000   1.0000   1.0000   1.0000   1.0000
     1.0000   1.0000   1.0000   1.0000   1.0000   1.0000   1.0000   1.0000
     1.0000   1.0000   1.0000   1.0000   1.0000   1.0000   1.0000   1.0000
     1.0000   1.0000   1.0000   1.0000   1.0000   1.0000   1.0000   1.0000
     1.0000   1.0000   1.0000   1.0000   1.0000   1.0000   1.0000   1.0000
     1.0000   1.0000   1.0000   1.0000   1.0000   1.0000   1.0000   1.0000
     1.0000   1.0000   1.0000   1.0000   1.0000   1.0000   1.0000   1.0000
     1.0000   1.0000   1.0000   1.0000   1.0000   1.0000   1.0000   1.0000
     1.0000   1.0000   1.0000   1.0000   1.0000   1.0000   1.0000   1.0000
     1.0000   1.0000   1.0000   1.0000   1.0000   1.0000   1.0000   1.0000
     1.0000   1.0000   1.0000   1.0000   1.0000   1.0000   1.0000   1.0000
     1.0000   1.0000   1.0000   1.0000   1.0000   1.0000   1.0000   1.0000
     1.0000   1.0000   1.0000   1.0000   1.0000   1.0000   1.0000   1.0000
     1.0000   1.0000   1.0000   1.0000   1.0000   1.0000   1.0000   1.0000
     1.0000   1.0000   1.0000   1.0000   1.0000   1.0000   1.0000   1.0000
     1.0000   1.0000   1.0000   1.0000   1.0000   1.0000   1.0000   1.0000
     1.0000   1.0000   1.0000   1.0000   1.0000   1.0000   1.0000   1.0000
     1.0000   1.0000   1.0000   1.0000   1.0000   1.0000   1.0000   1.0000
     1.0000   1.0000   1.0000   1.0000   1.0000   1.0000   1.0000   1.0000
     1.0000   1.0000   1.0000   1.0000   1.0000   1.0000   1.0000   1.0000
     1.0000   1.0000   1.0000   1.0000   1.0000   1.0000   1.0000   1.0000
     1.0000   1.0000   1.0000   1.0000   1.0000   1.0000   1.0000   1.0000
     1.0000   1.0000   1.0000   1.0000   1.0000   1.0000   1.0000   1.0000
     1.0000   1.0000   1.0000   1.0000   1.0000   1.0000   1.0000   1.0000
     1.0000   1.0000   1.0000   1.0000   1.0000   1.0000   1.0000   1.0000
     1.0000   1.0000   1.0000   1.0000   1.0000   1.0000   1.0000   1.0000
     1.0000   1.0000   1.0000   1.0000   1.0000   1.0000   1.0000   1.0000
     1.0000   1.0000   1.0000

          k = 0.6000 0.1155 0.0000 (112237 PWs)   bands (ev):

   -73.8159 -73.8141 -73.8102 -73.8080 -73.8053 -73.8041 -73.8025 -73.8002
   -73.7952 -73.7938 -73.7903 -73.7888 -73.7867 -73.7540 -73.7492 -73.7396
   -38.2001 -38.1963 -38.1860 -38.1833 -38.1764 -38.1729 -38.1650 -38.1484
   -38.1466 -38.1320 -38.0933 -38.0917 -38.0841 -38.0512 -38.0444 -38.0405
   -38.0327 -38.0310 -38.0202 -38.0117 -38.0085 -38.0056 -38.0025 -38.0001
   -37.9991 -37.9945 -37.9928 -37.9885 -37.9856 -37.9817 -37.9742 -37.9714
   -37.9690 -37.9683 -37.9605 -37.9572 -37.9547 -37.9527 -37.9498 -37.9471
   -37.9412 -37.9384 -37.9316 -37.9289 -37.9155 -37.8964 -37.8864 -37.8768
   -21.5396 -15.4316 -14.3383 -14.2898 -14.1153 -13.5963 -13.3055 -13.2873
   -12.9673 -12.9432 -12.8814 -12.8600 -12.8277 -12.8012 -12.7966 -12.6679
   -12.6329 -12.5941 -12.5037 -12.4733 -12.3944 -12.3719 -12.3440 -12.3211
   -12.3100 -12.2991 -12.2640 -12.2350 -12.2300 -12.1315 -12.1205 -12.1150
   -12.0789 -12.0164  -7.9312  -7.5996  -6.1756  -6.0566  -6.0199  -5.9684
    -5.9285  -5.9065  -5.8767  -5.8351  -5.8071  -5.7496  -5.6911  -5.6235
    -5.6124  -5.5376  -5.3566  -5.2828  -5.2561  -5.2254  -5.1969  -5.1724
    -5.1484  -4.8565  -4.8394  -4.6958  -4.6472  -4.6098  -4.5516  -4.5144
    -4.4944  -4.4356  -4.3849  -4.3214  -4.3022  -4.2420  -4.2314  -4.1996
    -4.1919  -4.1676  -4.1198  -4.0959  -3.9578  -3.9473  -3.7889  -3.6687
    -3.6283  -3.5804  -3.4360  -3.3763  -3.3674  -3.3344  -3.3028  -3.2871
    -3.2845  -3.2615  -3.2453  -3.2346  -3.2209  -3.2030  -3.1802  -3.1435
    -3.0873  -3.0789  -3.0533  -3.0215  -3.0072  -2.9659  -2.8488  -2.8133
    -2.7521  -2.7320  -2.7260  -2.6580  -2.6409  -2.5574  -2.5203  -2.4681
    -2.3954  -2.3359  -2.3160  -2.2967  -2.2468  -2.2150  -2.1745  -2.1510
    -2.1295  -2.1049  -2.0772  -2.0484  -2.0196  -1.9845  -1.9686  -1.9595
    -1.9379  -1.9129  -1.9030  -1.8822  -1.8730  -1.8622  -1.8534  -1.8449
    -1.8118  -1.8005  -1.7532  -1.7349  -1.7100  -1.6916  -1.6665  -1.6440
    -1.6268  -1.6056  -1.5388  -1.5208  -1.4766  -1.4343  -1.4065  -1.3297
    -1.2937  -1.2304  -1.1601  -1.1396  -1.0956  -1.0577  -1.0224  -0.9930
    -0.8105  -0.7946  -0.6980  -0.6962  -0.6590  -0.6525  -0.6007  -0.5953
    -0.5530  -0.4158  -0.2829  -0.2677  -0.1767  -0.1243  -0.0767   0.0914
     0.1874   1.3200   1.5784

     occupation numbers 
     1.0000   1.0000   1.0000   1.0000   1.0000   1.0000   1.0000   1.0000
     1.0000   1.0000   1.0000   1.0000   1.0000   1.0000   1.0000   1.0000
     1.0000   1.0000   1.0000   1.0000   1.0000   1.0000   1.0000   1.0000
     1.0000   1.0000   1.0000   1.0000   1.0000   1.0000   1.0000   1.0000
     1.0000   1.0000   1.0000   1.0000   1.0000   1.0000   1.0000   1.0000
     1.0000   1.0000   1.0000   1.0000   1.0000   1.0000   1.0000   1.0000
     1.0000   1.0000   1.0000   1.0000   1.0000   1.0000   1.0000   1.0000
     1.0000   1.0000   1.0000   1.0000   1.0000   1.0000   1.0000   1.0000
     1.0000   1.0000   1.0000   1.0000   1.0000   1.0000   1.0000   1.0000
     1.0000   1.0000   1.0000   1.0000   1.0000   1.0000   1.0000   1.0000
     1.0000   1.0000   1.0000   1.0000   1.0000   1.0000   1.0000   1.0000
     1.0000   1.0000   1.0000   1.0000   1.0000   1.0000   1.0000   1.0000
     1.0000   1.0000   1.0000   1.0000   1.0000   1.0000   1.0000   1.0000
     1.0000   1.0000   1.0000   1.0000   1.0000   1.0000   1.0000   1.0000
     1.0000   1.0000   1.0000   1.0000   1.0000   1.0000   1.0000   1.0000
     1.0000   1.0000   1.0000   1.0000   1.0000   1.0000   1.0000   1.0000
     1.0000   1.0000   1.0000   1.0000   1.0000   1.0000   1.0000   1.0000
     1.0000   1.0000   1.0000   1.0000   1.0000   1.0000   1.0000   1.0000
     1.0000   1.0000   1.0000   1.0000   1.0000   1.0000   1.0000   1.0000
     1.0000   1.0000   1.0000   1.0000   1.0000   1.0000   1.0000   1.0000
     1.0000   1.0000   1.0000   1.0000   1.0000   1.0000   1.0000   1.0000
     1.0000   1.0000   1.0000   1.0000   1.0000   1.0000   1.0000   1.0000
     1.0000   1.0000   1.0000   1.0000   1.0000   1.0000   1.0000   1.0000
     1.0000   1.0000   1.0000   1.0000   1.0000   1.0000   1.0000   1.0000
     1.0000   1.0000   1.0000   1.0000   1.0000   1.0000   1.0000   1.0000
     1.0000   1.0000   1.0000   1.0000   1.0000   1.0000   1.0000   1.0000
     1.0000   1.0000   1.0000   1.0000   1.0000   1.0000   1.0000   1.0000
     1.0000   1.0000   1.0000   1.0000   1.0000   1.0000   1.0000   1.0000
     1.0000   1.0000   1.0000   1.0000   1.0000   1.0000   1.0000   1.0000
     1.0000   1.0000   1.0000   1.0000   1.0000   1.0000   1.0000   1.0000
     1.0000   1.0000   1.0000

 ------ SPIN DOWN ----------


          k = 0.0000 0.0000 0.0000 (112117 PWs)   bands (ev):

   -73.8132 -73.8087 -73.8057 -73.8039 -73.8017 -73.8010 -73.7977 -73.7954
   -73.7931 -73.7882 -73.7872 -73.7856 -73.7815 -73.7406 -73.7309 -73.7280
   -38.2154 -38.2142 -38.2121 -38.1561 -38.1555 -38.1513 -38.1467 -38.1455
   -38.1342 -38.0551 -38.0500 -38.0474 -38.0468 -38.0408 -38.0378 -38.0365
   -38.0237 -38.0218 -38.0200 -38.0187 -38.0161 -38.0158 -38.0144 -38.0115
   -38.0083 -38.0050 -38.0036 -37.9987 -37.9918 -37.9884 -37.9858 -37.9843
   -37.9829 -37.9757 -37.9516 -37.9507 -37.9479 -37.9441 -37.9347 -37.9243
   -37.9182 -37.9073 -37.9051 -37.9035 -37.9011 -37.8903 -37.8578 -37.8558
   -21.5383 -15.4304 -14.5941 -13.7052 -13.6906 -13.6706 -13.6419 -13.6279
   -13.6187 -12.9787 -12.7045 -12.6738 -12.6497 -12.6352 -12.6001 -12.5794
   -12.5319 -12.5031 -12.4672 -12.4544 -12.4428 -12.4411 -12.4200 -12.4184
   -12.4147 -12.2197 -12.1975 -12.1877 -12.1711 -12.1554 -12.1515 -12.1472
   -12.1452 -12.1428  -7.9291  -7.5979  -6.3353  -6.3221  -6.3045  -6.2747
    -6.1662  -5.5994  -5.5678  -5.5438  -5.5280  -5.5239  -5.4914  -5.4372
    -5.4044  -5.3857  -5.3103  -5.2791  -5.2591  -5.0983  -5.0893  -5.0612
    -5.0566  -5.0525  -5.0518  -4.9958  -4.9951  -4.9867  -4.5108  -4.4314
    -4.3917  -4.3424  -4.2887  -4.2796  -4.2637  -4.2425  -4.2291  -4.1754
    -4.0764  -4.0057  -3.9747  -3.9596  -3.9333  -3.7876  -3.7550  -3.7512
    -3.6972  -3.6753  -3.6724  -3.5961  -3.5067  -3.4674  -3.4022  -3.3983
    -3.3707  -3.3641  -3.2732  -3.2182  -3.1921  -3.1785  -3.1567  -3.1390
    -3.1260  -3.1210  -3.1069  -3.1044  -3.0389  -2.9237  -2.7910  -2.7445
    -2.6863  -2.6650  -2.6196  -2.5849  -2.5719  -2.4987  -2.4898  -2.4619
    -2.4569  -2.4295  -2.4270  -2.4219  -2.3882  -2.3286  -2.2713  -2.1853
    -2.1144  -2.0527  -1.9634  -1.9583  -1.9291  -1.9157  -1.8644  -1.8223
    -1.7985  -1.7736  -1.7632  -1.7628  -1.7504  -1.7465  -1.7407  -1.7388
    -1.7313  -1.6985  -1.6905  -1.6549  -1.6456  -1.6335  -1.6307  -1.5976
    -1.5710  -1.5250  -1.5149  -1.4879  -1.4472  -1.4080  -1.3686  -1.3512
    -1.2887  -1.2595  -1.1811  -1.0863  -1.0325  -1.0249  -1.0086  -0.9889
    -0.7209  -0.6863  -0.6822  -0.6819  -0.6689  -0.6642  -0.6421  -0.6356
    -0.6192  -0.3918  -0.3805  -0.3705  -0.3553  -0.3386  -0.3291  -0.2929
     0.2194   1.3029   1.6765

     occupation numbers 
     1.0000   1.0000   1.0000   1.0000   1.0000   1.0000   1.0000   1.0000
     1.0000   1.0000   1.0000   1.0000   1.0000   1.0000   1.0000   1.0000
     1.0000   1.0000   1.0000   1.0000   1.0000   1.0000   1.0000   1.0000
     1.0000   1.0000   1.0000   1.0000   1.0000   1.0000   1.0000   1.0000
     1.0000   1.0000   1.0000   1.0000   1.0000   1.0000   1.0000   1.0000
     1.0000   1.0000   1.0000   1.0000   1.0000   1.0000   1.0000   1.0000
     1.0000   1.0000   1.0000   1.0000   1.0000   1.0000   1.0000   1.0000
     1.0000   1.0000   1.0000   1.0000   1.0000   1.0000   1.0000   1.0000
     1.0000   1.0000   1.0000   1.0000   1.0000   1.0000   1.0000   1.0000
     1.0000   1.0000   1.0000   1.0000   1.0000   1.0000   1.0000   1.0000
     1.0000   1.0000   1.0000   1.0000   1.0000   1.0000   1.0000   1.0000
     1.0000   1.0000   1.0000   1.0000   1.0000   1.0000   1.0000   1.0000
     1.0000   1.0000   1.0000   1.0000   1.0000   1.0000   1.0000   1.0000
     1.0000   1.0000   1.0000   1.0000   1.0000   1.0000   1.0000   1.0000
     1.0000   1.0000   1.0000   1.0000   1.0000   1.0000   1.0000   1.0000
     1.0000   1.0000   1.0000   1.0000   1.0000   1.0000   1.0000   1.0000
     1.0000   1.0000   1.0000   1.0000   1.0000   1.0000   1.0000   1.0000
     1.0000   1.0000   1.0000   1.0000   1.0000   1.0000   1.0000   1.0000
     1.0000   1.0000   1.0000   1.0000   1.0000   1.0000   1.0000   1.0000
     1.0000   1.0000   1.0000   1.0000   1.0000   1.0000   1.0000   1.0000
     1.0000   1.0000   1.0000   1.0000   1.0000   1.0000   1.0000   1.0000
     1.0000   1.0000   1.0000   1.0000   1.0000   1.0000   1.0000   1.0000
     1.0000   1.0000   1.0000   1.0000   1.0000   1.0000   1.0000   1.0000
     1.0000   1.0000   1.0000   1.0000   1.0000   1.0000   1.0000   1.0000
     1.0000   1.0000   1.0000   1.0000   1.0000   1.0000   1.0000   1.0000
     1.0000   1.0000   1.0000   1.0000   1.0000   1.0000   1.0000   1.0000
     1.0000   1.0000   1.0000   1.0000   1.0000   1.0000   1.0000   1.0000
     1.0000   1.0000   1.0000   1.0000   1.0000   1.0000   1.0000   1.0000
     1.0000   1.0000   1.0000   1.0000   1.0000   1.0000   1.0000   1.0000
     1.0000   1.0000   1.0000   1.0000   1.0000   1.0000   1.0000   1.0000
     1.0000   1.0000   0.0000

          k = 0.0000 0.2309 0.0000 (112171 PWs)   bands (ev):

   -73.8132 -73.8088 -73.8059 -73.8039 -73.8019 -73.8007 -73.7977 -73.7953
   -73.7932 -73.7882 -73.7872 -73.7856 -73.7815 -73.7406 -73.7309 -73.7280
   -38.2106 -38.2087 -38.2057 -38.1597 -38.1582 -38.1568 -38.1496 -38.1391
   -38.1310 -38.0957 -38.0704 -38.0690 -38.0457 -38.0417 -38.0370 -38.0261
   -38.0247 -38.0195 -38.0166 -38.0153 -38.0125 -38.0096 -38.0081 -38.0046
   -37.9986 -37.9939 -37.9934 -37.9900 -37.9873 -37.9860 -37.9832 -37.9824
   -37.9786 -37.9756 -37.9548 -37.9523 -37.9483 -37.9450 -37.9349 -37.9252
   -37.9246 -37.9138 -37.9099 -37.9020 -37.8981 -37.8888 -37.8635 -37.8585
   -21.5383 -15.4304 -14.5524 -13.9722 -13.7980 -13.7820 -13.4880 -13.4581
   -13.3212 -12.9626 -12.7993 -12.7314 -12.6922 -12.6839 -12.6520 -12.5823
   -12.5513 -12.5384 -12.4910 -12.4743 -12.4531 -12.4324 -12.4213 -12.3130
   -12.2819 -12.2596 -12.2412 -12.2118 -12.1823 -12.1718 -12.1650 -12.1502
   -12.0931 -12.0774  -7.9291  -7.5979  -6.2741  -6.2635  -6.2321  -6.2285
    -6.1639  -5.6584  -5.6389  -5.6223  -5.5522  -5.5136  -5.4851  -5.4662
    -5.4221  -5.4117  -5.3894  -5.3167  -5.3125  -5.2820  -5.2652  -5.0679
    -5.0631  -5.0123  -4.9984  -4.9503  -4.7350  -4.7304  -4.5795  -4.4724
    -4.4438  -4.3800  -4.3172  -4.2799  -4.2021  -4.1565  -4.1414  -4.1154
    -4.0952  -4.0570  -4.0390  -3.9970  -3.9808  -3.9065  -3.9041  -3.8966
    -3.6529  -3.5648  -3.5342  -3.5005  -3.4617  -3.4367  -3.4326  -3.3790
    -3.3599  -3.3085  -3.2878  -3.2741  -3.2600  -3.2019  -3.1880  -3.1452
    -3.0723  -2.9801  -2.9363  -2.9204  -2.8415  -2.7730  -2.7547  -2.7404
    -2.7145  -2.7065  -2.6913  -2.6676  -2.6412  -2.6237  -2.5818  -2.5371
    -2.4969  -2.4929  -2.4624  -2.4264  -2.3467  -2.3001  -2.1845  -2.1557
    -2.1030  -2.0598  -2.0077  -1.9920  -1.9670  -1.9476  -1.9215  -1.8995
    -1.8801  -1.8514  -1.8391  -1.8104  -1.7775  -1.7522  -1.7370  -1.7286
    -1.7138  -1.6928  -1.6768  -1.6506  -1.6353  -1.5987  -1.5775  -1.5372
    -1.5219  -1.4873  -1.4755  -1.4467  -1.4276  -1.3632  -1.3305  -1.3179
    -1.2925  -1.2712  -1.2313  -1.2124  -1.1463  -1.0605  -1.0370  -1.0030
    -0.8863  -0.7725  -0.7544  -0.7379  -0.5623  -0.5583  -0.5409  -0.5272
    -0.5142  -0.5013  -0.4015  -0.3709  -0.3552  -0.2412  -0.1645  -0.1341
     0.2014   1.3088   1.7076

     occupation numbers 
     1.0000   1.0000   1.0000   1.0000   1.0000   1.0000   1.0000   1.0000
     1.0000   1.0000   1.0000   1.0000   1.0000   1.0000   1.0000   1.0000
     1.0000   1.0000   1.0000   1.0000   1.0000   1.0000   1.0000   1.0000
     1.0000   1.0000   1.0000   1.0000   1.0000   1.0000   1.0000   1.0000
     1.0000   1.0000   1.0000   1.0000   1.0000   1.0000   1.0000   1.0000
     1.0000   1.0000   1.0000   1.0000   1.0000   1.0000   1.0000   1.0000
     1.0000   1.0000   1.0000   1.0000   1.0000   1.0000   1.0000   1.0000
     1.0000   1.0000   1.0000   1.0000   1.0000   1.0000   1.0000   1.0000
     1.0000   1.0000   1.0000   1.0000   1.0000   1.0000   1.0000   1.0000
     1.0000   1.0000   1.0000   1.0000   1.0000   1.0000   1.0000   1.0000
     1.0000   1.0000   1.0000   1.0000   1.0000   1.0000   1.0000   1.0000
     1.0000   1.0000   1.0000   1.0000   1.0000   1.0000   1.0000   1.0000
     1.0000   1.0000   1.0000   1.0000   1.0000   1.0000   1.0000   1.0000
     1.0000   1.0000   1.0000   1.0000   1.0000   1.0000   1.0000   1.0000
     1.0000   1.0000   1.0000   1.0000   1.0000   1.0000   1.0000   1.0000
     1.0000   1.0000   1.0000   1.0000   1.0000   1.0000   1.0000   1.0000
     1.0000   1.0000   1.0000   1.0000   1.0000   1.0000   1.0000   1.0000
     1.0000   1.0000   1.0000   1.0000   1.0000   1.0000   1.0000   1.0000
     1.0000   1.0000   1.0000   1.0000   1.0000   1.0000   1.0000   1.0000
     1.0000   1.0000   1.0000   1.0000   1.0000   1.0000   1.0000   1.0000
     1.0000   1.0000   1.0000   1.0000   1.0000   1.0000   1.0000   1.0000
     1.0000   1.0000   1.0000   1.0000   1.0000   1.0000   1.0000   1.0000
     1.0000   1.0000   1.0000   1.0000   1.0000   1.0000   1.0000   1.0000
     1.0000   1.0000   1.0000   1.0000   1.0000   1.0000   1.0000   1.0000
     1.0000   1.0000   1.0000   1.0000   1.0000   1.0000   1.0000   1.0000
     1.0000   1.0000   1.0000   1.0000   1.0000   1.0000   1.0000   1.0000
     1.0000   1.0000   1.0000   1.0000   1.0000   1.0000   1.0000   1.0000
     1.0000   1.0000   1.0000   1.0000   1.0000   1.0000   1.0000   1.0000
     1.0000   1.0000   1.0000   1.0000   1.0000   1.0000   1.0000   1.0000
     1.0000   1.0000   1.0000   1.0000   1.0000   1.0000   1.0000   1.0000
     1.0000   1.0000   0.0000

          k = 0.0000 0.4619 0.0000 (112236 PWs)   bands (ev):

   -73.8130 -73.8089 -73.8063 -73.8037 -73.8020 -73.8005 -73.7976 -73.7952
   -73.7934 -73.7882 -73.7872 -73.7856 -73.7815 -73.7406 -73.7309 -73.7280
   -38.2000 -38.1958 -38.1841 -38.1770 -38.1720 -38.1575 -38.1540 -38.1379
   -38.1234 -38.1163 -38.0953 -38.0926 -38.0557 -38.0494 -38.0421 -38.0325
   -38.0264 -38.0150 -38.0095 -38.0065 -38.0022 -38.0010 -37.9978 -37.9968
   -37.9940 -37.9908 -37.9905 -37.9869 -37.9833 -37.9816 -37.9756 -37.9725
   -37.9662 -37.9598 -37.9579 -37.9498 -37.9443 -37.9406 -37.9382 -37.9328
   -37.9315 -37.9216 -37.9170 -37.9085 -37.8983 -37.8834 -37.8775 -37.8619
   -21.5383 -15.4304 -14.4306 -14.2293 -13.8675 -13.8501 -13.2586 -13.2268
   -13.0141 -12.9955 -12.9667 -12.9127 -12.8294 -12.7257 -12.7013 -12.6856
   -12.5166 -12.5091 -12.4575 -12.4466 -12.4332 -12.4223 -12.3793 -12.3656
   -12.3474 -12.2813 -12.2123 -12.1986 -12.1742 -12.1561 -12.1543 -12.1500
   -12.0539 -12.0366  -7.9291  -7.5979  -6.1760  -6.1180  -6.1044  -6.0853
    -6.0201  -5.8669  -5.8548  -5.8298  -5.7073  -5.5272  -5.4946  -5.4816
    -5.4545  -5.4417  -5.4326  -5.3868  -5.3694  -5.3199  -5.2965  -5.0630
    -5.0577  -5.0250  -5.0056  -4.8020  -4.6206  -4.5158  -4.4781  -4.4342
    -4.3897  -4.3700  -4.3439  -4.3062  -4.2396  -4.2249  -4.1870  -4.1554
    -4.1246  -4.1135  -4.0989  -4.0725  -4.0624  -4.0476  -4.0374  -3.6768
    -3.5639  -3.5023  -3.4710  -3.4362  -3.4114  -3.3822  -3.3614  -3.3055
    -3.2838  -3.2751  -3.2563  -3.2319  -3.2142  -3.1813  -3.1522  -3.1020
    -3.0576  -3.0448  -3.0008  -2.9490  -2.9311  -2.9040  -2.8413  -2.7558
    -2.7215  -2.6920  -2.6417  -2.6266  -2.5916  -2.5514  -2.5214  -2.4757
    -2.4382  -2.4241  -2.3874  -2.3097  -2.2717  -2.2456  -2.2366  -2.1684
    -2.1017  -2.0802  -2.0326  -2.0077  -2.0009  -1.9893  -1.9689  -1.9338
    -1.9170  -1.8959  -1.8734  -1.8630  -1.8482  -1.8361  -1.8270  -1.8207
    -1.7662  -1.7575  -1.7104  -1.7009  -1.6803  -1.6514  -1.6216  -1.6078
    -1.5798  -1.5462  -1.5150  -1.4852  -1.4172  -1.3794  -1.2955  -1.2776
    -1.2214  -1.1945  -1.1842  -1.1369  -1.1099  -1.0898  -1.0376  -0.9886
    -0.9647  -0.8828  -0.7266  -0.7117  -0.6342  -0.6143  -0.4771  -0.4492
    -0.4374  -0.4259  -0.3922  -0.3688  -0.2974  -0.0810   0.0075   0.0372
     0.1550   1.3174   1.7586

     occupation numbers 
     1.0000   1.0000   1.0000   1.0000   1.0000   1.0000   1.0000   1.0000
     1.0000   1.0000   1.0000   1.0000   1.0000   1.0000   1.0000   1.0000
     1.0000   1.0000   1.0000   1.0000   1.0000   1.0000   1.0000   1.0000
     1.0000   1.0000   1.0000   1.0000   1.0000   1.0000   1.0000   1.0000
     1.0000   1.0000   1.0000   1.0000   1.0000   1.0000   1.0000   1.0000
     1.0000   1.0000   1.0000   1.0000   1.0000   1.0000   1.0000   1.0000
     1.0000   1.0000   1.0000   1.0000   1.0000   1.0000   1.0000   1.0000
     1.0000   1.0000   1.0000   1.0000   1.0000   1.0000   1.0000   1.0000
     1.0000   1.0000   1.0000   1.0000   1.0000   1.0000   1.0000   1.0000
     1.0000   1.0000   1.0000   1.0000   1.0000   1.0000   1.0000   1.0000
     1.0000   1.0000   1.0000   1.0000   1.0000   1.0000   1.0000   1.0000
     1.0000   1.0000   1.0000   1.0000   1.0000   1.0000   1.0000   1.0000
     1.0000   1.0000   1.0000   1.0000   1.0000   1.0000   1.0000   1.0000
     1.0000   1.0000   1.0000   1.0000   1.0000   1.0000   1.0000   1.0000
     1.0000   1.0000   1.0000   1.0000   1.0000   1.0000   1.0000   1.0000
     1.0000   1.0000   1.0000   1.0000   1.0000   1.0000   1.0000   1.0000
     1.0000   1.0000   1.0000   1.0000   1.0000   1.0000   1.0000   1.0000
     1.0000   1.0000   1.0000   1.0000   1.0000   1.0000   1.0000   1.0000
     1.0000   1.0000   1.0000   1.0000   1.0000   1.0000   1.0000   1.0000
     1.0000   1.0000   1.0000   1.0000   1.0000   1.0000   1.0000   1.0000
     1.0000   1.0000   1.0000   1.0000   1.0000   1.0000   1.0000   1.0000
     1.0000   1.0000   1.0000   1.0000   1.0000   1.0000   1.0000   1.0000
     1.0000   1.0000   1.0000   1.0000   1.0000   1.0000   1.0000   1.0000
     1.0000   1.0000   1.0000   1.0000   1.0000   1.0000   1.0000   1.0000
     1.0000   1.0000   1.0000   1.0000   1.0000   1.0000   1.0000   1.0000
     1.0000   1.0000   1.0000   1.0000   1.0000   1.0000   1.0000   1.0000
     1.0000   1.0000   1.0000   1.0000   1.0000   1.0000   1.0000   1.0000
     1.0000   1.0000   1.0000   1.0000   1.0000   1.0000   1.0000   1.0000
     1.0000   1.0000   1.0000   1.0000   1.0000   1.0000   1.0000   1.0000
     1.0000   1.0000   1.0000   1.0000   1.0000   1.0000   1.0000   1.0000
     1.0000   1.0000   0.0000

          k = 0.2000 0.3464 0.0000 (112231 PWs)   bands (ev):

   -73.8130 -73.8091 -73.8061 -73.8039 -73.8018 -73.8005 -73.7978 -73.7953
   -73.7931 -73.7883 -73.7871 -73.7856 -73.7815 -73.7406 -73.7309 -73.7280
   -38.2043 -38.1952 -38.1945 -38.1718 -38.1665 -38.1576 -38.1476 -38.1405
   -38.1257 -38.1152 -38.1044 -38.0694 -38.0524 -38.0469 -38.0426 -38.0311
   -38.0263 -38.0216 -38.0163 -38.0136 -38.0102 -38.0046 -37.9980 -37.9963
   -37.9909 -37.9876 -37.9861 -37.9839 -37.9816 -37.9790 -37.9757 -37.9746
   -37.9691 -37.9650 -37.9566 -37.9512 -37.9485 -37.9457 -37.9369 -37.9325
   -37.9260 -37.9197 -37.9166 -37.9083 -37.8952 -37.8883 -37.8732 -37.8606
   -21.5383 -15.4304 -14.4706 -14.0976 -14.0562 -13.5622 -13.5602 -13.1681
   -13.1158 -13.0045 -12.9307 -12.8044 -12.7855 -12.7056 -12.6690 -12.5999
   -12.5905 -12.5732 -12.5682 -12.4531 -12.4215 -12.3870 -12.3729 -12.3092
   -12.2873 -12.2689 -12.2494 -12.2290 -12.2182 -12.1516 -12.1471 -12.1044
   -12.0933 -12.0330  -7.9291  -7.5979  -6.1815  -6.1696  -6.1399  -6.1185
    -6.1003  -5.7531  -5.7301  -5.7151  -5.6746  -5.6394  -5.5973  -5.5589
    -5.5002  -5.4686  -5.3499  -5.3274  -5.2794  -5.2701  -5.2379  -5.2212
    -5.0907  -4.8987  -4.8843  -4.8091  -4.7479  -4.5920  -4.4825  -4.4569
    -4.3900  -4.3605  -4.3328  -4.2973  -4.2719  -4.2585  -4.2284  -4.2205
    -4.1673  -4.1173  -4.1025  -4.0873  -4.0519  -3.7550  -3.7290  -3.7199
    -3.7123  -3.6869  -3.5945  -3.4891  -3.4209  -3.3893  -3.3438  -3.3136
    -3.2787  -3.2389  -3.2163  -3.1979  -3.1613  -3.1450  -3.0933  -3.0866
    -3.0318  -2.9999  -2.9642  -2.9429  -2.9349  -2.9173  -2.9024  -2.8898
    -2.7919  -2.7153  -2.6882  -2.6394  -2.6033  -2.5343  -2.5010  -2.4695
    -2.4525  -2.4241  -2.3794  -2.3527  -2.3032  -2.2077  -2.1704  -2.1528
    -2.1198  -2.1183  -2.0806  -2.0704  -1.9951  -1.9809  -1.9648  -1.9372
    -1.9157  -1.8919  -1.8681  -1.8441  -1.8287  -1.8150  -1.7860  -1.7485
    -1.7222  -1.7075  -1.6969  -1.6625  -1.6563  -1.6089  -1.5813  -1.5678
    -1.5592  -1.5328  -1.5205  -1.4936  -1.4133  -1.3813  -1.3677  -1.3550
    -1.2786  -1.2151  -1.1983  -1.1744  -1.1468  -1.1019  -1.0200  -0.9906
    -0.8672  -0.8357  -0.6736  -0.6640  -0.6298  -0.6205  -0.6072  -0.5323
    -0.5236  -0.4177  -0.3672  -0.2487  -0.1995  -0.1903  -0.1421   0.0811
     0.1667   1.3313   1.7288

     occupation numbers 
     1.0000   1.0000   1.0000   1.0000   1.0000   1.0000   1.0000   1.0000
     1.0000   1.0000   1.0000   1.0000   1.0000   1.0000   1.0000   1.0000
     1.0000   1.0000   1.0000   1.0000   1.0000   1.0000   1.0000   1.0000
     1.0000   1.0000   1.0000   1.0000   1.0000   1.0000   1.0000   1.0000
     1.0000   1.0000   1.0000   1.0000   1.0000   1.0000   1.0000   1.0000
     1.0000   1.0000   1.0000   1.0000   1.0000   1.0000   1.0000   1.0000
     1.0000   1.0000   1.0000   1.0000   1.0000   1.0000   1.0000   1.0000
     1.0000   1.0000   1.0000   1.0000   1.0000   1.0000   1.0000   1.0000
     1.0000   1.0000   1.0000   1.0000   1.0000   1.0000   1.0000   1.0000
     1.0000   1.0000   1.0000   1.0000   1.0000   1.0000   1.0000   1.0000
     1.0000   1.0000   1.0000   1.0000   1.0000   1.0000   1.0000   1.0000
     1.0000   1.0000   1.0000   1.0000   1.0000   1.0000   1.0000   1.0000
     1.0000   1.0000   1.0000   1.0000   1.0000   1.0000   1.0000   1.0000
     1.0000   1.0000   1.0000   1.0000   1.0000   1.0000   1.0000   1.0000
     1.0000   1.0000   1.0000   1.0000   1.0000   1.0000   1.0000   1.0000
     1.0000   1.0000   1.0000   1.0000   1.0000   1.0000   1.0000   1.0000
     1.0000   1.0000   1.0000   1.0000   1.0000   1.0000   1.0000   1.0000
     1.0000   1.0000   1.0000   1.0000   1.0000   1.0000   1.0000   1.0000
     1.0000   1.0000   1.0000   1.0000   1.0000   1.0000   1.0000   1.0000
     1.0000   1.0000   1.0000   1.0000   1.0000   1.0000   1.0000   1.0000
     1.0000   1.0000   1.0000   1.0000   1.0000   1.0000   1.0000   1.0000
     1.0000   1.0000   1.0000   1.0000   1.0000   1.0000   1.0000   1.0000
     1.0000   1.0000   1.0000   1.0000   1.0000   1.0000   1.0000   1.0000
     1.0000   1.0000   1.0000   1.0000   1.0000   1.0000   1.0000   1.0000
     1.0000   1.0000   1.0000   1.0000   1.0000   1.0000   1.0000   1.0000
     1.0000   1.0000   1.0000   1.0000   1.0000   1.0000   1.0000   1.0000
     1.0000   1.0000   1.0000   1.0000   1.0000   1.0000   1.0000   1.0000
     1.0000   1.0000   1.0000   1.0000   1.0000   1.0000   1.0000   1.0000
     1.0000   1.0000   1.0000   1.0000   1.0000   1.0000   1.0000   1.0000
     1.0000   1.0000   1.0000   1.0000   1.0000   1.0000   1.0000   1.0000
     1.0000   1.0000   0.0000

          k = 0.2000 0.5774 0.0000 (112237 PWs)   bands (ev):

   -73.8129 -73.8091 -73.8063 -73.8038 -73.8018 -73.8005 -73.7976 -73.7952
   -73.7933 -73.7883 -73.7872 -73.7856 -73.7815 -73.7406 -73.7309 -73.7280
   -38.1951 -38.1881 -38.1794 -38.1753 -38.1695 -38.1657 -38.1576 -38.1423
   -38.1382 -38.1222 -38.0849 -38.0835 -38.0756 -38.0442 -38.0404 -38.0338
   -38.0284 -38.0220 -38.0127 -38.0091 -38.0030 -37.9993 -37.9974 -37.9954
   -37.9943 -37.9924 -37.9877 -37.9837 -37.9812 -37.9755 -37.9683 -37.9643
   -37.9592 -37.9549 -37.9526 -37.9498 -37.9486 -37.9410 -37.9373 -37.9338
   -37.9306 -37.9237 -37.9195 -37.9154 -37.9036 -37.8860 -37.8737 -37.8653
   -21.5383 -15.4304 -14.3307 -14.2888 -14.1107 -13.5911 -13.2951 -13.2902
   -12.9468 -12.9435 -12.8845 -12.8492 -12.8369 -12.7990 -12.7895 -12.6542
   -12.6269 -12.5990 -12.4874 -12.4808 -12.3792 -12.3676 -12.3541 -12.3207
   -12.3062 -12.2943 -12.2549 -12.2304 -12.2294 -12.1274 -12.1173 -12.1149
   -12.0761 -12.0136  -7.9291  -7.5979  -6.1732  -6.0435  -5.9974  -5.9807
    -5.9140  -5.8890  -5.8697  -5.8430  -5.8043  -5.7391  -5.6807  -5.6174
    -5.6088  -5.5362  -5.3572  -5.2595  -5.2495  -5.2125  -5.1974  -5.1653
    -5.1492  -4.8499  -4.8262  -4.7427  -4.6262  -4.5702  -4.5404  -4.5133
    -4.4676  -4.4106  -4.3911  -4.3110  -4.3047  -4.2346  -4.2273  -4.2071
    -4.1810  -4.1602  -4.1178  -4.0914  -3.9483  -3.9448  -3.7831  -3.6557
    -3.6319  -3.5580  -3.4261  -3.3821  -3.3491  -3.3168  -3.2962  -3.2785
    -3.2638  -3.2543  -3.2364  -3.2269  -3.2096  -3.1938  -3.1346  -3.1153
    -3.0913  -3.0733  -3.0554  -3.0233  -2.9913  -2.9210  -2.8669  -2.8106
    -2.7279  -2.6958  -2.6777  -2.6549  -2.5985  -2.5369  -2.4918  -2.4400
    -2.3832  -2.3258  -2.3135  -2.2993  -2.2440  -2.1888  -2.1662  -2.1232
    -2.1069  -2.0923  -2.0671  -2.0459  -2.0055  -1.9719  -1.9528  -1.9420
    -1.9238  -1.9042  -1.8847  -1.8684  -1.8600  -1.8473  -1.8368  -1.8272
    -1.8106  -1.7702  -1.7598  -1.7271  -1.6929  -1.6732  -1.6574  -1.6349
    -1.6013  -1.5595  -1.5419  -1.4893  -1.4714  -1.4568  -1.3905  -1.3196
    -1.2652  -1.1841  -1.1501  -1.1329  -1.0848  -1.0718  -0.9969  -0.9727
    -0.8057  -0.7904  -0.6944  -0.6820  -0.6490  -0.6348  -0.5848  -0.5737
    -0.5557  -0.3908  -0.2707  -0.2615  -0.1792  -0.1162  -0.0558   0.1222
     0.1978   1.3394   1.7419

     occupation numbers 
     1.0000   1.0000   1.0000   1.0000   1.0000   1.0000   1.0000   1.0000
     1.0000   1.0000   1.0000   1.0000   1.0000   1.0000   1.0000   1.0000
     1.0000   1.0000   1.0000   1.0000   1.0000   1.0000   1.0000   1.0000
     1.0000   1.0000   1.0000   1.0000   1.0000   1.0000   1.0000   1.0000
     1.0000   1.0000   1.0000   1.0000   1.0000   1.0000   1.0000   1.0000
     1.0000   1.0000   1.0000   1.0000   1.0000   1.0000   1.0000   1.0000
     1.0000   1.0000   1.0000   1.0000   1.0000   1.0000   1.0000   1.0000
     1.0000   1.0000   1.0000   1.0000   1.0000   1.0000   1.0000   1.0000
     1.0000   1.0000   1.0000   1.0000   1.0000   1.0000   1.0000   1.0000
     1.0000   1.0000   1.0000   1.0000   1.0000   1.0000   1.0000   1.0000
     1.0000   1.0000   1.0000   1.0000   1.0000   1.0000   1.0000   1.0000
     1.0000   1.0000   1.0000   1.0000   1.0000   1.0000   1.0000   1.0000
     1.0000   1.0000   1.0000   1.0000   1.0000   1.0000   1.0000   1.0000
     1.0000   1.0000   1.0000   1.0000   1.0000   1.0000   1.0000   1.0000
     1.0000   1.0000   1.0000   1.0000   1.0000   1.0000   1.0000   1.0000
     1.0000   1.0000   1.0000   1.0000   1.0000   1.0000   1.0000   1.0000
     1.0000   1.0000   1.0000   1.0000   1.0000   1.0000   1.0000   1.0000
     1.0000   1.0000   1.0000   1.0000   1.0000   1.0000   1.0000   1.0000
     1.0000   1.0000   1.0000   1.0000   1.0000   1.0000   1.0000   1.0000
     1.0000   1.0000   1.0000   1.0000   1.0000   1.0000   1.0000   1.0000
     1.0000   1.0000   1.0000   1.0000   1.0000   1.0000   1.0000   1.0000
     1.0000   1.0000   1.0000   1.0000   1.0000   1.0000   1.0000   1.0000
     1.0000   1.0000   1.0000   1.0000   1.0000   1.0000   1.0000   1.0000
     1.0000   1.0000   1.0000   1.0000   1.0000   1.0000   1.0000   1.0000
     1.0000   1.0000   1.0000   1.0000   1.0000   1.0000   1.0000   1.0000
     1.0000   1.0000   1.0000   1.0000   1.0000   1.0000   1.0000   1.0000
     1.0000   1.0000   1.0000   1.0000   1.0000   1.0000   1.0000   1.0000
     1.0000   1.0000   1.0000   1.0000   1.0000   1.0000   1.0000   1.0000
     1.0000   1.0000   1.0000   1.0000   1.0000   1.0000   1.0000   1.0000
     1.0000   1.0000   1.0000   1.0000   1.0000   1.0000   1.0000   1.0000
     1.0000   1.0000   0.0000

          k =-0.2000 0.1155 0.0000 (112171 PWs)   bands (ev):

   -73.8131 -73.8089 -73.8058 -73.8040 -73.8016 -73.8010 -73.7977 -73.7953
   -73.7932 -73.7882 -73.7872 -73.7856 -73.7815 -73.7406 -73.7309 -73.7280
   -38.2101 -38.2098 -38.2051 -38.1613 -38.1580 -38.1554 -38.1498 -38.1383
   -38.1312 -38.0952 -38.0712 -38.0690 -38.0457 -38.0420 -38.0368 -38.0276
   -38.0216 -38.0198 -38.0188 -38.0174 -38.0108 -38.0091 -38.0078 -38.0044
   -37.9986 -37.9937 -37.9921 -37.9907 -37.9875 -37.9862 -37.9839 -37.9820
   -37.9786 -37.9756 -37.9547 -37.9516 -37.9490 -37.9449 -37.9349 -37.9270
   -37.9232 -37.9133 -37.9092 -37.9027 -37.8987 -37.8887 -37.8630 -37.8590
   -21.5383 -15.4304 -14.5524 -13.9714 -13.7972 -13.7848 -13.4748 -13.4701
   -13.3215 -12.9630 -12.7866 -12.7523 -12.6879 -12.6781 -12.6542 -12.5830
   -12.5608 -12.5174 -12.4931 -12.4755 -12.4650 -12.4297 -12.4204 -12.3038
   -12.2912 -12.2586 -12.2414 -12.2100 -12.1837 -12.1723 -12.1653 -12.1489
   -12.0924 -12.0783  -7.9291  -7.5979  -6.2780  -6.2576  -6.2375  -6.2250
    -6.1640  -5.6673  -5.6312  -5.6185  -5.5430  -5.5250  -5.4847  -5.4649
    -5.4319  -5.4130  -5.3792  -5.3233  -5.3074  -5.2772  -5.2719  -5.0751
    -5.0585  -5.0108  -4.9963  -4.9469  -4.7353  -4.7317  -4.5619  -4.5030
    -4.4389  -4.3658  -4.3344  -4.2723  -4.2003  -4.1565  -4.1417  -4.1183
    -4.0951  -4.0602  -4.0359  -3.9917  -3.9791  -3.9105  -3.9004  -3.8918
    -3.6475  -3.5798  -3.5275  -3.4952  -3.4702  -3.4540  -3.4395  -3.3695
    -3.3610  -3.3062  -3.2900  -3.2728  -3.2521  -3.2000  -3.1885  -3.1482
    -3.0734  -2.9670  -2.9439  -2.9107  -2.8128  -2.7869  -2.7632  -2.7377
    -2.7143  -2.7019  -2.6891  -2.6796  -2.6614  -2.6333  -2.5792  -2.5373
    -2.4916  -2.4746  -2.4601  -2.4245  -2.3535  -2.2996  -2.1771  -2.1640
    -2.1119  -2.0643  -2.0120  -1.9903  -1.9631  -1.9527  -1.9221  -1.8980
    -1.8727  -1.8534  -1.8298  -1.8085  -1.7923  -1.7632  -1.7374  -1.7197
    -1.7016  -1.6916  -1.6711  -1.6525  -1.6423  -1.5975  -1.5639  -1.5425
    -1.5126  -1.4939  -1.4873  -1.4296  -1.4213  -1.3570  -1.3419  -1.3212
    -1.3042  -1.2706  -1.2428  -1.2117  -1.1432  -1.0703  -1.0340  -0.9902
    -0.8925  -0.7677  -0.7499  -0.7299  -0.5768  -0.5615  -0.5407  -0.5259
    -0.5094  -0.5006  -0.4043  -0.3742  -0.3496  -0.2402  -0.1639  -0.1362
     0.2000   1.3310   1.6821

     occupation numbers 
     1.0000   1.0000   1.0000   1.0000   1.0000   1.0000   1.0000   1.0000
     1.0000   1.0000   1.0000   1.0000   1.0000   1.0000   1.0000   1.0000
     1.0000   1.0000   1.0000   1.0000   1.0000   1.0000   1.0000   1.0000
     1.0000   1.0000   1.0000   1.0000   1.0000   1.0000   1.0000   1.0000
     1.0000   1.0000   1.0000   1.0000   1.0000   1.0000   1.0000   1.0000
     1.0000   1.0000   1.0000   1.0000   1.0000   1.0000   1.0000   1.0000
     1.0000   1.0000   1.0000   1.0000   1.0000   1.0000   1.0000   1.0000
     1.0000   1.0000   1.0000   1.0000   1.0000   1.0000   1.0000   1.0000
     1.0000   1.0000   1.0000   1.0000   1.0000   1.0000   1.0000   1.0000
     1.0000   1.0000   1.0000   1.0000   1.0000   1.0000   1.0000   1.0000
     1.0000   1.0000   1.0000   1.0000   1.0000   1.0000   1.0000   1.0000
     1.0000   1.0000   1.0000   1.0000   1.0000   1.0000   1.0000   1.0000
     1.0000   1.0000   1.0000   1.0000   1.0000   1.0000   1.0000   1.0000
     1.0000   1.0000   1.0000   1.0000   1.0000   1.0000   1.0000   1.0000
     1.0000   1.0000   1.0000   1.0000   1.0000   1.0000   1.0000   1.0000
     1.0000   1.0000   1.0000   1.0000   1.0000   1.0000   1.0000   1.0000
     1.0000   1.0000   1.0000   1.0000   1.0000   1.0000   1.0000   1.0000
     1.0000   1.0000   1.0000   1.0000   1.0000   1.0000   1.0000   1.0000
     1.0000   1.0000   1.0000   1.0000   1.0000   1.0000   1.0000   1.0000
     1.0000   1.0000   1.0000   1.0000   1.0000   1.0000   1.0000   1.0000
     1.0000   1.0000   1.0000   1.0000   1.0000   1.0000   1.0000   1.0000
     1.0000   1.0000   1.0000   1.0000   1.0000   1.0000   1.0000   1.0000
     1.0000   1.0000   1.0000   1.0000   1.0000   1.0000   1.0000   1.0000
     1.0000   1.0000   1.0000   1.0000   1.0000   1.0000   1.0000   1.0000
     1.0000   1.0000   1.0000   1.0000   1.0000   1.0000   1.0000   1.0000
     1.0000   1.0000   1.0000   1.0000   1.0000   1.0000   1.0000   1.0000
     1.0000   1.0000   1.0000   1.0000   1.0000   1.0000   1.0000   1.0000
     1.0000   1.0000   1.0000   1.0000   1.0000   1.0000   1.0000   1.0000
     1.0000   1.0000   1.0000   1.0000   1.0000   1.0000   1.0000   1.0000
     1.0000   1.0000   1.0000   1.0000   1.0000   1.0000   1.0000   1.0000
     1.0000   1.0000   0.0000

          k = 0.2000 0.1155 0.0000 (112171 PWs)   bands (ev):

   -73.8131 -73.8089 -73.8058 -73.8040 -73.8016 -73.8008 -73.7978 -73.7954
   -73.7931 -73.7883 -73.7872 -73.7856 -73.7815 -73.7406 -73.7309 -73.7280
   -38.2108 -38.2086 -38.2057 -38.1626 -38.1576 -38.1546 -38.1491 -38.1385
   -38.1318 -38.0953 -38.0715 -38.0689 -38.0458 -38.0408 -38.0382 -38.0275
   -38.0221 -38.0198 -38.0181 -38.0165 -38.0118 -38.0090 -38.0070 -38.0045
   -37.9990 -37.9936 -37.9926 -37.9893 -37.9872 -37.9863 -37.9851 -37.9819
   -37.9786 -37.9755 -37.9537 -37.9528 -37.9490 -37.9446 -37.9349 -37.9271
   -37.9228 -37.9128 -37.9097 -37.9027 -37.8985 -37.8890 -37.8648 -37.8572
   -21.5383 -15.4304 -14.5524 -13.9715 -13.7965 -13.7852 -13.4736 -13.4719
   -13.3207 -12.9630 -12.7864 -12.7516 -12.6873 -12.6798 -12.6545 -12.5828
   -12.5619 -12.5162 -12.4908 -12.4773 -12.4648 -12.4316 -12.4194 -12.2994
   -12.2910 -12.2614 -12.2444 -12.2055 -12.1894 -12.1699 -12.1677 -12.1460
   -12.0897 -12.0807  -7.9291  -7.5979  -6.2722  -6.2601  -6.2405  -6.2258
    -6.1640  -5.6601  -5.6367  -5.6152  -5.5429  -5.5302  -5.4837  -5.4665
    -5.4363  -5.4180  -5.3662  -5.3228  -5.3103  -5.2776  -5.2706  -5.0724
    -5.0655  -5.0091  -4.9996  -4.9410  -4.7366  -4.7320  -4.5557  -4.5030
    -4.4337  -4.3866  -4.3338  -4.2668  -4.1992  -4.1573  -4.1438  -4.1188
    -4.0946  -4.0511  -4.0355  -3.9984  -3.9781  -3.9078  -3.9041  -3.8941
    -3.6398  -3.5612  -3.5424  -3.5010  -3.4614  -3.4518  -3.4344  -3.3767
    -3.3668  -3.3035  -3.2941  -3.2770  -3.2432  -3.2061  -3.1915  -3.1420
    -3.0816  -2.9806  -2.9337  -2.8995  -2.8096  -2.7888  -2.7679  -2.7395
    -2.7260  -2.7024  -2.6910  -2.6803  -2.6469  -2.6209  -2.5726  -2.5410
    -2.5157  -2.4814  -2.4622  -2.4124  -2.3499  -2.2924  -2.1877  -2.1623
    -2.1060  -2.0650  -2.0098  -1.9819  -1.9573  -1.9455  -1.9139  -1.8998
    -1.8922  -1.8656  -1.8277  -1.8118  -1.7949  -1.7651  -1.7418  -1.7269
    -1.7007  -1.6827  -1.6695  -1.6460  -1.6271  -1.6082  -1.5826  -1.5301
    -1.5244  -1.4954  -1.4470  -1.4367  -1.4175  -1.3924  -1.3442  -1.3044
    -1.3001  -1.2890  -1.2377  -1.1954  -1.1507  -1.0497  -1.0353  -1.0065
    -0.8898  -0.7581  -0.7486  -0.7439  -0.5875  -0.5525  -0.5404  -0.5254
    -0.5122  -0.5047  -0.4001  -0.3756  -0.3446  -0.2411  -0.1600  -0.1399
     0.2007   1.3258   1.6886

     occupation numbers 
     1.0000   1.0000   1.0000   1.0000   1.0000   1.0000   1.0000   1.0000
     1.0000   1.0000   1.0000   1.0000   1.0000   1.0000   1.0000   1.0000
     1.0000   1.0000   1.0000   1.0000   1.0000   1.0000   1.0000   1.0000
     1.0000   1.0000   1.0000   1.0000   1.0000   1.0000   1.0000   1.0000
     1.0000   1.0000   1.0000   1.0000   1.0000   1.0000   1.0000   1.0000
     1.0000   1.0000   1.0000   1.0000   1.0000   1.0000   1.0000   1.0000
     1.0000   1.0000   1.0000   1.0000   1.0000   1.0000   1.0000   1.0000
     1.0000   1.0000   1.0000   1.0000   1.0000   1.0000   1.0000   1.0000
     1.0000   1.0000   1.0000   1.0000   1.0000   1.0000   1.0000   1.0000
     1.0000   1.0000   1.0000   1.0000   1.0000   1.0000   1.0000   1.0000
     1.0000   1.0000   1.0000   1.0000   1.0000   1.0000   1.0000   1.0000
     1.0000   1.0000   1.0000   1.0000   1.0000   1.0000   1.0000   1.0000
     1.0000   1.0000   1.0000   1.0000   1.0000   1.0000   1.0000   1.0000
     1.0000   1.0000   1.0000   1.0000   1.0000   1.0000   1.0000   1.0000
     1.0000   1.0000   1.0000   1.0000   1.0000   1.0000   1.0000   1.0000
     1.0000   1.0000   1.0000   1.0000   1.0000   1.0000   1.0000   1.0000
     1.0000   1.0000   1.0000   1.0000   1.0000   1.0000   1.0000   1.0000
     1.0000   1.0000   1.0000   1.0000   1.0000   1.0000   1.0000   1.0000
     1.0000   1.0000   1.0000   1.0000   1.0000   1.0000   1.0000   1.0000
     1.0000   1.0000   1.0000   1.0000   1.0000   1.0000   1.0000   1.0000
     1.0000   1.0000   1.0000   1.0000   1.0000   1.0000   1.0000   1.0000
     1.0000   1.0000   1.0000   1.0000   1.0000   1.0000   1.0000   1.0000
     1.0000   1.0000   1.0000   1.0000   1.0000   1.0000   1.0000   1.0000
     1.0000   1.0000   1.0000   1.0000   1.0000   1.0000   1.0000   1.0000
     1.0000   1.0000   1.0000   1.0000   1.0000   1.0000   1.0000   1.0000
     1.0000   1.0000   1.0000   1.0000   1.0000   1.0000   1.0000   1.0000
     1.0000   1.0000   1.0000   1.0000   1.0000   1.0000   1.0000   1.0000
     1.0000   1.0000   1.0000   1.0000   1.0000   1.0000   1.0000   1.0000
     1.0000   1.0000   1.0000   1.0000   1.0000   1.0000   1.0000   1.0000
     1.0000   1.0000   1.0000   1.0000   1.0000   1.0000   1.0000   1.0000
     1.0000   1.0000   0.0000

          k =-0.4000 0.2309 0.0000 (112236 PWs)   bands (ev):

   -73.8130 -73.8091 -73.8060 -73.8041 -73.8013 -73.8010 -73.7976 -73.7953
   -73.7932 -73.7883 -73.7872 -73.7856 -73.7815 -73.7406 -73.7309 -73.7280
   -38.1995 -38.1969 -38.1836 -38.1783 -38.1717 -38.1560 -38.1539 -38.1378
   -38.1223 -38.1163 -38.0966 -38.0928 -38.0560 -38.0498 -38.0420 -38.0334
   -38.0231 -38.0192 -38.0065 -38.0062 -38.0043 -38.0024 -37.9985 -37.9954
   -37.9931 -37.9903 -37.9894 -37.9877 -37.9842 -37.9807 -37.9755 -37.9733
   -37.9665 -37.9592 -37.9565 -37.9503 -37.9440 -37.9412 -37.9387 -37.9354
   -37.9279 -37.9221 -37.9162 -37.9083 -37.8990 -37.8841 -37.8766 -37.8623
   -21.5383 -15.4304 -14.4309 -14.2286 -13.8645 -13.8542 -13.2445 -13.2392
   -13.0189 -12.9928 -12.9710 -12.9068 -12.8292 -12.7279 -12.7001 -12.6818
   -12.5294 -12.5033 -12.4575 -12.4494 -12.4272 -12.4218 -12.3829 -12.3600
   -12.3494 -12.2793 -12.2180 -12.1960 -12.1732 -12.1582 -12.1522 -12.1494
   -12.0535 -12.0374  -7.9291  -7.5979  -6.1756  -6.1239  -6.1020  -6.0836
    -6.0172  -5.8702  -5.8511  -5.8318  -5.7057  -5.5243  -5.5054  -5.4800
    -5.4489  -5.4412  -5.4333  -5.3845  -5.3752  -5.3121  -5.3045  -5.0746
    -5.0526  -5.0192  -5.0024  -4.7972  -4.5985  -4.5437  -4.4711  -4.4352
    -4.4075  -4.3675  -4.3475  -4.3037  -4.2400  -4.2165  -4.1912  -4.1559
    -4.1175  -4.1089  -4.0970  -4.0710  -4.0640  -4.0477  -4.0368  -3.6702
    -3.5614  -3.5140  -3.4684  -3.4493  -3.4192  -3.3897  -3.3514  -3.3122
    -3.2828  -3.2741  -3.2546  -3.2372  -3.2089  -3.1910  -3.1404  -3.1110
    -3.0621  -3.0317  -3.0053  -2.9439  -2.9251  -2.8933  -2.8187  -2.7583
    -2.7135  -2.6953  -2.6440  -2.6217  -2.5877  -2.5734  -2.5426  -2.4746
    -2.4223  -2.4164  -2.3868  -2.3250  -2.2738  -2.2458  -2.2373  -2.1600
    -2.1137  -2.0921  -2.0468  -2.0240  -2.0049  -1.9860  -1.9496  -1.9155
    -1.9022  -1.8892  -1.8791  -1.8611  -1.8525  -1.8447  -1.8334  -1.8146
    -1.7788  -1.7489  -1.7087  -1.6815  -1.6794  -1.6541  -1.6398  -1.6056
    -1.5793  -1.5473  -1.4913  -1.4612  -1.4407  -1.3467  -1.3183  -1.2894
    -1.2575  -1.2060  -1.1672  -1.1217  -1.1111  -1.0910  -1.0650  -0.9790
    -0.9522  -0.8686  -0.7269  -0.7107  -0.6327  -0.6154  -0.4953  -0.4474
    -0.4399  -0.4179  -0.3972  -0.3669  -0.2847  -0.0909   0.0086   0.0398
     0.1504   1.3774   1.6897

     occupation numbers 
     1.0000   1.0000   1.0000   1.0000   1.0000   1.0000   1.0000   1.0000
     1.0000   1.0000   1.0000   1.0000   1.0000   1.0000   1.0000   1.0000
     1.0000   1.0000   1.0000   1.0000   1.0000   1.0000   1.0000   1.0000
     1.0000   1.0000   1.0000   1.0000   1.0000   1.0000   1.0000   1.0000
     1.0000   1.0000   1.0000   1.0000   1.0000   1.0000   1.0000   1.0000
     1.0000   1.0000   1.0000   1.0000   1.0000   1.0000   1.0000   1.0000
     1.0000   1.0000   1.0000   1.0000   1.0000   1.0000   1.0000   1.0000
     1.0000   1.0000   1.0000   1.0000   1.0000   1.0000   1.0000   1.0000
     1.0000   1.0000   1.0000   1.0000   1.0000   1.0000   1.0000   1.0000
     1.0000   1.0000   1.0000   1.0000   1.0000   1.0000   1.0000   1.0000
     1.0000   1.0000   1.0000   1.0000   1.0000   1.0000   1.0000   1.0000
     1.0000   1.0000   1.0000   1.0000   1.0000   1.0000   1.0000   1.0000
     1.0000   1.0000   1.0000   1.0000   1.0000   1.0000   1.0000   1.0000
     1.0000   1.0000   1.0000   1.0000   1.0000   1.0000   1.0000   1.0000
     1.0000   1.0000   1.0000   1.0000   1.0000   1.0000   1.0000   1.0000
     1.0000   1.0000   1.0000   1.0000   1.0000   1.0000   1.0000   1.0000
     1.0000   1.0000   1.0000   1.0000   1.0000   1.0000   1.0000   1.0000
     1.0000   1.0000   1.0000   1.0000   1.0000   1.0000   1.0000   1.0000
     1.0000   1.0000   1.0000   1.0000   1.0000   1.0000   1.0000   1.0000
     1.0000   1.0000   1.0000   1.0000   1.0000   1.0000   1.0000   1.0000
     1.0000   1.0000   1.0000   1.0000   1.0000   1.0000   1.0000   1.0000
     1.0000   1.0000   1.0000   1.0000   1.0000   1.0000   1.0000   1.0000
     1.0000   1.0000   1.0000   1.0000   1.0000   1.0000   1.0000   1.0000
     1.0000   1.0000   1.0000   1.0000   1.0000   1.0000   1.0000   1.0000
     1.0000   1.0000   1.0000   1.0000   1.0000   1.0000   1.0000   1.0000
     1.0000   1.0000   1.0000   1.0000   1.0000   1.0000   1.0000   1.0000
     1.0000   1.0000   1.0000   1.0000   1.0000   1.0000   1.0000   1.0000
     1.0000   1.0000   1.0000   1.0000   1.0000   1.0000   1.0000   1.0000
     1.0000   1.0000   1.0000   1.0000   1.0000   1.0000   1.0000   1.0000
     1.0000   1.0000   1.0000   1.0000   1.0000   1.0000   1.0000   1.0000
     1.0000   1.0000   0.0000

          k = 0.4000 0.2309 0.0000 (112236 PWs)   bands (ev):

   -73.8129 -73.8093 -73.8059 -73.8040 -73.8015 -73.8005 -73.7981 -73.7954
   -73.7929 -73.7884 -73.7871 -73.7856 -73.7815 -73.7406 -73.7309 -73.7280
   -38.1982 -38.1978 -38.1841 -38.1797 -38.1700 -38.1553 -38.1542 -38.1386
   -38.1217 -38.1161 -38.0976 -38.0930 -38.0545 -38.0511 -38.0419 -38.0336
   -38.0236 -38.0175 -38.0069 -38.0060 -38.0049 -38.0026 -37.9986 -37.9960
   -37.9912 -37.9908 -37.9890 -37.9867 -37.9853 -37.9809 -37.9756 -37.9731
   -37.9681 -37.9586 -37.9568 -37.9499 -37.9429 -37.9413 -37.9390 -37.9344
   -37.9267 -37.9230 -37.9170 -37.9093 -37.8970 -37.8851 -37.8800 -37.8597
   -21.5383 -15.4304 -14.4308 -14.2287 -13.8640 -13.8547 -13.2441 -13.2405
   -13.0159 -12.9924 -12.9732 -12.9061 -12.8298 -12.7256 -12.7020 -12.6827
   -12.5370 -12.4955 -12.4616 -12.4467 -12.4262 -12.4218 -12.3835 -12.3586
   -12.3471 -12.2792 -12.2250 -12.1940 -12.1750 -12.1573 -12.1525 -12.1467
   -12.0507 -12.0399  -7.9291  -7.5979  -6.1755  -6.1145  -6.1056  -6.0822
    -6.0299  -5.8629  -5.8512  -5.8287  -5.7103  -5.5260  -5.5046  -5.4828
    -5.4442  -5.4430  -5.4351  -5.3841  -5.3770  -5.3097  -5.3033  -5.0674
    -5.0639  -5.0176  -5.0067  -4.7702  -4.6078  -4.5523  -4.4775  -4.4453
    -4.4137  -4.3667  -4.3437  -4.3000  -4.2343  -4.2209  -4.1868  -4.1532
    -4.1210  -4.1112  -4.0979  -4.0725  -4.0593  -4.0454  -4.0381  -3.6570
    -3.5557  -3.5150  -3.4572  -3.4435  -3.4232  -3.3934  -3.3536  -3.3203
    -3.2860  -3.2697  -3.2487  -3.2311  -3.2138  -3.1980  -3.1301  -3.1119
    -3.0710  -3.0516  -3.0118  -2.9449  -2.9230  -2.8975  -2.8273  -2.7586
    -2.7106  -2.6780  -2.6337  -2.6108  -2.6078  -2.5916  -2.5012  -2.4848
    -2.4480  -2.4238  -2.3654  -2.3242  -2.2677  -2.2524  -2.2371  -2.1408
    -2.1102  -2.0984  -2.0318  -2.0042  -1.9955  -1.9767  -1.9671  -1.9513
    -1.9250  -1.8944  -1.8801  -1.8592  -1.8463  -1.8409  -1.8327  -1.8103
    -1.7949  -1.7440  -1.7153  -1.6942  -1.6828  -1.6327  -1.6198  -1.6134
    -1.5903  -1.5433  -1.5005  -1.4877  -1.4061  -1.3543  -1.3020  -1.2829
    -1.2456  -1.2264  -1.1847  -1.1292  -1.1124  -1.0539  -1.0389  -0.9887
    -0.9651  -0.8764  -0.7231  -0.7171  -0.6321  -0.6217  -0.5031  -0.4509
    -0.4420  -0.4154  -0.3996  -0.3555  -0.2792  -0.0918   0.0106   0.0359
     0.1529   1.3615   1.7099

     occupation numbers 
     1.0000   1.0000   1.0000   1.0000   1.0000   1.0000   1.0000   1.0000
     1.0000   1.0000   1.0000   1.0000   1.0000   1.0000   1.0000   1.0000
     1.0000   1.0000   1.0000   1.0000   1.0000   1.0000   1.0000   1.0000
     1.0000   1.0000   1.0000   1.0000   1.0000   1.0000   1.0000   1.0000
     1.0000   1.0000   1.0000   1.0000   1.0000   1.0000   1.0000   1.0000
     1.0000   1.0000   1.0000   1.0000   1.0000   1.0000   1.0000   1.0000
     1.0000   1.0000   1.0000   1.0000   1.0000   1.0000   1.0000   1.0000
     1.0000   1.0000   1.0000   1.0000   1.0000   1.0000   1.0000   1.0000
     1.0000   1.0000   1.0000   1.0000   1.0000   1.0000   1.0000   1.0000
     1.0000   1.0000   1.0000   1.0000   1.0000   1.0000   1.0000   1.0000
     1.0000   1.0000   1.0000   1.0000   1.0000   1.0000   1.0000   1.0000
     1.0000   1.0000   1.0000   1.0000   1.0000   1.0000   1.0000   1.0000
     1.0000   1.0000   1.0000   1.0000   1.0000   1.0000   1.0000   1.0000
     1.0000   1.0000   1.0000   1.0000   1.0000   1.0000   1.0000   1.0000
     1.0000   1.0000   1.0000   1.0000   1.0000   1.0000   1.0000   1.0000
     1.0000   1.0000   1.0000   1.0000   1.0000   1.0000   1.0000   1.0000
     1.0000   1.0000   1.0000   1.0000   1.0000   1.0000   1.0000   1.0000
     1.0000   1.0000   1.0000   1.0000   1.0000   1.0000   1.0000   1.0000
     1.0000   1.0000   1.0000   1.0000   1.0000   1.0000   1.0000   1.0000
     1.0000   1.0000   1.0000   1.0000   1.0000   1.0000   1.0000   1.0000
     1.0000   1.0000   1.0000   1.0000   1.0000   1.0000   1.0000   1.0000
     1.0000   1.0000   1.0000   1.0000   1.0000   1.0000   1.0000   1.0000
     1.0000   1.0000   1.0000   1.0000   1.0000   1.0000   1.0000   1.0000
     1.0000   1.0000   1.0000   1.0000   1.0000   1.0000   1.0000   1.0000
     1.0000   1.0000   1.0000   1.0000   1.0000   1.0000   1.0000   1.0000
     1.0000   1.0000   1.0000   1.0000   1.0000   1.0000   1.0000   1.0000
     1.0000   1.0000   1.0000   1.0000   1.0000   1.0000   1.0000   1.0000
     1.0000   1.0000   1.0000   1.0000   1.0000   1.0000   1.0000   1.0000
     1.0000   1.0000   1.0000   1.0000   1.0000   1.0000   1.0000   1.0000
     1.0000   1.0000   1.0000   1.0000   1.0000   1.0000   1.0000   1.0000
     1.0000   1.0000   0.0000

          k =-0.2000 0.3464 0.0000 (112231 PWs)   bands (ev):

   -73.8130 -73.8089 -73.8061 -73.8039 -73.8018 -73.8007 -73.7976 -73.7952
   -73.7933 -73.7882 -73.7872 -73.7856 -73.7815 -73.7406 -73.7309 -73.7280
   -38.2045 -38.1960 -38.1934 -38.1714 -38.1662 -38.1581 -38.1478 -38.1411
   -38.1252 -38.1171 -38.1016 -38.0688 -38.0538 -38.0473 -38.0428 -38.0308
   -38.0265 -38.0213 -38.0160 -38.0149 -38.0098 -38.0037 -37.9980 -37.9956
   -37.9924 -37.9878 -37.9860 -37.9835 -37.9819 -37.9777 -37.9756 -37.9745
   -37.9686 -37.9667 -37.9565 -37.9511 -37.9482 -37.9459 -37.9365 -37.9332
   -37.9260 -37.9194 -37.9162 -37.9106 -37.8937 -37.8873 -37.8717 -37.8625
   -21.5383 -15.4304 -14.4706 -14.0970 -14.0568 -13.5693 -13.5525 -13.1690
   -13.1161 -13.0046 -12.9305 -12.8033 -12.7865 -12.7013 -12.6697 -12.6144
   -12.5806 -12.5735 -12.5655 -12.4506 -12.4227 -12.3892 -12.3755 -12.3065
   -12.2887 -12.2703 -12.2480 -12.2237 -12.2204 -12.1534 -12.1466 -12.1053
   -12.0932 -12.0327  -7.9291  -7.5979  -6.1863  -6.1737  -6.1339  -6.1165
    -6.0974  -5.7567  -5.7293  -5.7116  -5.6929  -5.6220  -5.5977  -5.5560
    -5.5024  -5.4714  -5.3506  -5.3249  -5.2943  -5.2609  -5.2364  -5.2143
    -5.0926  -4.9077  -4.8889  -4.7902  -4.7524  -4.5967  -4.5034  -4.4375
    -4.3897  -4.3389  -4.3291  -4.3033  -4.2765  -4.2547  -4.2396  -4.2208
    -4.1590  -4.1246  -4.1062  -4.0893  -4.0499  -3.7638  -3.7333  -3.7223
    -3.7029  -3.6854  -3.5955  -3.4986  -3.4132  -3.3748  -3.3637  -3.2993
    -3.2782  -3.2350  -3.2223  -3.1963  -3.1585  -3.1427  -3.1099  -3.0780
    -3.0514  -3.0005  -2.9550  -2.9374  -2.9225  -2.9178  -2.9070  -2.8933
    -2.7742  -2.7147  -2.6852  -2.6637  -2.5961  -2.5408  -2.5106  -2.4666
    -2.4506  -2.3983  -2.3790  -2.3543  -2.3110  -2.2066  -2.1886  -2.1445
    -2.1229  -2.1156  -2.0971  -2.0652  -2.0210  -1.9761  -1.9638  -1.9270
    -1.9014  -1.8889  -1.8574  -1.8418  -1.8153  -1.8088  -1.7857  -1.7670
    -1.7345  -1.7013  -1.6879  -1.6667  -1.6395  -1.6236  -1.5778  -1.5758
    -1.5535  -1.5421  -1.5172  -1.4920  -1.4242  -1.3876  -1.3767  -1.3369
    -1.2734  -1.2373  -1.1862  -1.1667  -1.1487  -1.1047  -1.0353  -0.9773
    -0.8698  -0.8258  -0.6806  -0.6639  -0.6276  -0.6175  -0.6021  -0.5326
    -0.5285  -0.4074  -0.3770  -0.2508  -0.1979  -0.1894  -0.1437   0.0817
     0.1651   1.3391   1.7187

     occupation numbers 
     1.0000   1.0000   1.0000   1.0000   1.0000   1.0000   1.0000   1.0000
     1.0000   1.0000   1.0000   1.0000   1.0000   1.0000   1.0000   1.0000
     1.0000   1.0000   1.0000   1.0000   1.0000   1.0000   1.0000   1.0000
     1.0000   1.0000   1.0000   1.0000   1.0000   1.0000   1.0000   1.0000
     1.0000   1.0000   1.0000   1.0000   1.0000   1.0000   1.0000   1.0000
     1.0000   1.0000   1.0000   1.0000   1.0000   1.0000   1.0000   1.0000
     1.0000   1.0000   1.0000   1.0000   1.0000   1.0000   1.0000   1.0000
     1.0000   1.0000   1.0000   1.0000   1.0000   1.0000   1.0000   1.0000
     1.0000   1.0000   1.0000   1.0000   1.0000   1.0000   1.0000   1.0000
     1.0000   1.0000   1.0000   1.0000   1.0000   1.0000   1.0000   1.0000
     1.0000   1.0000   1.0000   1.0000   1.0000   1.0000   1.0000   1.0000
     1.0000   1.0000   1.0000   1.0000   1.0000   1.0000   1.0000   1.0000
     1.0000   1.0000   1.0000   1.0000   1.0000   1.0000   1.0000   1.0000
     1.0000   1.0000   1.0000   1.0000   1.0000   1.0000   1.0000   1.0000
     1.0000   1.0000   1.0000   1.0000   1.0000   1.0000   1.0000   1.0000
     1.0000   1.0000   1.0000   1.0000   1.0000   1.0000   1.0000   1.0000
     1.0000   1.0000   1.0000   1.0000   1.0000   1.0000   1.0000   1.0000
     1.0000   1.0000   1.0000   1.0000   1.0000   1.0000   1.0000   1.0000
     1.0000   1.0000   1.0000   1.0000   1.0000   1.0000   1.0000   1.0000
     1.0000   1.0000   1.0000   1.0000   1.0000   1.0000   1.0000   1.0000
     1.0000   1.0000   1.0000   1.0000   1.0000   1.0000   1.0000   1.0000
     1.0000   1.0000   1.0000   1.0000   1.0000   1.0000   1.0000   1.0000
     1.0000   1.0000   1.0000   1.0000   1.0000   1.0000   1.0000   1.0000
     1.0000   1.0000   1.0000   1.0000   1.0000   1.0000   1.0000   1.0000
     1.0000   1.0000   1.0000   1.0000   1.0000   1.0000   1.0000   1.0000
     1.0000   1.0000   1.0000   1.0000   1.0000   1.0000   1.0000   1.0000
     1.0000   1.0000   1.0000   1.0000   1.0000   1.0000   1.0000   1.0000
     1.0000   1.0000   1.0000   1.0000   1.0000   1.0000   1.0000   1.0000
     1.0000   1.0000   1.0000   1.0000   1.0000   1.0000   1.0000   1.0000
     1.0000   1.0000   1.0000   1.0000   1.0000   1.0000   1.0000   1.0000
     1.0000   1.0000   0.0000

          k = 0.4000-0.0000 0.0000 (112231 PWs)   bands (ev):

   -73.8130 -73.8091 -73.8059 -73.8040 -73.8013 -73.8009 -73.7979 -73.7954
   -73.7930 -73.7884 -73.7871 -73.7856 -73.7815 -73.7406 -73.7309 -73.7280
   -38.2046 -38.1956 -38.1939 -38.1711 -38.1673 -38.1580 -38.1475 -38.1401
   -38.1240 -38.1156 -38.1050 -38.0698 -38.0527 -38.0470 -38.0426 -38.0317
   -38.0251 -38.0219 -38.0169 -38.0149 -38.0097 -38.0047 -37.9984 -37.9940
   -37.9918 -37.9882 -37.9857 -37.9843 -37.9813 -37.9787 -37.9756 -37.9747
   -37.9680 -37.9649 -37.9571 -37.9516 -37.9491 -37.9450 -37.9364 -37.9346
   -37.9242 -37.9193 -37.9163 -37.9091 -37.8951 -37.8887 -37.8727 -37.8610
   -21.5383 -15.4304 -14.4707 -14.0947 -14.0591 -13.5628 -13.5597 -13.1651
   -13.1183 -13.0083 -12.9250 -12.8005 -12.7894 -12.7055 -12.6773 -12.5989
   -12.5950 -12.5709 -12.5565 -12.4529 -12.4191 -12.4077 -12.3610 -12.3046
   -12.2891 -12.2671 -12.2501 -12.2323 -12.2174 -12.1541 -12.1439 -12.1037
   -12.0941 -12.0332  -7.9291  -7.5979  -6.1807  -6.1732  -6.1400  -6.1119
    -6.1036  -5.7493  -5.7344  -5.7157  -5.6805  -5.6294  -5.6032  -5.5548
    -5.5001  -5.4688  -5.3469  -5.3302  -5.2854  -5.2668  -5.2386  -5.2233
    -5.0919  -4.8951  -4.8821  -4.8038  -4.7518  -4.5600  -4.5272  -4.4524
    -4.4022  -4.3409  -4.3330  -4.3063  -4.2713  -4.2594  -4.2371  -4.2042
    -4.1702  -4.1132  -4.1049  -4.0855  -4.0495  -3.7541  -3.7279  -3.7213
    -3.7013  -3.6920  -3.6064  -3.4772  -3.4223  -3.3906  -3.3642  -3.3101
    -3.2745  -3.2388  -3.2264  -3.1960  -3.1678  -3.1377  -3.1177  -3.0741
    -3.0312  -2.9844  -2.9612  -2.9425  -2.9341  -2.9114  -2.8963  -2.8875
    -2.7619  -2.7311  -2.6877  -2.6375  -2.6089  -2.5616  -2.5238  -2.4603
    -2.4532  -2.4086  -2.3776  -2.3340  -2.3102  -2.2132  -2.1727  -2.1441
    -2.1208  -2.1164  -2.0948  -2.0826  -1.9932  -1.9766  -1.9634  -1.9306
    -1.9150  -1.8896  -1.8670  -1.8538  -1.8366  -1.8123  -1.7792  -1.7563
    -1.7277  -1.7013  -1.6798  -1.6639  -1.6431  -1.6159  -1.5855  -1.5659
    -1.5464  -1.5375  -1.5175  -1.4896  -1.4393  -1.4013  -1.3570  -1.3287
    -1.2757  -1.2514  -1.1922  -1.1702  -1.1428  -1.0945  -1.0360  -0.9764
    -0.8595  -0.8401  -0.6751  -0.6664  -0.6277  -0.6140  -0.6060  -0.5319
    -0.5273  -0.4256  -0.3703  -0.2435  -0.1987  -0.1846  -0.1467   0.0792
     0.1647   1.3695   1.6859

     occupation numbers 
     1.0000   1.0000   1.0000   1.0000   1.0000   1.0000   1.0000   1.0000
     1.0000   1.0000   1.0000   1.0000   1.0000   1.0000   1.0000   1.0000
     1.0000   1.0000   1.0000   1.0000   1.0000   1.0000   1.0000   1.0000
     1.0000   1.0000   1.0000   1.0000   1.0000   1.0000   1.0000   1.0000
     1.0000   1.0000   1.0000   1.0000   1.0000   1.0000   1.0000   1.0000
     1.0000   1.0000   1.0000   1.0000   1.0000   1.0000   1.0000   1.0000
     1.0000   1.0000   1.0000   1.0000   1.0000   1.0000   1.0000   1.0000
     1.0000   1.0000   1.0000   1.0000   1.0000   1.0000   1.0000   1.0000
     1.0000   1.0000   1.0000   1.0000   1.0000   1.0000   1.0000   1.0000
     1.0000   1.0000   1.0000   1.0000   1.0000   1.0000   1.0000   1.0000
     1.0000   1.0000   1.0000   1.0000   1.0000   1.0000   1.0000   1.0000
     1.0000   1.0000   1.0000   1.0000   1.0000   1.0000   1.0000   1.0000
     1.0000   1.0000   1.0000   1.0000   1.0000   1.0000   1.0000   1.0000
     1.0000   1.0000   1.0000   1.0000   1.0000   1.0000   1.0000   1.0000
     1.0000   1.0000   1.0000   1.0000   1.0000   1.0000   1.0000   1.0000
     1.0000   1.0000   1.0000   1.0000   1.0000   1.0000   1.0000   1.0000
     1.0000   1.0000   1.0000   1.0000   1.0000   1.0000   1.0000   1.0000
     1.0000   1.0000   1.0000   1.0000   1.0000   1.0000   1.0000   1.0000
     1.0000   1.0000   1.0000   1.0000   1.0000   1.0000   1.0000   1.0000
     1.0000   1.0000   1.0000   1.0000   1.0000   1.0000   1.0000   1.0000
     1.0000   1.0000   1.0000   1.0000   1.0000   1.0000   1.0000   1.0000
     1.0000   1.0000   1.0000   1.0000   1.0000   1.0000   1.0000   1.0000
     1.0000   1.0000   1.0000   1.0000   1.0000   1.0000   1.0000   1.0000
     1.0000   1.0000   1.0000   1.0000   1.0000   1.0000   1.0000   1.0000
     1.0000   1.0000   1.0000   1.0000   1.0000   1.0000   1.0000   1.0000
     1.0000   1.0000   1.0000   1.0000   1.0000   1.0000   1.0000   1.0000
     1.0000   1.0000   1.0000   1.0000   1.0000   1.0000   1.0000   1.0000
     1.0000   1.0000   1.0000   1.0000   1.0000   1.0000   1.0000   1.0000
     1.0000   1.0000   1.0000   1.0000   1.0000   1.0000   1.0000   1.0000
     1.0000   1.0000   1.0000   1.0000   1.0000   1.0000   1.0000   1.0000
     1.0000   1.0000   0.0000

          k =-0.4000 0.4619 0.0000 (112237 PWs)   bands (ev):

   -73.8129 -73.8092 -73.8061 -73.8040 -73.8014 -73.8008 -73.7977 -73.7953
   -73.7932 -73.7883 -73.7871 -73.7856 -73.7815 -73.7406 -73.7309 -73.7280
   -38.1949 -38.1889 -38.1791 -38.1765 -38.1688 -38.1650 -38.1570 -38.1420
   -38.1383 -38.1221 -38.0857 -38.0825 -38.0766 -38.0437 -38.0401 -38.0345
   -38.0272 -38.0235 -38.0148 -38.0066 -38.0040 -37.9993 -37.9972 -37.9951
   -37.9931 -37.9920 -37.9886 -37.9841 -37.9808 -37.9755 -37.9682 -37.9649
   -37.9593 -37.9546 -37.9517 -37.9501 -37.9485 -37.9417 -37.9372 -37.9354
   -37.9297 -37.9230 -37.9186 -37.9152 -37.9045 -37.8861 -37.8734 -37.8656
   -21.5383 -15.4304 -14.3325 -14.2863 -14.1114 -13.5918 -13.2931 -13.2903
   -12.9543 -12.9439 -12.8814 -12.8528 -12.8236 -12.7981 -12.7927 -12.6599
   -12.6307 -12.5922 -12.4895 -12.4798 -12.3832 -12.3708 -12.3432 -12.3217
   -12.3069 -12.2950 -12.2571 -12.2316 -12.2265 -12.1301 -12.1172 -12.1115
   -12.0770 -12.0137  -7.9291  -7.5979  -6.1730  -6.0444  -6.0109  -5.9642
    -5.9089  -5.8849  -5.8716  -5.8531  -5.8041  -5.7397  -5.6808  -5.6200
    -5.6046  -5.5366  -5.3528  -5.2772  -5.2416  -5.2111  -5.1954  -5.1630
    -5.1517  -4.8474  -4.8268  -4.7364  -4.6150  -4.5792  -4.5374  -4.5165
    -4.4835  -4.4181  -4.3763  -4.3183  -4.3011  -4.2367  -4.2219  -4.2024
    -4.1878  -4.1582  -4.1163  -4.0897  -3.9506  -3.9426  -3.7831  -3.6604
    -3.6074  -3.5817  -3.4206  -3.3843  -3.3490  -3.3164  -3.2969  -3.2734
    -3.2679  -3.2597  -3.2360  -3.2247  -3.2144  -3.2064  -3.1387  -3.1149
    -3.0894  -3.0727  -3.0525  -3.0342  -2.9800  -2.9172  -2.8358  -2.7951
    -2.7282  -2.7005  -2.6835  -2.6597  -2.6035  -2.5753  -2.4831  -2.4023
    -2.3871  -2.3187  -2.3146  -2.3081  -2.2577  -2.1786  -2.1643  -2.1479
    -2.1271  -2.0819  -2.0668  -2.0385  -2.0162  -1.9629  -1.9495  -1.9334
    -1.9209  -1.9072  -1.8838  -1.8698  -1.8565  -1.8457  -1.8386  -1.8312
    -1.8047  -1.7834  -1.7511  -1.7177  -1.6887  -1.6784  -1.6536  -1.6376
    -1.6113  -1.5701  -1.5170  -1.4925  -1.4727  -1.4505  -1.4010  -1.2995
    -1.2648  -1.2244  -1.1571  -1.1078  -1.0848  -1.0634  -1.0315  -0.9493
    -0.8073  -0.7793  -0.6933  -0.6825  -0.6486  -0.6356  -0.5924  -0.5731
    -0.5565  -0.3909  -0.2707  -0.2659  -0.1675  -0.1114  -0.0687   0.1229
     0.1962   1.3772   1.7003

     occupation numbers 
     1.0000   1.0000   1.0000   1.0000   1.0000   1.0000   1.0000   1.0000
     1.0000   1.0000   1.0000   1.0000   1.0000   1.0000   1.0000   1.0000
     1.0000   1.0000   1.0000   1.0000   1.0000   1.0000   1.0000   1.0000
     1.0000   1.0000   1.0000   1.0000   1.0000   1.0000   1.0000   1.0000
     1.0000   1.0000   1.0000   1.0000   1.0000   1.0000   1.0000   1.0000
     1.0000   1.0000   1.0000   1.0000   1.0000   1.0000   1.0000   1.0000
     1.0000   1.0000   1.0000   1.0000   1.0000   1.0000   1.0000   1.0000
     1.0000   1.0000   1.0000   1.0000   1.0000   1.0000   1.0000   1.0000
     1.0000   1.0000   1.0000   1.0000   1.0000   1.0000   1.0000   1.0000
     1.0000   1.0000   1.0000   1.0000   1.0000   1.0000   1.0000   1.0000
     1.0000   1.0000   1.0000   1.0000   1.0000   1.0000   1.0000   1.0000
     1.0000   1.0000   1.0000   1.0000   1.0000   1.0000   1.0000   1.0000
     1.0000   1.0000   1.0000   1.0000   1.0000   1.0000   1.0000   1.0000
     1.0000   1.0000   1.0000   1.0000   1.0000   1.0000   1.0000   1.0000
     1.0000   1.0000   1.0000   1.0000   1.0000   1.0000   1.0000   1.0000
     1.0000   1.0000   1.0000   1.0000   1.0000   1.0000   1.0000   1.0000
     1.0000   1.0000   1.0000   1.0000   1.0000   1.0000   1.0000   1.0000
     1.0000   1.0000   1.0000   1.0000   1.0000   1.0000   1.0000   1.0000
     1.0000   1.0000   1.0000   1.0000   1.0000   1.0000   1.0000   1.0000
     1.0000   1.0000   1.0000   1.0000   1.0000   1.0000   1.0000   1.0000
     1.0000   1.0000   1.0000   1.0000   1.0000   1.0000   1.0000   1.0000
     1.0000   1.0000   1.0000   1.0000   1.0000   1.0000   1.0000   1.0000
     1.0000   1.0000   1.0000   1.0000   1.0000   1.0000   1.0000   1.0000
     1.0000   1.0000   1.0000   1.0000   1.0000   1.0000   1.0000   1.0000
     1.0000   1.0000   1.0000   1.0000   1.0000   1.0000   1.0000   1.0000
     1.0000   1.0000   1.0000   1.0000   1.0000   1.0000   1.0000   1.0000
     1.0000   1.0000   1.0000   1.0000   1.0000   1.0000   1.0000   1.0000
     1.0000   1.0000   1.0000   1.0000   1.0000   1.0000   1.0000   1.0000
     1.0000   1.0000   1.0000   1.0000   1.0000   1.0000   1.0000   1.0000
     1.0000   1.0000   1.0000   1.0000   1.0000   1.0000   1.0000   1.0000
     1.0000   1.0000   0.0000

          k = 0.6000 0.1155 0.0000 (112237 PWs)   bands (ev):

   -73.8129 -73.8093 -73.8061 -73.8040 -73.8015 -73.8005 -73.7979 -73.7954
   -73.7930 -73.7884 -73.7871 -73.7856 -73.7815 -73.7406 -73.7309 -73.7280
   -38.1940 -38.1897 -38.1799 -38.1766 -38.1683 -38.1646 -38.1568 -38.1420
   -38.1387 -38.1217 -38.0857 -38.0831 -38.0772 -38.0423 -38.0403 -38.0347
   -38.0271 -38.0239 -38.0138 -38.0072 -38.0046 -37.9989 -37.9975 -37.9957
   -37.9933 -37.9907 -37.9885 -37.9845 -37.9809 -37.9755 -37.9683 -37.9643
   -37.9607 -37.9543 -37.9516 -37.9503 -37.9478 -37.9423 -37.9368 -37.9341
   -37.9286 -37.9235 -37.9186 -37.9166 -37.9041 -37.8870 -37.8757 -37.8632
   -21.5383 -15.4304 -14.3320 -14.2870 -14.1113 -13.5917 -13.3005 -13.2828
   -12.9608 -12.9372 -12.8765 -12.8566 -12.8237 -12.7981 -12.7936 -12.6628
   -12.6293 -12.5904 -12.4996 -12.4694 -12.3900 -12.3670 -12.3394 -12.3179
   -12.3072 -12.2970 -12.2605 -12.2320 -12.2274 -12.1280 -12.1179 -12.1118
   -12.0764 -12.0140  -7.9291  -7.5979  -6.1730  -6.0410  -6.0075  -5.9622
    -5.9195  -5.9016  -5.8724  -5.8302  -5.8029  -5.7447  -5.6829  -5.6176
    -5.6068  -5.5329  -5.3512  -5.2743  -5.2501  -5.2183  -5.1923  -5.1660
    -5.1430  -4.8497  -4.8334  -4.6863  -4.6394  -4.6013  -4.5442  -4.5076
    -4.4839  -4.4284  -4.3760  -4.3157  -4.2936  -4.2369  -4.2272  -4.1936
    -4.1848  -4.1623  -4.1158  -4.0916  -3.9523  -3.9417  -3.7799  -3.6583
    -3.6092  -3.5732  -3.4216  -3.3622  -3.3526  -3.3239  -3.2897  -3.2804
    -3.2774  -3.2531  -3.2379  -3.2269  -3.2151  -3.1949  -3.1693  -3.1347
    -3.0804  -3.0714  -3.0486  -3.0128  -2.9839  -2.9288  -2.8320  -2.7948
    -2.7334  -2.7103  -2.6895  -2.6337  -2.6160  -2.5381  -2.4931  -2.4491
    -2.3830  -2.3252  -2.3098  -2.2871  -2.2383  -2.1904  -2.1665  -2.1346
    -2.1114  -2.0920  -2.0696  -2.0294  -2.0046  -1.9721  -1.9566  -1.9442
    -1.9243  -1.8948  -1.8906  -1.8734  -1.8630  -1.8541  -1.8465  -1.8312
    -1.7980  -1.7867  -1.7449  -1.7203  -1.6902  -1.6772  -1.6479  -1.6278
    -1.6105  -1.5909  -1.5222  -1.5087  -1.4640  -1.4234  -1.3868  -1.3114
    -1.2734  -1.2168  -1.1499  -1.1295  -1.0890  -1.0438  -1.0079  -0.9689
    -0.8038  -0.7834  -0.6898  -0.6874  -0.6492  -0.6433  -0.5918  -0.5854
    -0.5424  -0.3923  -0.2733  -0.2596  -0.1652  -0.1147  -0.0680   0.1233
     0.1967   1.3676   1.7121

     occupation numbers 
     1.0000   1.0000   1.0000   1.0000   1.0000   1.0000   1.0000   1.0000
     1.0000   1.0000   1.0000   1.0000   1.0000   1.0000   1.0000   1.0000
     1.0000   1.0000   1.0000   1.0000   1.0000   1.0000   1.0000   1.0000
     1.0000   1.0000   1.0000   1.0000   1.0000   1.0000   1.0000   1.0000
     1.0000   1.0000   1.0000   1.0000   1.0000   1.0000   1.0000   1.0000
     1.0000   1.0000   1.0000   1.0000   1.0000   1.0000   1.0000   1.0000
     1.0000   1.0000   1.0000   1.0000   1.0000   1.0000   1.0000   1.0000
     1.0000   1.0000   1.0000   1.0000   1.0000   1.0000   1.0000   1.0000
     1.0000   1.0000   1.0000   1.0000   1.0000   1.0000   1.0000   1.0000
     1.0000   1.0000   1.0000   1.0000   1.0000   1.0000   1.0000   1.0000
     1.0000   1.0000   1.0000   1.0000   1.0000   1.0000   1.0000   1.0000
     1.0000   1.0000   1.0000   1.0000   1.0000   1.0000   1.0000   1.0000
     1.0000   1.0000   1.0000   1.0000   1.0000   1.0000   1.0000   1.0000
     1.0000   1.0000   1.0000   1.0000   1.0000   1.0000   1.0000   1.0000
     1.0000   1.0000   1.0000   1.0000   1.0000   1.0000   1.0000   1.0000
     1.0000   1.0000   1.0000   1.0000   1.0000   1.0000   1.0000   1.0000
     1.0000   1.0000   1.0000   1.0000   1.0000   1.0000   1.0000   1.0000
     1.0000   1.0000   1.0000   1.0000   1.0000   1.0000   1.0000   1.0000
     1.0000   1.0000   1.0000   1.0000   1.0000   1.0000   1.0000   1.0000
     1.0000   1.0000   1.0000   1.0000   1.0000   1.0000   1.0000   1.0000
     1.0000   1.0000   1.0000   1.0000   1.0000   1.0000   1.0000   1.0000
     1.0000   1.0000   1.0000   1.0000   1.0000   1.0000   1.0000   1.0000
     1.0000   1.0000   1.0000   1.0000   1.0000   1.0000   1.0000   1.0000
     1.0000   1.0000   1.0000   1.0000   1.0000   1.0000   1.0000   1.0000
     1.0000   1.0000   1.0000   1.0000   1.0000   1.0000   1.0000   1.0000
     1.0000   1.0000   1.0000   1.0000   1.0000   1.0000   1.0000   1.0000
     1.0000   1.0000   1.0000   1.0000   1.0000   1.0000   1.0000   1.0000
     1.0000   1.0000   1.0000   1.0000   1.0000   1.0000   1.0000   1.0000
     1.0000   1.0000   1.0000   1.0000   1.0000   1.0000   1.0000   1.0000
     1.0000   1.0000   1.0000   1.0000   1.0000   1.0000   1.0000   1.0000
     1.0000   1.0000   0.0000

     highest occupied, lowest unoccupied level (ev):     1.6177    1.6765

!    total energy              =  -16138.55550612 Ry
     total all-electron energy =   -595550.628712 Ry
     estimated scf accuracy    <          9.7E-11 Ry

     The total energy is the sum of the following terms:
     one-electron contribution =  -18312.08393977 Ry
     hartree contribution      =    9259.83645793 Ry
     xc contribution           =    -931.73947199 Ry
     ewald contribution        =    6415.42111711 Ry
     DFT-D3 Dispersion         =      -0.65558954 Ry
     one-center paw contrib.   =  -12569.33407987 Ry
      -> PAW hartree energy AE =      92.00287902 Ry
      -> PAW hartree energy PS =     -91.51082486 Ry
      -> PAW xc energy AE      =    -644.66491918 Ry
      -> PAW xc energy PS      =      38.62151945 Ry
      -> total E_H with PAW    =    9260.32851209 Ry
      -> total E_XC with PAW   =   -1537.78287172 Ry

     total magnetization       =     1.00 Bohr mag/cell
     absolute magnetization    =     1.12 Bohr mag/cell

     convergence has been achieved in  33 iterations

     negative rho (up, down):  4.796E-03 5.164E-03

     Forces acting on atoms (cartesian axes, Ry/au):

     atom    1 type  2   force =    -0.00000318   -0.00008446   -0.00014978
     atom    2 type  2   force =    -0.00018936    0.00001856    0.00012821
     atom    3 type  2   force =    -0.00026377   -0.00016195   -0.00001325
     atom    4 type  2   force =     0.00028566    0.00027864    0.00004835
     atom    5 type  2   force =    -0.00001549   -0.00023768    0.00000169
     atom    6 type  2   force =    -0.00002368    0.00007993   -0.00000261
     atom    7 type  2   force =     0.00006896   -0.00003104    0.00007512
     atom    8 type  2   force =     0.00013215    0.00008346    0.00006775
     atom    9 type  2   force =    -0.00021042   -0.00007693    0.00005595
     atom   10 type  2   force =     0.00009320    0.00010771    0.00008492
     atom   11 type  2   force =    -0.00007636    0.00019352   -0.00000603
     atom   12 type  2   force =    -0.00001256    0.00006907   -0.00013627
     atom   13 type  2   force =    -0.00013380    0.00015570    0.00008024
     atom   14 type  2   force =     0.00011694    0.00001880    0.00000532
     atom   15 type  2   force =     0.00000929   -0.00017207   -0.00006804
     atom   16 type  2   force =    -0.00023761   -0.00015632   -0.00004671
     atom   17 type  1   force =    -0.00008812    0.00017281   -0.00002362
     atom   18 type  1   force =    -0.00005804   -0.00018468   -0.00006361
     atom   19 type  1   force =    -0.00010884    0.00010825   -0.00002898
     atom   20 type  1   force =     0.00012397   -0.00001964   -0.00006632
     atom   21 type  1   force =    -0.00008739    0.00000633    0.00005388
     atom   22 type  1   force =    -0.00002651   -0.00000826   -0.00034470
     atom   23 type  1   force =    -0.00006559    0.00002759    0.00001668
     atom   24 type  1   force =     0.00012446    0.00000262    0.00001853
     atom   25 type  1   force =    -0.00001993   -0.00003937    0.00001781
     atom   26 type  1   force =     0.00005165   -0.00007442   -0.00008351
     atom   27 type  1   force =     0.00010297    0.00006331   -0.00002525
     atom   28 type  1   force =    -0.00028107    0.00003101   -0.00036092
     atom   29 type  1   force =    -0.00002070   -0.00012610   -0.00012744
     atom   30 type  1   force =    -0.00007507   -0.00000596    0.00008327
     atom   31 type  1   force =    -0.00021318   -0.00006547   -0.00004133
     atom   32 type  1   force =     0.00025845    0.00008170   -0.00017256
     atom   33 type  1   force =     0.00002546    0.00005062   -0.00015443
     atom   34 type  1   force =     0.00001155    0.00006382    0.00004354
     atom   35 type  1   force =     0.00002283   -0.00000005   -0.00003461
     atom   36 type  1   force =    -0.00003621   -0.00004536    0.00004828
     atom   37 type  1   force =    -0.00011259    0.00001494   -0.00012234
     atom   38 type  1   force =     0.00008838   -0.00016163    0.00001256
     atom   39 type  1   force =     0.00014760    0.00003346    0.00002295
     atom   40 type  1   force =     0.00011091   -0.00003159    0.00007151
     atom   41 type  1   force =    -0.00011756    0.00005013    0.00006672
     atom   42 type  1   force =     0.00004412    0.00005774    0.00000203
     atom   43 type  1   force =    -0.00025037    0.00000957    0.00014900
     atom   44 type  1   force =    -0.00007664    0.00009856   -0.00036827
     atom   45 type  1   force =    -0.00009788   -0.00004418    0.00005425
     atom   46 type  1   force =     0.00000966    0.00003987   -0.00015376
     atom   47 type  1   force =    -0.00004731   -0.00017224   -0.00016374
     atom   48 type  1   force =    -0.00002802    0.00004978    0.00015445
     atom   49 type  3   force =     0.00100140   -0.00005343   -0.00043393
     atom   50 type  3   force =    -0.00037809   -0.00075978    0.00059996
     atom   51 type  3   force =    -0.00034798   -0.00007961   -0.00015377
     atom   52 type  3   force =     0.00046701    0.00033142    0.00051801
     atom   53 type  3   force =    -0.00002861    0.00033265    0.00019842
     atom   54 type  4   force =     0.00137983    0.00369681    0.00036266
     atom   55 type  5   force =    -0.00176740   -0.00334737    0.00432726
     atom   56 type  6   force =     0.00218774   -0.00002799   -0.00049840
     atom   57 type  6   force =     0.00069153    0.00092526   -0.00375995
     atom   58 type  6   force =    -0.00205636   -0.00108606    0.00023481
     The non-local contrib.  to forces
     atom    1 type  2   force =    -0.00047475    0.00023473   -0.00009223
     atom    2 type  2   force =     0.00035602   -0.00015376   -0.00019472
     atom    3 type  2   force =    -0.00390121   -0.00385566    0.00603345
     atom    4 type  2   force =    -0.00236846   -0.00004421    0.00309622
     atom    5 type  2   force =    -0.00055307    0.00925905    0.00835865
     atom    6 type  2   force =     0.00405224   -0.00045748    0.01270008
     atom    7 type  2   force =     0.00359031   -0.00281821    0.00570687
     atom    8 type  2   force =     0.00047787    0.00022603    0.00051789
     atom    9 type  2   force =     0.00018435    0.00103367    0.00331994
     atom   10 type  2   force =    -0.00362590    0.00165717    0.01381591
     atom   11 type  2   force =    -0.00039790   -0.00030346    0.01550551
     atom   12 type  2   force =     0.00589135   -0.00340399    0.00757359
     atom   13 type  2   force =    -0.00013268    0.00028852   -0.00031564
     atom   14 type  2   force =     0.00074642    0.00161636    0.00307920
     atom   15 type  2   force =    -0.00071630   -0.00209459    0.00704318
     atom   16 type  2   force =    -0.00285770   -0.00023113    0.00573739
     atom   17 type  1   force =     0.00084224    0.00127047   -0.27570183
     atom   18 type  1   force =     0.00429687    0.00240928   -0.27656658
     atom   19 type  1   force =     0.00095085    0.00009176   -0.27533877
     atom   20 type  1   force =    -0.00088268   -0.00063934   -0.27640837
     atom   21 type  1   force =    -0.00026860    0.00141475   -0.27544557
     atom   22 type  1   force =     0.01179569    0.02357247   -0.15681759
     atom   23 type  1   force =    -0.00169858   -0.00217005   -0.18681705
     atom   24 type  1   force =     0.00274107   -0.00128678   -0.27539194
     atom   25 type  1   force =     0.00010617   -0.00086103   -0.27674315
     atom   26 type  1   force =     0.00289402    0.00952495   -0.25646430
     atom   27 type  1   force =     0.01820069    0.00622824   -0.22552281
     atom   28 type  1   force =     0.01934808   -0.01745023   -0.19305067
     atom   29 type  1   force =     0.00088755   -0.00184082   -0.27490364
     atom   30 type  1   force =    -0.00196144    0.00125272   -0.27603748
     atom   31 type  1   force =    -0.02393717   -0.01163159   -0.21282356
     atom   32 type  1   force =    -0.00973599   -0.00787215   -0.24422448
     atom   33 type  1   force =    -0.00022872    0.00031064    0.27622417
     atom   34 type  1   force =     0.00171811    0.00243602    0.27672902
     atom   35 type  1   force =     0.00154197   -0.00049783    0.27627820
     atom   36 type  1   force =    -0.00083452   -0.00082546    0.27581103
     atom   37 type  1   force =     0.00033208    0.00196907    0.27561445
     atom   38 type  1   force =     0.00295366    0.00258665    0.27715816
     atom   39 type  1   force =     0.00248545    0.00067309    0.27702277
     atom   40 type  1   force =     0.00205673   -0.00164251    0.27530310
     atom   41 type  1   force =     0.00021954    0.00048468    0.27664836
     atom   42 type  1   force =    -0.00263944    0.00247015    0.27559656
     atom   43 type  1   force =    -0.00192481   -0.00055783    0.27974806
     atom   44 type  1   force =     0.00088570   -0.00429855    0.27701259
     atom   45 type  1   force =    -0.00063619   -0.00172419    0.27609899
     atom   46 type  1   force =    -0.00124743   -0.00047765    0.27627770
     atom   47 type  1   force =    -0.00342197   -0.00008967    0.27525904
     atom   48 type  1   force =    -0.00234705   -0.00163705    0.27540563
     atom   49 type  3   force =    -0.18444661    0.03189640   -0.05975932
     atom   50 type  3   force =    -0.00790205   -0.13034507   -0.07522632
     atom   51 type  3   force =     0.19375233   -0.01630396   -0.09584781
     atom   52 type  3   force =     0.02011454    0.14047689   -0.09323253
     atom   53 type  3   force =     0.02036068    0.02853788    0.14827987
     atom   54 type  4   force =    -0.87185797   -0.26613974    0.92416663
     atom   55 type  5   force =     1.89798520    0.46812406   -1.52314116
     atom   56 type  6   force =    -0.00655452   -0.07212506   -0.06513779
     atom   57 type  6   force =     0.01194784   -0.01303882    0.10031307
     atom   58 type  6   force =    -0.02985537    0.08327757   -0.04094231
     The ionic contribution  to forces
     atom    1 type  2   force =    -0.93888287   -0.19523459   -8.51154231
     atom    2 type  2   force =    -0.97087942   -1.15745983   -8.87968688
     atom    3 type  2   force =     1.92210117    0.65005096   -9.43994504
     atom    4 type  2   force =     1.76665150    1.72531992   -9.24143984
     atom    5 type  2   force =    -0.76057062   -3.39356413  -10.32467472
     atom    6 type  2   force =    -3.93386865   -3.11268400  -14.38075131
     atom    7 type  2   force =    -3.78934623    1.11482236  -12.06371709
     atom    8 type  2   force =    -0.46008701    0.22311185   -8.34436368
     atom    9 type  2   force =     1.12791007   -2.55003174  -10.29905460
     atom   10 type  2   force =     1.18873293   -3.57256437  -19.43125400
     atom   11 type  2   force =    -2.00116764    2.17382403  -20.50281942
     atom   12 type  2   force =    -1.90169378    2.98614528  -10.56748601
     atom   13 type  2   force =     0.53002891    0.57693683   -8.41982809
     atom   14 type  2   force =     3.83221956   -2.05763128  -11.86137889
     atom   15 type  2   force =     3.84738437    1.90191947  -17.31854100
     atom   16 type  2   force =     0.57217218    4.70808893  -12.98782504
     atom   17 type  1   force =    -0.14005514   -0.66087363   32.26142839
     atom   18 type  1   force =    -2.24086794   -1.69686353   31.29411525
     atom   19 type  1   force =    -1.12796559    0.05216355   31.69832321
     atom   20 type  1   force =     1.01126446    0.86427300   32.41872735
     atom   21 type  1   force =     0.17345016   -1.94539369   32.03481134
     atom   22 type  1   force =    -2.23802579   -5.30525471   25.62264829
     atom   23 type  1   force =    -4.76118486    0.06190515   24.69021761
     atom   24 type  1   force =    -2.11362360    1.73141441   31.40416881
     atom   25 type  1   force =    -0.02610878    0.43297745   32.25555710
     atom   26 type  1   force =     2.91733786   -4.06829852   28.41155464
     atom   27 type  1   force =     1.27447670   -0.00915886   20.49349369
     atom   28 type  1   force =    -2.26246722    5.24422200   26.48425210
     atom   29 type  1   force =     0.02010440    1.75710976   32.08053297
     atom   30 type  1   force =     1.12889898   -0.96857346   32.14858369
     atom   31 type  1   force =     4.85883711    0.33635413   28.22789148
     atom   32 type  1   force =     3.17886507    3.98423328   28.83898366
     atom   33 type  1   force =    -0.05125174   -0.12656988  -39.07999503
     atom   34 type  1   force =    -0.56941686   -0.42796410  -39.19365979
     atom   35 type  1   force =    -0.28921561   -0.04269056  -39.24756085
     atom   36 type  1   force =     0.27294758    0.22252682  -39.08997278
     atom   37 type  1   force =    -0.01855861   -0.48712264  -39.20270413
     atom   38 type  1   force =    -0.41735882   -0.93198603  -40.31562861
     atom   39 type  1   force =    -0.90998799   -0.05729509  -40.68657283
     atom   40 type  1   force =    -0.52234018    0.40403978  -39.34408017
     atom   41 type  1   force =     0.05821333    0.12850108  -39.16757657
     atom   42 type  1   force =     0.64035731   -0.72205200  -40.20939937
     atom   43 type  1   force =     0.29420322    0.05117426  -41.17800094
     atom   44 type  1   force =    -0.25858340    0.97342739  -40.32994219
     atom   45 type  1   force =     0.01566496    0.50338448  -39.10190544
     atom   46 type  1   force =     0.32792973   -0.23271415  -39.01138789
     atom   47 type  1   force =     0.87996219   -0.02490967  -39.93818844
     atom   48 type  1   force =     0.55142742    0.76669720  -40.07741460
     atom   49 type  3   force =   -21.26970824    3.67110875   58.88199054
     atom   50 type  3   force =    -1.58256657  -20.68958851   58.08951457
     atom   51 type  3   force =    21.71807244   -2.58971305   61.19716066
     atom   52 type  3   force =     2.76674922   20.97997150   58.83841069
     atom   53 type  3   force =     7.93181359    2.04887609   63.36330131
     atom   54 type  4   force =     4.45673674   -0.08610159   20.58554219
     atom   55 type  5   force =   -13.38416037   -2.69510291   24.89454024
     atom   56 type  6   force =     0.55101403    2.65182027    5.39377420
     atom   57 type  6   force =    -2.24836238    0.10931610    1.32295790
     atom   58 type  6   force =     1.37277869   -3.22831956    4.81581567
     The local contribution  to forces
     atom    1 type  2   force =     0.93895808    0.19536739    8.51146458
     atom    2 type  2   force =     0.97037922    1.15710437    8.87976166
     atom    3 type  2   force =    -1.91880467   -0.64699240    9.43466429
     atom    4 type  2   force =    -1.76439770   -1.72487016    9.23870785
     atom    5 type  2   force =     0.76070529    3.38411815   10.31594494
     atom    6 type  2   force =     3.92905612    3.11173607   14.36566175
     atom    7 type  2   force =     3.78447194   -1.11170925   12.05637996
     atom    8 type  2   force =     0.45968016   -0.22334827    8.34430910
     atom    9 type  2   force =    -1.12806126    2.54842979   10.29528389
     atom   10 type  2   force =    -1.18488749    3.57143260   19.41453310
     atom   11 type  2   force =     2.00223672   -2.17313948   20.48241635
     atom   12 type  2   force =     1.89600159   -2.98252495   10.55952321
     atom   13 type  2   force =    -0.52979728   -0.57678228    8.41995769
     atom   14 type  2   force =    -3.83132635    2.05579492   11.85618929
     atom   15 type  2   force =    -3.84608597   -1.89978121   17.30688711
     atom   16 type  2   force =    -0.56964661   -4.70637907   12.97975627
     atom   17 type  1   force =     0.13909313    0.65953578  -31.98713744
     atom   18 type  1   force =     2.23586988    1.69376837  -31.01944710
     atom   19 type  1   force =     1.12661229   -0.05208511  -31.42464017
     atom   20 type  1   force =    -1.00989875   -0.86334564  -32.14378760
     atom   21 type  1   force =    -0.17316713    1.94337292  -31.76077542
     atom   22 type  1   force =     2.22612732    5.28093604  -25.46567856
     atom   23 type  1   force =     4.76142541   -0.05976633  -24.50306415
     atom   24 type  1   force =     2.11030666   -1.72956370  -31.13054679
     atom   25 type  1   force =     0.02587423   -0.43201510  -31.98018269
     atom   26 type  1   force =    -2.92035141    4.05918392  -28.15511633
     atom   27 type  1   force =    -1.29120809    0.00262704  -20.26636242
     atom   28 type  1   force =     2.24336266   -5.22611688  -26.29142240
     atom   29 type  1   force =    -0.02093785   -1.75488291  -31.80718826
     atom   30 type  1   force =    -1.12665519    0.96702909  -31.87392309
     atom   31 type  1   force =    -4.83517427   -0.32521946  -28.01461720
     atom   32 type  1   force =    -3.16963331   -3.97589783  -28.59512426
     atom   33 type  1   force =     0.05147236    0.12629630   38.80459561
     atom   34 type  1   force =     0.56771255    0.42564082   38.91797740
     atom   35 type  1   force =     0.28770258    0.04315062   38.97221334
     atom   36 type  1   force =    -0.27218220   -0.22177837   38.81519022
     atom   37 type  1   force =     0.01812372    0.48524865   38.92792883
     atom   38 type  1   force =     0.41447874    0.92921281   40.03925720
     atom   39 type  1   force =     0.90759714    0.05664315   40.41034182
     atom   40 type  1   force =     0.52048563   -0.40245098   39.06979238
     atom   41 type  1   force =    -0.05851154   -0.12890492   38.89198248
     atom   42 type  1   force =    -0.63764119    0.71964584   39.93461299
     atom   43 type  1   force =    -0.29253977   -0.05060315   40.89917489
     atom   44 type  1   force =     0.25763265   -0.96902207   40.05335903
     atom   45 type  1   force =    -0.01514091   -0.50171433   38.82685099
     atom   46 type  1   force =    -0.32670968    0.23320880   38.73596086
     atom   47 type  1   force =    -0.87662321    0.02479457   39.66355825
     atom   48 type  1   force =    -0.54910081   -0.76498740   39.80294334
     atom   49 type  3   force =    21.45176907   -3.70184490  -58.81171308
     atom   50 type  3   force =     1.59394917   20.81887730  -58.00449220
     atom   51 type  3   force =   -21.90892405    2.60450397  -61.09435618
     atom   52 type  3   force =    -2.78366406  -21.11794898  -58.73630458
     atom   53 type  3   force =    -7.95070331   -2.07611780  -63.50577259
     atom   54 type  4   force =    -3.60157190    0.35144571  -21.49646715
     atom   55 type  5   force =    11.50333996    2.22770621  -23.37803853
     atom   56 type  6   force =    -0.54232274   -2.57984875   -5.32934162
     atom   57 type  6   force =     2.23731753   -0.09521323   -1.42711481
     atom   58 type  6   force =    -1.34509766    3.14418127   -4.77477817
     The core correction contribution to forces
     atom    1 type  2   force =     0.00025920   -0.00048998   -0.00037508
     atom    2 type  2   force =    -0.00015607    0.00035583   -0.00024287
     atom    3 type  2   force =     0.00079741    0.00078250   -0.00149953
     atom    4 type  2   force =     0.00075008    0.00026074   -0.00095103
     atom    5 type  2   force =     0.00021025   -0.00077923   -0.00060691
     atom    6 type  2   force =    -0.00028705    0.00076844   -0.00009510
     atom    7 type  2   force =     0.00050906   -0.00013645    0.00031902
     atom    8 type  2   force =    -0.00002372    0.00012236   -0.00061761
     atom    9 type  2   force =     0.00000866   -0.00005584   -0.00027217
     atom   10 type  2   force =    -0.00007158   -0.00142605    0.00039510
     atom   11 type  2   force =    -0.00121228    0.00051103    0.00110308
     atom   12 type  2   force =    -0.00068043    0.00050207   -0.00079350
     atom   13 type  2   force =    -0.00018223   -0.00017949   -0.00006069
     atom   14 type  2   force =    -0.00063550   -0.00026403    0.00047236
     atom   15 type  2   force =     0.00047392    0.00032363    0.00113477
     atom   16 type  2   force =     0.00025954   -0.00056041    0.00045799
     atom   17 type  1   force =    -0.00005250   -0.00000722    0.00196450
     atom   18 type  1   force =    -0.00015918   -0.00008405    0.00203934
     atom   19 type  1   force =    -0.00004836   -0.00005472    0.00197243
     atom   20 type  1   force =    -0.00000398    0.00000148    0.00199026
     atom   21 type  1   force =    -0.00003858   -0.00003563    0.00197228
     atom   22 type  1   force =    -0.00009212   -0.00041936   -0.00039983
     atom   23 type  1   force =     0.00004759    0.00007014   -0.00003911
     atom   24 type  1   force =    -0.00006724    0.00004270    0.00198173
     atom   25 type  1   force =     0.00005179    0.00002249    0.00198618
     atom   26 type  1   force =    -0.00002235   -0.00024211    0.00142884
     atom   27 type  1   force =    -0.00046073   -0.00006019    0.00111648
     atom   28 type  1   force =    -0.00030205    0.00037839    0.00019941
     atom   29 type  1   force =    -0.00002108    0.00009985    0.00197908
     atom   30 type  1   force =     0.00007980   -0.00003685    0.00200935
     atom   31 type  1   force =     0.00052072    0.00026258    0.00063834
     atom   32 type  1   force =     0.00016313    0.00019640    0.00123055
     atom   33 type  1   force =     0.00001672   -0.00000377   -0.00193198
     atom   34 type  1   force =    -0.00003150   -0.00005394   -0.00198900
     atom   35 type  1   force =     0.00000254    0.00003614   -0.00193382
     atom   36 type  1   force =     0.00001932    0.00002514   -0.00191723
     atom   37 type  1   force =     0.00000512   -0.00004330   -0.00192636
     atom   38 type  1   force =     0.00001040    0.00001091   -0.00197460
     atom   39 type  1   force =     0.00002950    0.00002686   -0.00198045
     atom   40 type  1   force =    -0.00005825    0.00000903   -0.00192223
     atom   41 type  1   force =    -0.00003619   -0.00001295   -0.00194782
     atom   42 type  1   force =    -0.00002453   -0.00003877   -0.00193337
     atom   43 type  1   force =     0.00000267   -0.00001122   -0.00220888
     atom   44 type  1   force =    -0.00002574    0.00001950   -0.00198799
     atom   45 type  1   force =     0.00001195    0.00001599   -0.00195958
     atom   46 type  1   force =     0.00003335    0.00000918   -0.00196694
     atom   47 type  1   force =     0.00004970    0.00003145   -0.00190567
     atom   48 type  1   force =     0.00002351    0.00000566   -0.00189408
     atom   49 type  3   force =     0.00424804   -0.00133528   -0.00309607
     atom   50 type  3   force =    -0.00144849    0.00369758   -0.00371095
     atom   51 type  3   force =    -0.00463920    0.00092486   -0.00153653
     atom   52 type  3   force =    -0.00175357   -0.00488807   -0.00188396
     atom   53 type  3   force =    -0.00268952   -0.00114870   -0.00364097
     atom   54 type  4   force =     0.01796961    0.00441637   -0.01213607
     atom   55 type  5   force =    -0.01861875   -0.00413511    0.01194636
     atom   56 type  6   force =     0.00000000    0.00000000    0.00000000
     atom   57 type  6   force =     0.00000000    0.00000000    0.00000000
     atom   58 type  6   force =     0.00000000    0.00000000    0.00000000
     The Hubbard contrib.    to forces
     atom    1 type  2   force =     0.00000000    0.00000000    0.00000000
     atom    2 type  2   force =     0.00000000    0.00000000    0.00000000
     atom    3 type  2   force =     0.00000000    0.00000000    0.00000000
     atom    4 type  2   force =     0.00000000    0.00000000    0.00000000
     atom    5 type  2   force =     0.00000000    0.00000000    0.00000000
     atom    6 type  2   force =     0.00000000    0.00000000    0.00000000
     atom    7 type  2   force =     0.00000000    0.00000000    0.00000000
     atom    8 type  2   force =     0.00000000    0.00000000    0.00000000
     atom    9 type  2   force =     0.00000000    0.00000000    0.00000000
     atom   10 type  2   force =     0.00000000    0.00000000    0.00000000
     atom   11 type  2   force =     0.00000000    0.00000000    0.00000000
     atom   12 type  2   force =     0.00000000    0.00000000    0.00000000
     atom   13 type  2   force =     0.00000000    0.00000000    0.00000000
     atom   14 type  2   force =     0.00000000    0.00000000    0.00000000
     atom   15 type  2   force =     0.00000000    0.00000000    0.00000000
     atom   16 type  2   force =     0.00000000    0.00000000    0.00000000
     atom   17 type  1   force =     0.00000000    0.00000000    0.00000000
     atom   18 type  1   force =     0.00000000    0.00000000    0.00000000
     atom   19 type  1   force =     0.00000000    0.00000000    0.00000000
     atom   20 type  1   force =     0.00000000    0.00000000    0.00000000
     atom   21 type  1   force =     0.00000000    0.00000000    0.00000000
     atom   22 type  1   force =     0.00000000    0.00000000    0.00000000
     atom   23 type  1   force =     0.00000000    0.00000000    0.00000000
     atom   24 type  1   force =     0.00000000    0.00000000    0.00000000
     atom   25 type  1   force =     0.00000000    0.00000000    0.00000000
     atom   26 type  1   force =     0.00000000    0.00000000    0.00000000
     atom   27 type  1   force =     0.00000000    0.00000000    0.00000000
     atom   28 type  1   force =     0.00000000    0.00000000    0.00000000
     atom   29 type  1   force =     0.00000000    0.00000000    0.00000000
     atom   30 type  1   force =     0.00000000    0.00000000    0.00000000
     atom   31 type  1   force =     0.00000000    0.00000000    0.00000000
     atom   32 type  1   force =     0.00000000    0.00000000    0.00000000
     atom   33 type  1   force =     0.00000000    0.00000000    0.00000000
     atom   34 type  1   force =     0.00000000    0.00000000    0.00000000
     atom   35 type  1   force =     0.00000000    0.00000000    0.00000000
     atom   36 type  1   force =     0.00000000    0.00000000    0.00000000
     atom   37 type  1   force =     0.00000000    0.00000000    0.00000000
     atom   38 type  1   force =     0.00000000    0.00000000    0.00000000
     atom   39 type  1   force =     0.00000000    0.00000000    0.00000000
     atom   40 type  1   force =     0.00000000    0.00000000    0.00000000
     atom   41 type  1   force =     0.00000000    0.00000000    0.00000000
     atom   42 type  1   force =     0.00000000    0.00000000    0.00000000
     atom   43 type  1   force =     0.00000000    0.00000000    0.00000000
     atom   44 type  1   force =     0.00000000    0.00000000    0.00000000
     atom   45 type  1   force =     0.00000000    0.00000000    0.00000000
     atom   46 type  1   force =     0.00000000    0.00000000    0.00000000
     atom   47 type  1   force =     0.00000000    0.00000000    0.00000000
     atom   48 type  1   force =     0.00000000    0.00000000    0.00000000
     atom   49 type  3   force =     0.00000000    0.00000000    0.00000000
     atom   50 type  3   force =     0.00000000    0.00000000    0.00000000
     atom   51 type  3   force =     0.00000000    0.00000000    0.00000000
     atom   52 type  3   force =     0.00000000    0.00000000    0.00000000
     atom   53 type  3   force =     0.00000000    0.00000000    0.00000000
     atom   54 type  4   force =     0.00000000    0.00000000    0.00000000
     atom   55 type  5   force =     0.00000000    0.00000000    0.00000000
     atom   56 type  6   force =     0.00000000    0.00000000    0.00000000
     atom   57 type  6   force =     0.00000000    0.00000000    0.00000000
     atom   58 type  6   force =     0.00000000    0.00000000    0.00000000
     The SCF correction term to forces
     atom    1 type  2   force =    -0.00000335    0.00000747   -0.00000184
     atom    2 type  2   force =    -0.00000191    0.00000336   -0.00000195
     atom    3 type  2   force =     0.00000107   -0.00000603   -0.00000291
     atom    4 type  2   force =     0.00000301   -0.00000567   -0.00000206
     atom    5 type  2   force =     0.00000790    0.00001021   -0.00000294
     atom    6 type  2   force =     0.00000711    0.00000973   -0.00000285
     atom    7 type  2   force =     0.00000665    0.00000134   -0.00000164
     atom    8 type  2   force =     0.00001014   -0.00000287   -0.00000190
     atom    9 type  2   force =     0.00000408    0.00000383   -0.00000262
     atom   10 type  2   force =     0.00000020    0.00000556   -0.00000341
     atom   11 type  2   force =    -0.00000233   -0.00000498   -0.00000283
     atom   12 type  2   force =    -0.00000045   -0.00000398   -0.00000145
     atom   13 type  2   force =    -0.00000734    0.00000031   -0.00000216
     atom   14 type  2   force =    -0.00000502    0.00000044   -0.00000291
     atom   15 type  2   force =    -0.00000667   -0.00001308   -0.00000320
     atom   16 type  2   force =    -0.00001262   -0.00000655   -0.00000185
     atom   17 type  1   force =     0.00000114    0.00000243    0.00000339
     atom   18 type  1   force =     0.00000143    0.00000285    0.00000034
     atom   19 type  1   force =     0.00000104    0.00000115   -0.00000081
     atom   20 type  1   force =     0.00000331   -0.00000242    0.00000129
     atom   21 type  1   force =     0.00000248    0.00000033   -0.00000008
     atom   22 type  1   force =     0.00000155    0.00000412   -0.00000253
     atom   23 type  1   force =     0.00000153    0.00000070   -0.00000345
     atom   24 type  1   force =     0.00000209   -0.00000083   -0.00000229
     atom   25 type  1   force =     0.00000035   -0.00000047   -0.00000211
     atom   26 type  1   force =    -0.00000017    0.00000203   -0.00000335
     atom   27 type  1   force =    -0.00000117   -0.00000160   -0.00000411
     atom   28 type  1   force =    -0.00000296   -0.00000228   -0.00000197
     atom   29 type  1   force =    -0.00000393    0.00000096    0.00000093
     atom   30 type  1   force =    -0.00000281   -0.00000027   -0.00000159
     atom   31 type  1   force =    -0.00000142   -0.00000234   -0.00000278
     atom   32 type  1   force =    -0.00000249   -0.00000450    0.00000158
     atom   33 type  1   force =     0.00000122    0.00000255   -0.00000449
     atom   34 type  1   force =     0.00000163    0.00000294   -0.00000150
     atom   35 type  1   force =     0.00000095    0.00000103   -0.00000018
     atom   36 type  1   force =     0.00000308   -0.00000251   -0.00000231
     atom   37 type  1   force =     0.00000240    0.00000073   -0.00000101
     atom   38 type  1   force =     0.00000167    0.00000413    0.00000109
     atom   39 type  1   force =     0.00000170    0.00000056    0.00000245
     atom   40 type  1   force =     0.00000208   -0.00000090    0.00000145
     atom   41 type  1   force =     0.00000018   -0.00000026    0.00000116
     atom   42 type  1   force =    -0.00000032    0.00000226    0.00000191
     atom   43 type  1   force =    -0.00000088   -0.00000171    0.00000274
     atom   44 type  1   force =    -0.00000272   -0.00000250    0.00000086
     atom   45 type  1   force =    -0.00000380    0.00000090   -0.00000196
     atom   46 type  1   force =    -0.00000300   -0.00000006    0.00000043
     atom   47 type  1   force =    -0.00000172   -0.00000244    0.00000122
     atom   48 type  1   force =    -0.00000242   -0.00000474   -0.00000314
     atom   49 type  3   force =     0.00000028    0.00000096   -0.00000271
     atom   50 type  3   force =     0.00000021    0.00000156   -0.00000262
     atom   51 type  3   force =    -0.00000135   -0.00000134   -0.00000222
     atom   52 type  3   force =    -0.00000270   -0.00000195   -0.00000192
     atom   53 type  3   force =    -0.00000107   -0.00000010   -0.00000042
     atom   54 type  4   force =    -0.00000033   -0.00000000    0.00000031
     atom   55 type  5   force =     0.00000008    0.00000007    0.00000045
     atom   56 type  6   force =    -0.00000002    0.00000001    0.00000010
     atom   57 type  6   force =    -0.00000002    0.00000001    0.00000005
     atom   58 type  6   force =    -0.00000002   -0.00000002    0.00000010

     DFT-D3 dispersion contribution to forces:
     atom    1 type  2   force =     0.00014031    0.00003170    0.00039725
     atom    2 type  2   force =     0.00011259    0.00016976    0.00049312
     atom    3 type  2   force =    -0.00045774   -0.00014014    0.00073665
     atom    4 type  2   force =    -0.00035297   -0.00038083    0.00063735
     atom    5 type  2   force =     0.00018456    0.00071943    0.00098282
     atom    6 type  2   force =     0.00101636    0.00070834    0.00248497
     atom    7 type  2   force =     0.00083703   -0.00018966    0.00138814
     atom    8 type  2   force =     0.00007452   -0.00002447    0.00022410
     atom    9 type  2   force =    -0.00025653    0.00054452    0.00078166
     atom   10 type  2   force =    -0.00005515    0.00100398    0.00259839
     atom   11 type  2   force =     0.00046687   -0.00069246    0.00379144
     atom   12 type  2   force =     0.00046895   -0.00064419    0.00104803
     atom   13 type  2   force =    -0.00004338   -0.00010702    0.00032927
     atom   14 type  2   force =    -0.00088237    0.00050356    0.00164641
     atom   15 type  2   force =    -0.00104027   -0.00052512    0.00341125
     atom   16 type  2   force =    -0.00015261   -0.00106691    0.00182869
     atom   17 type  1   force =     0.00008280    0.00024614   -0.00058048
     atom   18 type  1   force =     0.00080071    0.00058356   -0.00020470
     atom   19 type  1   force =     0.00034072   -0.00000720   -0.00034471
     atom   20 type  1   force =    -0.00035859   -0.00030555   -0.00058909
     atom   21 type  1   force =    -0.00006593    0.00064882   -0.00050851
     atom   22 type  1   force =     0.00016664    0.00115434   -0.00009433
     atom   23 type  1   force =     0.00134311   -0.00001086   -0.00027703
     atom   24 type  1   force =     0.00076529   -0.00060200   -0.00019085
     atom   25 type  1   force =     0.00005611   -0.00016155   -0.00059737
     atom   26 type  1   force =     0.00019349   -0.00024353   -0.00148286
     atom   27 type  1   force =    -0.00090463    0.00042985   -0.00274591
     atom   28 type  1   force =    -0.00021977   -0.00099883   -0.00033723
     atom   29 type  1   force =    -0.00005000   -0.00061177   -0.00054838
     atom   30 type  1   force =    -0.00043461    0.00032398   -0.00054746
     atom   31 type  1   force =    -0.00045834    0.00017237   -0.00112746
     atom   32 type  1   force =     0.00060184   -0.00057233   -0.00103946
     atom   33 type  1   force =     0.00001542    0.00001595    0.00095745
     atom   34 type  1   force =     0.00002742    0.00000324    0.00098754
     atom   35 type  1   force =    -0.00000980    0.00000171    0.00096885
     atom   36 type  1   force =     0.00001033    0.00001019    0.00093951
     atom   37 type  1   force =    -0.00001751   -0.00003640    0.00096603
     atom   38 type  1   force =     0.00000252    0.00001107    0.00119947
     atom   39 type  1   force =     0.00002160   -0.00001393    0.00120935
     atom   40 type  1   force =    -0.00003531    0.00001516    0.00097712
     atom   41 type  1   force =    -0.00000308   -0.00001634    0.00095926
     atom   42 type  1   force =    -0.00000790    0.00003142    0.00112347
     atom   43 type  1   force =     0.00000900    0.00001039    0.00143329
     atom   44 type  1   force =     0.00001666   -0.00002404    0.00118959
     atom   45 type  1   force =     0.00000591   -0.00000586    0.00097140
     atom   46 type  1   force =     0.00000648    0.00001492    0.00096224
     atom   47 type  1   force =    -0.00001251    0.00000469    0.00111201
     atom   48 type  1   force =    -0.00002887   -0.00002271    0.00111744
     atom   49 type  3   force =    -0.00086134    0.00012181   -0.00785313
     atom   50 type  3   force =    -0.00241055   -0.00340147   -0.00548237
     atom   51 type  3   force =     0.00139165    0.00051107   -0.00557155
     atom   52 type  3   force =    -0.00097662    0.00272319   -0.00646953
     atom   53 type  3   force =     0.00119082    0.00018644   -0.00196864
     atom   54 type  4   force =     0.00010347    0.00007723   -0.00074310
     atom   55 type  5   force =    -0.00031374    0.00006147   -0.00097996
     atom   56 type  6   force =     0.00005078    0.00012671    0.00020686
     atom   57 type  6   force =    -0.00021166   -0.00013765    0.00008399
     atom   58 type  6   force =     0.00011779   -0.00022415    0.00013968

     Total force =     0.008940     Total SCF correction =     0.000043

     DFT-D3 dispersion Force =     0.017432


     Computing stress (Cartesian axis) and pressure


     negative rho (up, down):  4.796E-03 5.164E-03
          total   stress  (Ry/bohr**3)                   (kbar)     P=       -1.46
  -0.00001025  -0.00000055   0.00000056           -1.51       -0.08        0.08
  -0.00000055  -0.00000930   0.00000000           -0.08       -1.37        0.00
   0.00000056   0.00000000  -0.00001015            0.08        0.00       -1.49

     kinetic stress (kbar)   7256.32     -0.77     -9.37
                               -0.77   7273.16     -0.54
                               -9.37     -0.54   7301.48

     local   stress (kbar)-135463.34    -58.05    519.33
                              -58.05-134005.70    216.74
                              519.33    216.74 134097.51

     nonloc. stress (kbar)  -1419.23     -0.11      0.32
                               -0.11  -1420.43      0.30
                                0.32      0.30  -1427.31

     hartree stress (kbar)  68218.21     26.98   -249.31
                               26.98  67560.54   -101.42
                             -249.31   -101.42 -63300.11

     exc-cor stress (kbar)   2000.75      0.00      0.00
                                0.00   2000.33     -0.04
                                0.00     -0.04   2000.29

     corecor stress (kbar)  -3626.56      0.03      0.05
                                0.03  -3626.83      0.01
                                0.05      0.01  -3627.24

     ewald   stress (kbar)  63036.59     31.82   -260.89
                               31.82  62221.78   -115.04
                             -260.89   -115.04 -75043.55

     hubbard stress (kbar)      0.00      0.00      0.00
                                0.00      0.00      0.00
                                0.00      0.00      0.00

     DFT-D   stress (kbar)     -4.26      0.02     -0.04
                                0.02     -4.22      0.01
                               -0.04      0.01     -2.55

     XDM     stress (kbar)      0.00      0.00      0.00
                                0.00      0.00      0.00
                                0.00      0.00      0.00

     dft-nl  stress (kbar)      0.00      0.00      0.00
                                0.00      0.00      0.00
                                0.00      0.00      0.00

     TS-vdW  stress (kbar)      0.00      0.00      0.00
                                0.00      0.00      0.00
                                0.00      0.00      0.00

     MDB     stress (kbar)      0.00      0.00      0.00
                                0.00      0.00      0.00
                                0.00      0.00      0.00

     3D-RISM stress (kbar)      0.00      0.00      0.00
                                0.00      0.00      0.00
                                0.00      0.00      0.00


     Writing all to output data dir ./Ag-WS2-H2NOH.save/ :
     XML data file, charge density, pseudopotentials, collected wavefunctions

     init_run     :    180.12s CPU    183.78s WALL (       1 calls)
     electrons    :  12224.84s CPU  12461.47s WALL (       1 calls)
     forces       :     46.94s CPU     48.82s WALL (       1 calls)
     force_dftd3  :      0.13s CPU      0.15s WALL (       1 calls)
     stress       :    163.66s CPU    168.85s WALL (       1 calls)
     stres_dftd3  :      0.13s CPU      0.16s WALL (       1 calls)

     Called by init_run:
     wfcinit      :    171.97s CPU    175.02s WALL (       1 calls)
     wfcinit:atom :      0.68s CPU      0.69s WALL (      26 calls)
     wfcinit:wfcr :    167.71s CPU    170.64s WALL (      26 calls)
     potinit      :      2.73s CPU      2.85s WALL (       1 calls)
     hinit0       :      1.58s CPU      1.66s WALL (       1 calls)

     Called by electrons:
     c_bands      :  10548.33s CPU  10732.47s WALL (      34 calls)
     sum_band     :   1556.68s CPU   1596.08s WALL (      34 calls)
     v_of_rho     :     19.87s CPU     20.98s WALL (      34 calls)
     v_h          :      0.96s CPU      1.07s WALL (      34 calls)
     v_xc         :     19.98s CPU     21.04s WALL (      36 calls)
     newd         :     56.81s CPU     67.69s WALL (      34 calls)
     PAW_pot      :     38.17s CPU     38.62s WALL (      34 calls)
     mix_rho      :      5.12s CPU      5.41s WALL (      34 calls)
     energy_dftd3 :      0.06s CPU      0.06s WALL (       1 calls)

     Called by c_bands:
     init_us_2    :    123.78s CPU    127.09s WALL (    1846 calls)
     cegterg      :  10385.87s CPU  10566.58s WALL (     884 calls)

     Called by sum_band:
     sum_band:wei :      0.01s CPU      0.01s WALL (      34 calls)
     sum_band:loo :   1450.69s CPU   1476.56s WALL (      34 calls)
     sum_band:buf :     10.73s CPU     10.96s WALL (     884 calls)
     sum_band:ini :     59.23s CPU     60.74s WALL (     884 calls)
     sum_band:cal :    301.82s CPU    310.49s WALL (     884 calls)
     sum_band:bec :      3.74s CPU      3.80s WALL (     884 calls)
     addusdens    :    102.28s CPU    115.60s WALL (      34 calls)
                                        0.00s GPU  (      34 calls)
     addusd:skk   :      1.59s CPU      1.71s WALL (     204 calls)
                                        0.00s GPU  (     204 calls)

     Called by *egterg:
     cdiaghg      :    562.19s CPU    584.19s WALL (    6027 calls)
     cegterg:over :    570.69s CPU    585.13s WALL (    5169 calls)
     cegterg:upda :    261.87s CPU    266.52s WALL (    5169 calls)
     cegterg:last :    477.99s CPU    486.83s WALL (    1768 calls)
     cdiaghg:chol :     47.80s CPU     48.21s WALL (    6027 calls)
     cdiaghg:inve :      7.89s CPU      7.99s WALL (    6027 calls)
     cdiaghg:para :    159.28s CPU    171.67s WALL (   12054 calls)
     h_psi        :   7786.97s CPU   7900.48s WALL (    6079 calls)
     s_psi        :    692.18s CPU    700.08s WALL (    6079 calls)
     g_psi        :      9.63s CPU      9.91s WALL (    5169 calls)

     Called by h_psi:
     h_psi:calbec :    939.89s CPU    965.13s WALL (    6079 calls)
     vloc_psi     :   6119.20s CPU   6196.03s WALL (    6079 calls)
     add_vuspsi   :    700.21s CPU    709.39s WALL (    6079 calls)

     General routines
     calbec       :   1392.98s CPU   1431.91s WALL (    7405 calls)
     fft          :     21.49s CPU     23.15s WALL (     890 calls)
     ffts         :      1.93s CPU      2.05s WALL (     136 calls)
     fftw         :   6677.11s CPU   6756.42s WALL ( 1303452 calls)
     interpolate  :      3.01s CPU      3.23s WALL (      68 calls)

     Parallel routines

     PAW routines
     PAW_pot      :     38.17s CPU     38.62s WALL (      34 calls)

     PWSCF        :  12626.75s CPU  12914.43s WALL


   This run was terminated on:   6:28:25   1Aug2026            

=------------------------------------------------------------------------------=
   JOB DONE.
=------------------------------------------------------------------------------=
