
     Program PWSCF v.7.4.1 starts on  1Aug2026 at 16: 7: 4 

     This program is part of the open-source Quantum ESPRESSO suite
     for quantum simulation of materials; please cite
         "P. Giannozzi et al., J. Phys.:Condens. Matter 21 395502 (2009);
         "P. Giannozzi et al., J. Phys.:Condens. Matter 29 465901 (2017);
         "P. Giannozzi et al., J. Chem. Phys. 152 154105 (2020);
          URL http://www.quantum-espresso.org", 
     in publications or presentations arising from this work. More details at
     http://www.quantum-espresso.org/quote

     Parallel version (MPI & OpenMP), running on      64 processor cores
     Number of MPI processes:                64
     Threads/MPI process:                     1

     MPI processes distributed on     1 nodes
     41228 MiB available memory on the printing compute node when the environment starts

     Reading input from disp_019_atom57_+1x.in

     Current dimensions of program PWSCF are:
     Max number of different atomic species (ntypx) = 10
     Max number of k-points (npk) =  40000
     Max angular momentum in pseudopotentials (lmaxx) =  4
     file S.pbe-n-kjpaw_psl.1.0.0.UPF: wavefunction(s)  3S 3P renormalized
     file W.pbe-spn-kjpaw_psl.1.0.0.UPF: wavefunction(s)  6S 5P 5D renormalized
     file Ag.pbe-n-kjpaw_psl.1.0.0.UPF: wavefunction(s)  5S 5P renormalized
     file N.pbe-n-kjpaw_psl.1.0.0.UPF: wavefunction(s)  2S renormalized
     file O.pbe-n-kjpaw_psl.1.0.0.UPF: wavefunction(s)  2S 2P renormalized
     file H.pbe-kjpaw_psl.1.0.0.UPF: wavefunction(s)  1S renormalized
     Message from routine setup:
     the system is metallic, specify occupations

     R & G space division:  proc/nbgrp/npool/nimage =      64
     Subspace diagonalization in iterative solution of the eigenvalue problem:
     one sub-group per band group will be used
     ELPA distributed-memory algorithm (size of sub-group:  2*  2 procs)


     Parallelization info
     --------------------
     sticks:   dense  smooth     PW     G-vecs:    dense   smooth      PW
     Min         247     123     32                39673    14017    1874
     Max         248     124     33                39680    14030    1885
     Sum       15841    7909   2065              2539249   897387  120111

     Using Slab Decomposition



     bravais-lattice index     =            0
     lattice parameter (alat)  =      23.9624  a.u.
     unit-cell volume          =   18794.0729 (a.u.)^3
     number of atoms/cell      =           58
     number of atomic types    =            6
     number of electrons       =       485.00 (up: 243.00, down: 242.00)
     number of Kohn-Sham states=          243
     kinetic-energy cutoff     =      50.0000  Ry
     charge density cutoff     =     400.0000  Ry
     scf convergence threshold =      1.0E-10
     mixing beta               =       0.4000
     number of iterations used =            8  plain     mixing
     Exchange-correlation= SLA  PW   PBX  PBC
                           (   1   4   3   4   0   0   0)

     celldm(1)=  23.962422  celldm(2)=   0.000000  celldm(3)=   0.000000
     celldm(4)=   0.000000  celldm(5)=   0.000000  celldm(6)=   0.000000

     crystal axes: (cart. coord. in units of alat)
               a(1) = (   1.000000   0.000000   0.000000 )  
               a(2) = (  -0.500000   0.866025   0.000000 )  
               a(3) = (   0.000000   0.000000   1.577241 )  

     reciprocal axes: (cart. coord. in units 2 pi/alat)
               b(1) = (  1.000000  0.577350 -0.000000 )  
               b(2) = (  0.000000  1.154701  0.000000 )  
               b(3) = (  0.000000 -0.000000  0.634018 )  


     PseudoPot. # 1 for S  read from file:
     /share/work_r640/fmigm008/pseudo/S.pbe-n-kjpaw_psl.1.0.0.UPF
     MD5 check sum: fb45dfebcf3e72a4e1bd4a866ec2e262
     Pseudo is Projector augmented-wave + core cor, Zval =  6.0
     Generated using &quot;atomic&quot; code by A. Dal Corso  v.6.3
     Shape of augmentation charge: PSQ
     Using radial grid of 1151 points,  6 beta functions with: 
                l(1) =   0
                l(2) =   0
                l(3) =   1
                l(4) =   1
                l(5) =   2
                l(6) =   2
     Q(r) pseudized with 0 coefficients 


     PseudoPot. # 2 for W  read from file:
     /share/work_r640/fmigm008/pseudo/W.pbe-spn-kjpaw_psl.1.0.0.UPF
     MD5 check sum: 03c3df5b60893f488392c7401945500a
     Pseudo is Projector augmented-wave + core cor, Zval = 14.0
     Generated using &quot;atomic&quot; code by A. Dal Corso  v.6.2.2
     Shape of augmentation charge: PSQ
     Using radial grid of 1273 points,  6 beta functions with: 
                l(1) =   0
                l(2) =   0
                l(3) =   1
                l(4) =   1
                l(5) =   2
                l(6) =   2
     Q(r) pseudized with 0 coefficients 


     PseudoPot. # 3 for Ag read from file:
     /share/work_r640/fmigm008/pseudo/Ag.pbe-n-kjpaw_psl.1.0.0.UPF
     MD5 check sum: 51099775af2a3182a6a1caffb86952a3
     Pseudo is Projector augmented-wave + core cor, Zval = 11.0
     Generated using &quot;atomic&quot; code by A. Dal Corso  v.6.2.2
     Shape of augmentation charge: PSQ
     Using radial grid of 1237 points,  6 beta functions with: 
                l(1) =   0
                l(2) =   0
                l(3) =   1
                l(4) =   1
                l(5) =   2
                l(6) =   2
     Q(r) pseudized with 0 coefficients 


     PseudoPot. # 4 for N  read from file:
     /share/work_r640/fmigm008/pseudo/N.pbe-n-kjpaw_psl.1.0.0.UPF
     MD5 check sum: 14c48229446f9f2d411169a3abcbc3fa
     Pseudo is Projector augmented-wave + core cor, Zval =  5.0
     Generated using &quot;atomic&quot; code by A. Dal Corso  v.6.3
     Shape of augmentation charge: PSQ
     Using radial grid of 1085 points,  4 beta functions with: 
                l(1) =   0
                l(2) =   0
                l(3) =   1
                l(4) =   1
     Q(r) pseudized with 0 coefficients 


     PseudoPot. # 5 for O  read from file:
     /share/work_r640/fmigm008/pseudo/O.pbe-n-kjpaw_psl.1.0.0.UPF
     MD5 check sum: e99d9cef9b487d1ca56f5b95ecd0fd7a
     Pseudo is Projector augmented-wave + core cor, Zval =  6.0
     Generated using &quot;atomic&quot; code by A. Dal Corso  v.6.3
     Shape of augmentation charge: PSQ
     Using radial grid of 1095 points,  4 beta functions with: 
                l(1) =   0
                l(2) =   0
                l(3) =   1
                l(4) =   1
     Q(r) pseudized with 0 coefficients 


     PseudoPot. # 6 for H  read from file:
     /share/work_r640/fmigm008/pseudo/H.pbe-kjpaw_psl.1.0.0.UPF
     MD5 check sum: d81a744832360e4a8af0b0b5b123bc2a
     Pseudo is Projector augmented-wave, Zval =  1.0
     Generated using &quot;atomic&quot; code by A. Dal Corso  v.6.3MaX
     Shape of augmentation charge: PSQ
     Using radial grid of  929 points,  2 beta functions with: 
                l(1) =   0
                l(2) =   0
     Q(r) pseudized with 0 coefficients 


     atomic species   valence    mass     pseudopotential
     S                 6.00    32.06500     S ( 1.00)
     W                14.00   183.84000     W ( 1.00)
     Ag               11.00   107.87000     Ag( 1.00)
     N                 5.00    14.00700     N ( 1.00)
     O                 6.00    15.99900     O ( 1.00)
     H                 1.00     1.00800     H ( 1.00)

     Starting magnetic structure 
     atomic species   magnetization
     S               0.000
     W               0.000
     Ag              0.000
     N               0.000
     O               0.000
     H               0.000

     No symmetry found


                                    s                        frac. trans.

      isym =  1     identity                                     

 cryst.   s( 1) = (     1          0          0      )
                  (     0          1          0      )
                  (     0          0          1      )

 cart.    s( 1) = (  1.0000000  0.0000000  0.0000000 )
                  (  0.0000000  1.0000000  0.0000000 )
                  (  0.0000000  0.0000000  1.0000000 )


   Cartesian axes

     site n.     atom                  positions (alat units)
         1        W      tau(   1) = (  -0.0028587   0.1395947   0.2444812  )
         2        W      tau(   2) = (  -0.1282026   0.3564836   0.2443568  )
         3        W      tau(   3) = (  -0.2537731   0.5727289   0.2442261  )
         4        W      tau(   4) = (  -0.3783723   0.7888166   0.2441498  )
         5        W      tau(   5) = (   0.2469096   0.1395426   0.2440120  )
         6        W      tau(   6) = (   0.1225026   0.3570726   0.2432304  )
         7        W      tau(   7) = (  -0.0034888   0.5727502   0.2429844  )
         8        W      tau(   8) = (  -0.1283671   0.7891505   0.2439766  )
         9        W      tau(   9) = (   0.4969194   0.1397378   0.2430413  )
        10        W      tau(  10) = (   0.3721499   0.3552416   0.2405337  )
        11        W      tau(  11) = (   0.2452295   0.5727639   0.2402480  )
        12        W      tau(  12) = (   0.1220165   0.7890246   0.2436243  )
        13        W      tau(  13) = (   0.7467445   0.1394449   0.2440642  )
        14        W      tau(  14) = (   0.6211264   0.3563823   0.2436826  )
        15        W      tau(  15) = (   0.4971469   0.5732720   0.2421413  )
        16        W      tau(  16) = (   0.3721785   0.7886524   0.2428338  )
        17        S      tau(  17) = (   0.1219502   0.0672380   0.3684592  )
        18        S      tau(  18) = (  -0.0024014   0.2846735   0.3681910  )
        19        S      tau(  19) = (  -0.1281525   0.5008469   0.3682441  )
        20        S      tau(  20) = (  -0.2533258   0.7170167   0.3685687  )
        21        S      tau(  21) = (   0.3722606   0.0676427   0.3679766  )
        22        S      tau(  22) = (   0.2484890   0.2849851   0.3676532  )
        23        S      tau(  23) = (   0.1218721   0.5017515   0.3660861  )
        24        S      tau(  24) = (  -0.0030403   0.7167922   0.3679041  )
        25        S      tau(  25) = (   0.6215745   0.0674060   0.3678624  )
        26        S      tau(  26) = (   0.4959803   0.2843589   0.3667029  )
        27        S      tau(  27) = (   0.3710177   0.5007270   0.3638206  )
        28        S      tau(  28) = (   0.2481984   0.7153351   0.3669892  )
        29        S      tau(  29) = (   0.8717811   0.0668114   0.3679626  )
        30        S      tau(  30) = (   0.7463862   0.2840842   0.3681041  )
        31        S      tau(  31) = (   0.6195449   0.5004430   0.3687043  )
        32        S      tau(  32) = (   0.4956231   0.7159829   0.3681683  )
        33        S      tau(  33) = (   0.1218639   0.0672424   0.1203644  )
        34        S      tau(  34) = (  -0.0031686   0.2839920   0.1203246  )
        35        S      tau(  35) = (  -0.1290559   0.5005458   0.1199474  )
        36        S      tau(  36) = (  -0.2533637   0.7168463   0.1201865  )
        37        S      tau(  37) = (   0.3715067   0.0672515   0.1197328  )
        38        S      tau(  38) = (   0.2459712   0.2831895   0.1185177  )
        39        S      tau(  39) = (   0.1200987   0.4999851   0.1172124  )
        40        S      tau(  40) = (  -0.0034124   0.7174366   0.1195727  )
        41        S      tau(  41) = (   0.6220409   0.0671938   0.1195919  )
        42        S      tau(  42) = (   0.4978914   0.2834015   0.1177695  )
        43        S      tau(  43) = (   0.3720771   0.5008174   0.1169455  )
        44        S      tau(  44) = (   0.2466393   0.7180153   0.1180007  )
        45        S      tau(  45) = (   0.8722199   0.0680125   0.1199081  )
        46        S      tau(  46) = (   0.7469729   0.2840633   0.1202901  )
        47        S      tau(  47) = (   0.6222799   0.5003741   0.1191499  )
        48        S      tau(  48) = (   0.4972527   0.7176301   0.1185580  )
        49        Ag     tau(  49) = (   0.1547683   0.5150674   0.5753024  )
        50        Ag     tau(  50) = (   0.3069329   0.3595674   0.5464056  )
        51        Ag     tau(  51) = (   0.5024756   0.4743393   0.5615070  )
        52        Ag     tau(  52) = (   0.3399570   0.6321033   0.5430870  )
        53        Ag     tau(  53) = (   0.3428646   0.4953663   0.7084671  )
        54        N      tau(  54) = (   0.2596825   0.4648737   0.8674395  )
        55        O      tau(  55) = (   0.1477385   0.4509631   0.8500100  )
        56        H      tau(  56) = (   0.2650389   0.5234661   0.9229976  )
        57        H      tau(  57) = (   0.1424343   0.4629232   0.7729758  )
        58        H      tau(  58) = (   0.2837088   0.3964009   0.9032094  )

     --------------------------------------------
     DFT-D3 Dispersion Correction (3-body terms):
     --------------------------------------------
       Reference C6 values for interpolation: 

         atom   Coordination number   C6
         H          0.912             6.05
         H          0.000            15.18
         N          0.000            50.54
         N          0.994            44.25
         N          2.014            39.35
         N          2.990            31.16
         O          0.000            31.01
         O          0.993            25.63
         O          1.989            20.74
         S          0.000           268.01
         S          0.995           261.99
         S          1.990           251.62
         Ag         0.000           853.49
         Ag         0.968           537.23
         W          0.000          1628.72
         W          1.929          1086.81
         W         10.915           796.19

       Values used:

         atom   Coordination number  R0_AB[au]  C6      C8
         W          9.805            3.766    796.19 128250.55
         W          9.806            3.766    796.19 128250.55
         W          9.854            3.766    796.19 128250.55
         W          9.866            3.766    796.19 128250.55
         W          9.842            3.766    796.19 128250.55
         W          9.851            3.766    796.19 128250.55
         W          9.870            3.766    796.19 128250.55
         W          9.833            3.766    796.19 128250.55
         W          9.854            3.766    796.19 128250.55
         W          9.880            3.766    796.19 128250.55
         W          9.879            3.766    796.19 128250.55
         W          9.846            3.766    796.19 128250.55
         W          9.811            3.766    796.19 128250.55
         W          9.849            3.766    796.19 128250.55
         W          9.870            3.766    796.19 128250.55
         W          9.855            3.766    796.19 128250.55
         S          3.670            3.128    251.62  12327.25
         S          3.672            3.128    251.62  12327.25
         S          3.679            3.128    251.62  12327.25
         S          3.675            3.128    251.62  12327.25
         S          3.690            3.128    251.62  12327.25
         S          4.579            3.128    251.62  12327.25
         S          4.512            3.128    251.62  12327.25
         S          3.693            3.128    251.62  12327.25
         S          3.676            3.128    251.62  12327.25
         S          3.843            3.128    251.62  12327.25
         S          4.976            3.128    251.62  12327.25
         S          4.443            3.128    251.62  12327.25
         S          3.677            3.128    251.62  12327.25
         S          3.672            3.128    251.62  12327.25
         S          4.198            3.128    251.62  12327.25
         S          3.918            3.128    251.62  12327.25
         S          3.700            3.128    251.62  12327.25
         S          3.699            3.128    251.62  12327.25
         S          3.697            3.128    251.62  12327.25
         S          3.697            3.128    251.62  12327.25
         S          3.689            3.128    251.62  12327.25
         S          3.673            3.128    251.62  12327.25
         S          3.669            3.128    251.62  12327.25
         S          3.689            3.128    251.62  12327.25
         S          3.693            3.128    251.62  12327.25
         S          3.672            3.128    251.62  12327.25
         S          3.662            3.128    251.62  12327.25
         S          3.672            3.128    251.62  12327.25
         S          3.693            3.128    251.62  12327.25
         S          3.697            3.128    251.62  12327.25
         S          3.686            3.128    251.62  12327.25
         S          3.680            3.128    251.62  12327.25
         Ag         3.221            3.147    537.23  47741.54
         Ag         3.973            3.147    537.23  47741.54
         Ag         3.317            3.147    537.23  47741.54
         Ag         4.158            3.147    537.23  47741.54
         Ag         4.124            3.147    537.23  47741.54
         N          3.753            2.478     31.16    687.50
         O          2.001            2.345     20.82    420.12
         H          1.005            2.062      6.18     74.66
         H          1.033            2.062      6.15     74.39
         H          1.007            2.062      6.18     74.65

         Molecular C6 ( Ry / a.u.^6 ) =   1190030.78


   Crystallographic axes

     site n.     atom                  positions (cryst. coord.)
         1        W      tau(   1) = (  0.0777364  0.1611901  0.1550056  )
         2        W      tau(   2) = (  0.0776133  0.4116318  0.1549267  )
         3        W      tau(   3) = (  0.0768921  0.6613303  0.1548438  )
         4        W      tau(   4) = (  0.0770512  0.9108469  0.1547955  )
         5        W      tau(   5) = (  0.3274746  0.1611299  0.1547081  )
         6        W      tau(   6) = (  0.3286586  0.4123119  0.1542125  )
         7        W      tau(   7) = (  0.3271886  0.6613549  0.1540566  )
         8        W      tau(   8) = (  0.3272492  0.9112326  0.1546856  )
         9        W      tau(   9) = (  0.5775970  0.1613553  0.1540926  )
        10        W      tau(  10) = (  0.5772488  0.4101977  0.1525028  )
        11        W      tau(  11) = (  0.5759149  0.6613708  0.1523217  )
        12        W      tau(  12) = (  0.5775601  0.9110871  0.1544623  )
        13        W      tau(  13) = (  0.8272530  0.1610171  0.1547412  )
        14        W      tau(  14) = (  0.8268839  0.4115149  0.1544993  )
        15        W      tau(  15) = (  0.8281256  0.6619575  0.1535220  )
        16        W      tau(  16) = (  0.8275072  0.9106573  0.1539611  )
        17        S      tau(  17) = (  0.1607701  0.0776397  0.2336099  )
        18        S      tau(  18) = (  0.1619549  0.3287126  0.2334399  )
        19        S      tau(  19) = (  0.1610116  0.5783281  0.2334735  )
        20        S      tau(  20) = (  0.1606439  0.8279395  0.2336794  )
        21        S      tau(  21) = (  0.4113141  0.0781070  0.2333040  )
        22        S      tau(  22) = (  0.4130252  0.3290725  0.2330989  )
        23        S      tau(  23) = (  0.4115585  0.5793727  0.2321053  )
        24        S      tau(  24) = (  0.4107998  0.8276803  0.2332579  )
        25        S      tau(  25) = (  0.6604913  0.0778337  0.2332315  )
        26        S      tau(  26) = (  0.6601550  0.3283494  0.2324963  )
        27        S      tau(  27) = (  0.6601125  0.5781897  0.2306689  )
        28        S      tau(  28) = (  0.6611973  0.8259978  0.2326779  )
        29        S      tau(  29) = (  0.9103547  0.0771472  0.2332950  )
        30        S      tau(  30) = (  0.9104023  0.3280322  0.2333848  )
        31        S      tau(  31) = (  0.9084758  0.5778618  0.2337653  )
        32        S      tau(  32) = (  0.9089960  0.8267459  0.2334255  )
        33        S      tau(  33) = (  0.1606863  0.0776448  0.0763132  )
        34        S      tau(  34) = (  0.1607942  0.3279257  0.0762880  )
        35        S      tau(  35) = (  0.1599344  0.5779805  0.0760488  )
        36        S      tau(  36) = (  0.1605077  0.8277428  0.0762004  )
        37        S      tau(  37) = (  0.4103343  0.0776554  0.0759128  )
        38        S      tau(  38) = (  0.4094707  0.3269991  0.0751424  )
        39        S      tau(  39) = (  0.4087652  0.5773330  0.0743148  )
        40        S      tau(  40) = (  0.4107999  0.8284245  0.0758113  )
        41        S      tau(  41) = (  0.6608352  0.0775887  0.0758235  )
        42        S      tau(  42) = (  0.6615133  0.3272438  0.0746680  )
        43        S      tau(  43) = (  0.6612241  0.5782941  0.0741456  )
        44        S      tau(  44) = (  0.6611856  0.8290927  0.0748146  )
        45        S      tau(  45) = (  0.9114869  0.0785340  0.0760239  )
        46        S      tau(  46) = (  0.9109769  0.3280081  0.0762661  )
        47        S      tau(  47) = (  0.9111710  0.5777822  0.0755432  )
        48        S      tau(  48) = (  0.9115766  0.8286478  0.0751680  )
        49        Ag     tau(  49) = (  0.4521427  0.5947486  0.3647523  )
        50        Ag     tau(  50) = (  0.5145293  0.4151927  0.3464312  )
        51        Ag     tau(  51) = (  0.7763355  0.5477198  0.3560058  )
        52        Ag     tau(  52) = (  0.7049020  0.7298900  0.3443271  )
        53        Ag     tau(  53) = (  0.6288645  0.5719998  0.4491812  )
        54        N      tau(  54) = (  0.5280775  0.5367899  0.5499726  )
        55        O      tau(  55) = (  0.4081021  0.5207274  0.5389220  )
        56        H      tau(  56) = (  0.5672622  0.6044466  0.5851974  )
        57        H      tau(  57) = (  0.4097031  0.5345377  0.4900809  )
        58        H      tau(  58) = (  0.5125710  0.4577243  0.5726514  )

     number of k points=    13
                       cart. coord. in units 2pi/alat
        k(    1) = (   0.0000000   0.0000000   0.0000000), wk =   0.0400000
        k(    2) = (   0.0000000   0.2309401   0.0000000), wk =   0.0800000
        k(    3) = (   0.0000000   0.4618802   0.0000000), wk =   0.0800000
        k(    4) = (   0.2000000   0.3464102   0.0000000), wk =   0.0800000
        k(    5) = (   0.2000000   0.5773503   0.0000000), wk =   0.0800000
        k(    6) = (  -0.2000000   0.1154701   0.0000000), wk =   0.0800000
        k(    7) = (   0.2000000   0.1154701   0.0000000), wk =   0.0800000
        k(    8) = (  -0.4000000   0.2309401   0.0000000), wk =   0.0800000
        k(    9) = (   0.4000000   0.2309401   0.0000000), wk =   0.0800000
        k(   10) = (  -0.2000000   0.3464102   0.0000000), wk =   0.0800000
        k(   11) = (   0.4000000  -0.0000000   0.0000000), wk =   0.0800000
        k(   12) = (  -0.4000000   0.4618802   0.0000000), wk =   0.0800000
        k(   13) = (   0.6000000   0.1154701   0.0000000), wk =   0.0800000

                       cryst. coord.
        k(    1) = (   0.0000000   0.0000000   0.0000000), wk =   0.0400000
        k(    2) = (   0.0000000   0.2000000   0.0000000), wk =   0.0800000
        k(    3) = (   0.0000000   0.4000000   0.0000000), wk =   0.0800000
        k(    4) = (   0.2000000   0.2000000   0.0000000), wk =   0.0800000
        k(    5) = (   0.2000000   0.4000000   0.0000000), wk =   0.0800000
        k(    6) = (  -0.2000000   0.2000000   0.0000000), wk =   0.0800000
        k(    7) = (   0.2000000   0.0000000   0.0000000), wk =   0.0800000
        k(    8) = (  -0.4000000   0.4000000   0.0000000), wk =   0.0800000
        k(    9) = (   0.4000000   0.0000000   0.0000000), wk =   0.0800000
        k(   10) = (  -0.2000000   0.4000000   0.0000000), wk =   0.0800000
        k(   11) = (   0.4000000  -0.2000000   0.0000000), wk =   0.0800000
        k(   12) = (  -0.4000000   0.6000000   0.0000000), wk =   0.0800000
        k(   13) = (   0.6000000  -0.2000000   0.0000000), wk =   0.0800000

     Dense  grid:  2539249 G-vectors     FFT dimensions: ( 160, 160, 243)

     Smooth grid:   897387 G-vectors     FFT dimensions: ( 108, 108, 180)

     Dynamical RAM for                 wfc:       6.50 MB

     Dynamical RAM for     wfc (w. buffer):     175.50 MB

     Dynamical RAM for           str. fact:       3.63 MB

     Dynamical RAM for           local pot:       0.00 MB

     Dynamical RAM for          nlocal pot:      26.11 MB

     Dynamical RAM for                qrad:       9.63 MB

     Dynamical RAM for          rho,v,vnew:       8.32 MB

     Dynamical RAM for               rhoin:       2.77 MB

     Dynamical RAM for            rho*nmix:      19.38 MB

     Dynamical RAM for           G-vectors:       2.38 MB

     Dynamical RAM for          h,s,v(r/c):       2.70 MB

     Dynamical RAM for          <psi|beta>:       3.62 MB

     Dynamical RAM for                 psi:      13.00 MB

     Dynamical RAM for                hpsi:      13.00 MB

     Dynamical RAM for                spsi:      13.00 MB

     Dynamical RAM for      wfcinit/wfcrot:      14.35 MB

     Dynamical RAM for           addusdens:     132.60 MB

     Dynamical RAM for          addusforce:     170.39 MB

     Dynamical RAM for         addusstress:     122.61 MB

     Estimated static dynamical RAM per process >     237.27 MB

     Estimated max dynamical RAM per process >     427.03 MB

     Estimated total dynamical RAM >      26.69 GB
     Generating pointlists ...
     new r_m :   0.0782 (alat units)  1.8731 (a.u.) for type    1
     new r_m :   0.0782 (alat units)  1.8731 (a.u.) for type    2
     new r_m :   0.0751 (alat units)  1.7989 (a.u.) for type    3
     new r_m :   0.0334 (alat units)  0.7997 (a.u.) for type    4
     new r_m :   0.0322 (alat units)  0.7723 (a.u.) for type    5
     new r_m :   0.0322 (alat units)  0.7723 (a.u.) for type    6

     Initial potential from superposition of free atoms

     starting charge     484.9880, renormalised to     485.0000

     negative rho (up, down):  1.010E-03 1.010E-03
     Starting wfcs are  392 randomized atomic wfcs
     Checking if some PAW data can be deallocated... 
       PAW data deallocated on   32 nodes for type:  1
       PAW data deallocated on   42 nodes for type:  2
       PAW data deallocated on   59 nodes for type:  3
       PAW data deallocated on   63 nodes for type:  4
       PAW data deallocated on   63 nodes for type:  5
       PAW data deallocated on   61 nodes for type:  6

     total cpu time spent up to now is      166.1 secs

     per-process dynamical memory:   308.7 Mb

     Self-consistent Calculation

     iteration #  1     ecut=    50.00 Ry     beta= 0.40
     Davidson diagonalization with overlap

---- Real-time Memory Report at c_bands before calling an iterative solver
           366 MiB given to the printing process from OS
           301 MiB allocation reported by mallinfo(arena+hblkhd)
         20617 MiB available memory on the node where the printing process lives
------------------
     ethr =  1.00E-02,  avg # of iterations =  2.0

     Threshold (ethr) on eigenvalues was too large:
     Diagonalizing with lowered threshold

     Davidson diagonalization with overlap

---- Real-time Memory Report at c_bands before calling an iterative solver
           501 MiB given to the printing process from OS
           334 MiB allocation reported by mallinfo(arena+hblkhd)
         22926 MiB available memory on the node where the printing process lives
------------------
     ethr =  4.33E-04,  avg # of iterations =  4.8

     negative rho (up, down):  1.027E-02 6.723E-03

     total cpu time spent up to now is      828.0 secs

     total energy              =  -16138.22558773 Ry
     estimated scf accuracy    <       2.44052851 Ry

     total magnetization       =     1.00 Bohr mag/cell
     absolute magnetization    =     4.14 Bohr mag/cell

     iteration #  2     ecut=    50.00 Ry     beta= 0.40
     Davidson diagonalization with overlap

---- Real-time Memory Report at c_bands before calling an iterative solver
           502 MiB given to the printing process from OS
           334 MiB allocation reported by mallinfo(arena+hblkhd)
         19169 MiB available memory on the node where the printing process lives
------------------
     ethr =  5.03E-04,  avg # of iterations =  7.3

     negative rho (up, down):  3.214E-02 2.301E-02

     total cpu time spent up to now is     1179.3 secs

     total energy              =  -16138.44691304 Ry
     estimated scf accuracy    <       0.41214476 Ry

     total magnetization       =     1.00 Bohr mag/cell
     absolute magnetization    =     3.05 Bohr mag/cell

     iteration #  3     ecut=    50.00 Ry     beta= 0.40
     Davidson diagonalization with overlap

---- Real-time Memory Report at c_bands before calling an iterative solver
           507 MiB given to the printing process from OS
           337 MiB allocation reported by mallinfo(arena+hblkhd)
         20728 MiB available memory on the node where the printing process lives
------------------
     ethr =  8.50E-05,  avg # of iterations =  8.4

     negative rho (up, down):  3.685E-02 2.754E-02

     total cpu time spent up to now is     1543.3 secs

     total energy              =  -16138.51406441 Ry
     estimated scf accuracy    <       0.22356253 Ry

     total magnetization       =     1.00 Bohr mag/cell
     absolute magnetization    =     2.36 Bohr mag/cell

     iteration #  4     ecut=    50.00 Ry     beta= 0.40
     Davidson diagonalization with overlap

---- Real-time Memory Report at c_bands before calling an iterative solver
           507 MiB given to the printing process from OS
           338 MiB allocation reported by mallinfo(arena+hblkhd)
         16970 MiB available memory on the node where the printing process lives
------------------
     ethr =  4.61E-05,  avg # of iterations =  9.8

     negative rho (up, down):  3.086E-02 2.400E-02

     total cpu time spent up to now is     1878.8 secs

     total energy              =  -16138.54492597 Ry
     estimated scf accuracy    <       0.05185920 Ry

     total magnetization       =     1.00 Bohr mag/cell
     absolute magnetization    =     1.98 Bohr mag/cell

     iteration #  5     ecut=    50.00 Ry     beta= 0.40
     Davidson diagonalization with overlap

---- Real-time Memory Report at c_bands before calling an iterative solver
           517 MiB given to the printing process from OS
           347 MiB allocation reported by mallinfo(arena+hblkhd)
         20163 MiB available memory on the node where the printing process lives
------------------
     ethr =  1.07E-05,  avg # of iterations =  7.2

     negative rho (up, down):  2.119E-02 1.683E-02

     total cpu time spent up to now is     2233.8 secs

     total energy              =  -16138.55001277 Ry
     estimated scf accuracy    <       0.03166750 Ry

     total magnetization       =     1.00 Bohr mag/cell
     absolute magnetization    =     1.71 Bohr mag/cell

     iteration #  6     ecut=    50.00 Ry     beta= 0.40
     Davidson diagonalization with overlap

---- Real-time Memory Report at c_bands before calling an iterative solver
           519 MiB given to the printing process from OS
           349 MiB allocation reported by mallinfo(arena+hblkhd)
         19235 MiB available memory on the node where the printing process lives
------------------
     ethr =  6.53E-06,  avg # of iterations =  7.3

     negative rho (up, down):  1.385E-02 1.144E-02

     total cpu time spent up to now is     2551.0 secs

     total energy              =  -16138.55319576 Ry
     estimated scf accuracy    <       0.01666617 Ry

     total magnetization       =     1.00 Bohr mag/cell
     absolute magnetization    =     1.49 Bohr mag/cell

     iteration #  7     ecut=    50.00 Ry     beta= 0.40
     Davidson diagonalization with overlap

---- Real-time Memory Report at c_bands before calling an iterative solver
           520 MiB given to the printing process from OS
           350 MiB allocation reported by mallinfo(arena+hblkhd)
         17670 MiB available memory on the node where the printing process lives
------------------
     ethr =  3.44E-06,  avg # of iterations =  5.5

     negative rho (up, down):  1.998E-02 2.052E-02

     total cpu time spent up to now is     2850.9 secs

     total energy              =  -16138.55181467 Ry
     estimated scf accuracy    <       0.00829546 Ry

     total magnetization       =     1.00 Bohr mag/cell
     absolute magnetization    =     1.34 Bohr mag/cell

     iteration #  8     ecut=    50.00 Ry     beta= 0.40
     Davidson diagonalization with overlap

---- Real-time Memory Report at c_bands before calling an iterative solver
           520 MiB given to the printing process from OS
           351 MiB allocation reported by mallinfo(arena+hblkhd)
         20670 MiB available memory on the node where the printing process lives
------------------
     ethr =  1.71E-06,  avg # of iterations =  8.1

     negative rho (up, down):  2.106E-02 2.221E-02

     total cpu time spent up to now is     3157.2 secs

     total energy              =  -16138.55145527 Ry
     estimated scf accuracy    <       0.00224786 Ry

     total magnetization       =     1.00 Bohr mag/cell
     absolute magnetization    =     1.22 Bohr mag/cell

     iteration #  9     ecut=    50.00 Ry     beta= 0.40
     Davidson diagonalization with overlap

---- Real-time Memory Report at c_bands before calling an iterative solver
           521 MiB given to the printing process from OS
           352 MiB allocation reported by mallinfo(arena+hblkhd)
         19745 MiB available memory on the node where the printing process lives
------------------
     ethr =  4.63E-07,  avg # of iterations =  8.0

     negative rho (up, down):  1.521E-02 1.614E-02

     total cpu time spent up to now is     3511.0 secs

     total energy              =  -16138.55339023 Ry
     estimated scf accuracy    <       0.00050124 Ry

     total magnetization       =     1.00 Bohr mag/cell
     absolute magnetization    =     1.17 Bohr mag/cell

     iteration # 10     ecut=    50.00 Ry     beta= 0.40
     Davidson diagonalization with overlap

---- Real-time Memory Report at c_bands before calling an iterative solver
           522 MiB given to the printing process from OS
           353 MiB allocation reported by mallinfo(arena+hblkhd)
         17666 MiB available memory on the node where the printing process lives
------------------
     ethr =  1.03E-07,  avg # of iterations =  7.0

     negative rho (up, down):  1.095E-02 1.171E-02

     total cpu time spent up to now is     3874.8 secs

     total energy              =  -16138.55447122 Ry
     estimated scf accuracy    <       0.00015726 Ry

     total magnetization       =     1.00 Bohr mag/cell
     absolute magnetization    =     1.15 Bohr mag/cell

     iteration # 11     ecut=    50.00 Ry     beta= 0.40
     Davidson diagonalization with overlap

---- Real-time Memory Report at c_bands before calling an iterative solver
           525 MiB given to the printing process from OS
           355 MiB allocation reported by mallinfo(arena+hblkhd)
         20717 MiB available memory on the node where the printing process lives
------------------
     ethr =  3.24E-08,  avg # of iterations =  7.9

     negative rho (up, down):  7.901E-03 8.496E-03

     total cpu time spent up to now is     4269.9 secs

     total energy              =  -16138.55506586 Ry
     estimated scf accuracy    <       0.00010607 Ry

     total magnetization       =     1.00 Bohr mag/cell
     absolute magnetization    =     1.14 Bohr mag/cell

     iteration # 12     ecut=    50.00 Ry     beta= 0.40
     Davidson diagonalization with overlap

---- Real-time Memory Report at c_bands before calling an iterative solver
           525 MiB given to the printing process from OS
           355 MiB allocation reported by mallinfo(arena+hblkhd)
         16064 MiB available memory on the node where the printing process lives
------------------
     ethr =  2.19E-08,  avg # of iterations =  6.7

     negative rho (up, down):  6.023E-03 6.482E-03

     total cpu time spent up to now is     4623.0 secs

     total energy              =  -16138.55533406 Ry
     estimated scf accuracy    <       0.00002994 Ry

     total magnetization       =     1.00 Bohr mag/cell
     absolute magnetization    =     1.13 Bohr mag/cell

     iteration # 13     ecut=    50.00 Ry     beta= 0.40
     Davidson diagonalization with overlap

---- Real-time Memory Report at c_bands before calling an iterative solver
           525 MiB given to the printing process from OS
           355 MiB allocation reported by mallinfo(arena+hblkhd)
         16408 MiB available memory on the node where the printing process lives
------------------
     ethr =  6.17E-09,  avg # of iterations =  7.0

     negative rho (up, down):  5.192E-03 5.594E-03

     total cpu time spent up to now is     4992.9 secs

     total energy              =  -16138.55542869 Ry
     estimated scf accuracy    <       0.00001487 Ry

     total magnetization       =     1.00 Bohr mag/cell
     absolute magnetization    =     1.12 Bohr mag/cell

     iteration # 14     ecut=    50.00 Ry     beta= 0.40
     Davidson diagonalization with overlap

---- Real-time Memory Report at c_bands before calling an iterative solver
           525 MiB given to the printing process from OS
           355 MiB allocation reported by mallinfo(arena+hblkhd)
         18625 MiB available memory on the node where the printing process lives
------------------
     ethr =  3.07E-09,  avg # of iterations =  2.0

     negative rho (up, down):  4.866E-03 5.244E-03

     total cpu time spent up to now is     5273.4 secs

     total energy              =  -16138.55546564 Ry
     estimated scf accuracy    <       0.00001059 Ry

     total magnetization       =     1.00 Bohr mag/cell
     absolute magnetization    =     1.12 Bohr mag/cell

     iteration # 15     ecut=    50.00 Ry     beta= 0.40
     Davidson diagonalization with overlap

---- Real-time Memory Report at c_bands before calling an iterative solver
           525 MiB given to the printing process from OS
           355 MiB allocation reported by mallinfo(arena+hblkhd)
         16212 MiB available memory on the node where the printing process lives
------------------
     ethr =  2.18E-09,  avg # of iterations =  2.0

     negative rho (up, down):  4.863E-03 5.235E-03

     total cpu time spent up to now is     5534.6 secs

     total energy              =  -16138.55546710 Ry
     estimated scf accuracy    <       0.00000951 Ry

     total magnetization       =     1.00 Bohr mag/cell
     absolute magnetization    =     1.12 Bohr mag/cell

     iteration # 16     ecut=    50.00 Ry     beta= 0.40
     Davidson diagonalization with overlap

---- Real-time Memory Report at c_bands before calling an iterative solver
           525 MiB given to the printing process from OS
           355 MiB allocation reported by mallinfo(arena+hblkhd)
         18563 MiB available memory on the node where the printing process lives
------------------
     ethr =  1.96E-09,  avg # of iterations =  1.1

     negative rho (up, down):  4.918E-03 5.293E-03

     total cpu time spent up to now is     5783.8 secs

     total energy              =  -16138.55545997 Ry
     estimated scf accuracy    <       0.00001119 Ry

     total magnetization       =     1.00 Bohr mag/cell
     absolute magnetization    =     1.12 Bohr mag/cell

     iteration # 17     ecut=    50.00 Ry     beta= 0.40
     Davidson diagonalization with overlap

---- Real-time Memory Report at c_bands before calling an iterative solver
           525 MiB given to the printing process from OS
           355 MiB allocation reported by mallinfo(arena+hblkhd)
         16155 MiB available memory on the node where the printing process lives
------------------
     ethr =  1.96E-09,  avg # of iterations = 10.3

     negative rho (up, down):  5.580E-03 5.991E-03

     total cpu time spent up to now is     6204.3 secs

     total energy              =  -16138.55539690 Ry
     estimated scf accuracy    <       0.00003502 Ry

     total magnetization       =     1.00 Bohr mag/cell
     absolute magnetization    =     1.12 Bohr mag/cell

     iteration # 18     ecut=    50.00 Ry     beta= 0.40
     Davidson diagonalization with overlap

---- Real-time Memory Report at c_bands before calling an iterative solver
           526 MiB given to the printing process from OS
           356 MiB allocation reported by mallinfo(arena+hblkhd)
         15993 MiB available memory on the node where the printing process lives
------------------
     ethr =  1.96E-09,  avg # of iterations =  6.5

     negative rho (up, down):  6.180E-03 6.618E-03

     total cpu time spent up to now is     6496.4 secs

     total energy              =  -16138.55533485 Ry
     estimated scf accuracy    <       0.00003331 Ry

     total magnetization       =     1.00 Bohr mag/cell
     absolute magnetization    =     1.12 Bohr mag/cell

     iteration # 19     ecut=    50.00 Ry     beta= 0.40
     Davidson diagonalization with overlap

---- Real-time Memory Report at c_bands before calling an iterative solver
           526 MiB given to the printing process from OS
           356 MiB allocation reported by mallinfo(arena+hblkhd)
         15872 MiB available memory on the node where the printing process lives
------------------
     ethr =  1.96E-09,  avg # of iterations =  2.0

     negative rho (up, down):  7.324E-03 7.824E-03

     total cpu time spent up to now is     6757.1 secs

     total energy              =  -16138.55519642 Ry
     estimated scf accuracy    <       0.00003677 Ry

     total magnetization       =     1.00 Bohr mag/cell
     absolute magnetization    =     1.12 Bohr mag/cell

     iteration # 20     ecut=    50.00 Ry     beta= 0.40
     Davidson diagonalization with overlap

---- Real-time Memory Report at c_bands before calling an iterative solver
           526 MiB given to the printing process from OS
           356 MiB allocation reported by mallinfo(arena+hblkhd)
         17996 MiB available memory on the node where the printing process lives
------------------
     ethr =  1.96E-09,  avg # of iterations =  2.0

     negative rho (up, down):  6.907E-03 7.354E-03

     total cpu time spent up to now is     7018.8 secs

     total energy              =  -16138.55524897 Ry
     estimated scf accuracy    <       0.00005440 Ry

     total magnetization       =     1.00 Bohr mag/cell
     absolute magnetization    =     1.12 Bohr mag/cell

     iteration # 21     ecut=    50.00 Ry     beta= 0.40
     Davidson diagonalization with overlap

---- Real-time Memory Report at c_bands before calling an iterative solver
           526 MiB given to the printing process from OS
           356 MiB allocation reported by mallinfo(arena+hblkhd)
         19599 MiB available memory on the node where the printing process lives
------------------
     ethr =  1.96E-09,  avg # of iterations =  3.2

     negative rho (up, down):  5.310E-03 5.669E-03

     total cpu time spent up to now is     7294.5 secs

     total energy              =  -16138.55542022 Ry
     estimated scf accuracy    <       0.00003395 Ry

     total magnetization       =     1.00 Bohr mag/cell
     absolute magnetization    =     1.12 Bohr mag/cell

     iteration # 22     ecut=    50.00 Ry     beta= 0.40
     Davidson diagonalization with overlap

---- Real-time Memory Report at c_bands before calling an iterative solver
           526 MiB given to the printing process from OS
           356 MiB allocation reported by mallinfo(arena+hblkhd)
         18079 MiB available memory on the node where the printing process lives
------------------
     ethr =  1.96E-09,  avg # of iterations =  8.0

     negative rho (up, down):  4.836E-03 5.203E-03

     total cpu time spent up to now is     7637.2 secs

     total energy              =  -16138.55546855 Ry
     estimated scf accuracy    <       0.00000416 Ry

     total magnetization       =     1.00 Bohr mag/cell
     absolute magnetization    =     1.12 Bohr mag/cell

     iteration # 23     ecut=    50.00 Ry     beta= 0.40
     Davidson diagonalization with overlap

---- Real-time Memory Report at c_bands before calling an iterative solver
           526 MiB given to the printing process from OS
           356 MiB allocation reported by mallinfo(arena+hblkhd)
         15031 MiB available memory on the node where the printing process lives
------------------
     ethr =  8.58E-10,  avg # of iterations =  7.0

     negative rho (up, down):  4.815E-03 5.192E-03

     total cpu time spent up to now is     7956.2 secs

     total energy              =  -16138.55547136 Ry
     estimated scf accuracy    <       0.00000041 Ry

     total magnetization       =     1.00 Bohr mag/cell
     absolute magnetization    =     1.12 Bohr mag/cell

     iteration # 24     ecut=    50.00 Ry     beta= 0.40
     Davidson diagonalization with overlap

---- Real-time Memory Report at c_bands before calling an iterative solver
           526 MiB given to the printing process from OS
           356 MiB allocation reported by mallinfo(arena+hblkhd)
         17881 MiB available memory on the node where the printing process lives
------------------
     ethr =  8.51E-11,  avg # of iterations = 10.4

     negative rho (up, down):  4.804E-03 5.176E-03

     total cpu time spent up to now is     8499.8 secs

     total energy              =  -16138.55547316 Ry
     estimated scf accuracy    <       0.00000328 Ry

     total magnetization       =     1.00 Bohr mag/cell
     absolute magnetization    =     1.12 Bohr mag/cell

     iteration # 25     ecut=    50.00 Ry     beta= 0.40
     Davidson diagonalization with overlap

---- Real-time Memory Report at c_bands before calling an iterative solver
           526 MiB given to the printing process from OS
           356 MiB allocation reported by mallinfo(arena+hblkhd)
         18112 MiB available memory on the node where the printing process lives
------------------
     ethr =  8.51E-11,  avg # of iterations =  2.4

     negative rho (up, down):  4.812E-03 5.180E-03

     total cpu time spent up to now is     8776.9 secs

     total energy              =  -16138.55547181 Ry
     estimated scf accuracy    <       0.00000149 Ry

     total magnetization       =     1.00 Bohr mag/cell
     absolute magnetization    =     1.12 Bohr mag/cell

     iteration # 26     ecut=    50.00 Ry     beta= 0.40
     Davidson diagonalization with overlap

---- Real-time Memory Report at c_bands before calling an iterative solver
           526 MiB given to the printing process from OS
           356 MiB allocation reported by mallinfo(arena+hblkhd)
         19556 MiB available memory on the node where the printing process lives
------------------
     ethr =  8.51E-11,  avg # of iterations =  7.8

     negative rho (up, down):  4.805E-03 5.173E-03

     total cpu time spent up to now is     9190.7 secs

     total energy              =  -16138.55547291 Ry
     estimated scf accuracy    <       0.00000013 Ry

     total magnetization       =     1.00 Bohr mag/cell
     absolute magnetization    =     1.12 Bohr mag/cell

     iteration # 27     ecut=    50.00 Ry     beta= 0.40
     Davidson diagonalization with overlap

---- Real-time Memory Report at c_bands before calling an iterative solver
           526 MiB given to the printing process from OS
           356 MiB allocation reported by mallinfo(arena+hblkhd)
         19694 MiB available memory on the node where the printing process lives
------------------
     ethr =  2.75E-11,  avg # of iterations =  8.0

     negative rho (up, down):  4.800E-03 5.168E-03

     total cpu time spent up to now is     9530.1 secs

     total energy              =  -16138.55547339 Ry
     estimated scf accuracy    <       0.00000009 Ry

     total magnetization       =     1.00 Bohr mag/cell
     absolute magnetization    =     1.12 Bohr mag/cell

     iteration # 28     ecut=    50.00 Ry     beta= 0.40
     Davidson diagonalization with overlap

---- Real-time Memory Report at c_bands before calling an iterative solver
           526 MiB given to the printing process from OS
           356 MiB allocation reported by mallinfo(arena+hblkhd)
         19511 MiB available memory on the node where the printing process lives
------------------
     ethr =  1.86E-11,  avg # of iterations =  6.6

     negative rho (up, down):  4.799E-03 5.168E-03

     total cpu time spent up to now is     9828.8 secs

     total energy              =  -16138.55547336 Ry
     estimated scf accuracy    <       0.00000003 Ry

     total magnetization       =     1.00 Bohr mag/cell
     absolute magnetization    =     1.12 Bohr mag/cell

     iteration # 29     ecut=    50.00 Ry     beta= 0.40
     Davidson diagonalization with overlap

---- Real-time Memory Report at c_bands before calling an iterative solver
           526 MiB given to the printing process from OS
           356 MiB allocation reported by mallinfo(arena+hblkhd)
         18204 MiB available memory on the node where the printing process lives
------------------
     ethr =  6.69E-12,  avg # of iterations =  7.5

     negative rho (up, down):  4.798E-03 5.166E-03

     total cpu time spent up to now is    10140.8 secs

     total energy              =  -16138.55547340 Ry
     estimated scf accuracy    <          8.2E-09 Ry

     total magnetization       =     1.00 Bohr mag/cell
     absolute magnetization    =     1.12 Bohr mag/cell

     iteration # 30     ecut=    50.00 Ry     beta= 0.40
     Davidson diagonalization with overlap

---- Real-time Memory Report at c_bands before calling an iterative solver
           526 MiB given to the printing process from OS
           356 MiB allocation reported by mallinfo(arena+hblkhd)
         20408 MiB available memory on the node where the printing process lives
------------------
     ethr =  1.69E-12,  avg # of iterations =  5.2

     negative rho (up, down):  4.797E-03 5.165E-03

     total cpu time spent up to now is    10545.8 secs

     total energy              =  -16138.55547344 Ry
     estimated scf accuracy    <          4.2E-09 Ry

     total magnetization       =     1.00 Bohr mag/cell
     absolute magnetization    =     1.12 Bohr mag/cell

     iteration # 31     ecut=    50.00 Ry     beta= 0.40
     Davidson diagonalization with overlap

---- Real-time Memory Report at c_bands before calling an iterative solver
           527 MiB given to the printing process from OS
           356 MiB allocation reported by mallinfo(arena+hblkhd)
         16508 MiB available memory on the node where the printing process lives
------------------
     ethr =  8.74E-13,  avg # of iterations =  7.2

     negative rho (up, down):  4.797E-03 5.165E-03

     total cpu time spent up to now is    10953.7 secs

     total energy              =  -16138.55547346 Ry
     estimated scf accuracy    <       0.00000002 Ry

     total magnetization       =     1.00 Bohr mag/cell
     absolute magnetization    =     1.12 Bohr mag/cell

     iteration # 32     ecut=    50.00 Ry     beta= 0.40
     Davidson diagonalization with overlap

---- Real-time Memory Report at c_bands before calling an iterative solver
           533 MiB given to the printing process from OS
           356 MiB allocation reported by mallinfo(arena+hblkhd)
         20226 MiB available memory on the node where the printing process lives
------------------
     ethr =  8.74E-13,  avg # of iterations =  2.4

     negative rho (up, down):  4.797E-03 5.165E-03

     total cpu time spent up to now is    11229.9 secs

     total energy              =  -16138.55547345 Ry
     estimated scf accuracy    <       0.00000001 Ry

     total magnetization       =     1.00 Bohr mag/cell
     absolute magnetization    =     1.12 Bohr mag/cell

     iteration # 33     ecut=    50.00 Ry     beta= 0.40
     Davidson diagonalization with overlap

---- Real-time Memory Report at c_bands before calling an iterative solver
           533 MiB given to the printing process from OS
           356 MiB allocation reported by mallinfo(arena+hblkhd)
         16237 MiB available memory on the node where the printing process lives
------------------
     ethr =  8.74E-13,  avg # of iterations =  6.9

     negative rho (up, down):  4.797E-03 5.164E-03

     total cpu time spent up to now is    11633.2 secs

     total energy              =  -16138.55547346 Ry
     estimated scf accuracy    <          1.4E-09 Ry

     total magnetization       =     1.00 Bohr mag/cell
     absolute magnetization    =     1.12 Bohr mag/cell

     iteration # 34     ecut=    50.00 Ry     beta= 0.40
     Davidson diagonalization with overlap

---- Real-time Memory Report at c_bands before calling an iterative solver
           533 MiB given to the printing process from OS
           356 MiB allocation reported by mallinfo(arena+hblkhd)
         18082 MiB available memory on the node where the printing process lives
------------------
     ethr =  2.86E-13,  avg # of iterations =  2.2

     negative rho (up, down):  4.797E-03 5.164E-03

     total cpu time spent up to now is    11916.2 secs

     total energy              =  -16138.55547346 Ry
     estimated scf accuracy    <          7.6E-10 Ry

     total magnetization       =     1.00 Bohr mag/cell
     absolute magnetization    =     1.12 Bohr mag/cell

     iteration # 35     ecut=    50.00 Ry     beta= 0.40
     Davidson diagonalization with overlap

---- Real-time Memory Report at c_bands before calling an iterative solver
           533 MiB given to the printing process from OS
           356 MiB allocation reported by mallinfo(arena+hblkhd)
         15922 MiB available memory on the node where the printing process lives
------------------
     ethr =  1.56E-13,  avg # of iterations =  7.8

     negative rho (up, down):  4.797E-03 5.164E-03

     total cpu time spent up to now is    12293.6 secs

     total energy              =  -16138.55547346 Ry
     estimated scf accuracy    <          2.7E-10 Ry

     total magnetization       =     1.00 Bohr mag/cell
     absolute magnetization    =     1.12 Bohr mag/cell

     iteration # 36     ecut=    50.00 Ry     beta= 0.40
     Davidson diagonalization with overlap

---- Real-time Memory Report at c_bands before calling an iterative solver
           533 MiB given to the printing process from OS
           356 MiB allocation reported by mallinfo(arena+hblkhd)
         15243 MiB available memory on the node where the printing process lives
------------------
     ethr =  1.00E-13,  avg # of iterations =  2.0

     negative rho (up, down):  4.797E-03 5.164E-03

     total cpu time spent up to now is    12555.5 secs

     total energy              =  -16138.55547346 Ry
     estimated scf accuracy    <          1.3E-10 Ry

     total magnetization       =     1.00 Bohr mag/cell
     absolute magnetization    =     1.12 Bohr mag/cell

     iteration # 37     ecut=    50.00 Ry     beta= 0.40
     Davidson diagonalization with overlap

---- Real-time Memory Report at c_bands before calling an iterative solver
           533 MiB given to the printing process from OS
           356 MiB allocation reported by mallinfo(arena+hblkhd)
         15106 MiB available memory on the node where the printing process lives
------------------
     ethr =  1.00E-13,  avg # of iterations =  2.8

     negative rho (up, down):  4.797E-03 5.164E-03

     Magnetic moment per site  (integrated on atomic sphere of radius R)
     atom   1 (R=0.078)  charge= 10.3731  magn=  0.0015
     atom   2 (R=0.078)  charge= 10.3731  magn=  0.0080
     atom   3 (R=0.078)  charge= 10.3740  magn= -0.0007
     atom   4 (R=0.078)  charge= 10.3743  magn=  0.0147
     atom   5 (R=0.078)  charge= 10.3763  magn=  0.0111
     atom   6 (R=0.078)  charge= 10.3757  magn=  0.0063
     atom   7 (R=0.078)  charge= 10.3783  magn=  0.0052
     atom   8 (R=0.078)  charge= 10.3749  magn=  0.0108
     atom   9 (R=0.078)  charge= 10.3753  magn=  0.0033
     atom  10 (R=0.078)  charge= 10.3820  magn=  0.0364
     atom  11 (R=0.078)  charge= 10.3836  magn=  0.0167
     atom  12 (R=0.078)  charge= 10.3743  magn=  0.0164
     atom  13 (R=0.078)  charge= 10.3732  magn=  0.0029
     atom  14 (R=0.078)  charge= 10.3740  magn= -0.0006
     atom  15 (R=0.078)  charge= 10.3816  magn=  0.0171
     atom  16 (R=0.078)  charge= 10.3760  magn=  0.0042
     atom  17 (R=0.078)  charge=  4.1591  magn=  0.0027
     atom  18 (R=0.078)  charge=  4.1558  magn=  0.0017
     atom  19 (R=0.078)  charge=  4.1586  magn= -0.0000
     atom  20 (R=0.078)  charge=  4.1590  magn=  0.0027
     atom  21 (R=0.078)  charge=  4.1594  magn=  0.0025
     atom  22 (R=0.078)  charge=  4.1750  magn=  0.0122
     atom  23 (R=0.078)  charge=  4.1787  magn=  0.0050
     atom  24 (R=0.078)  charge=  4.1586  magn=  0.0036
     atom  25 (R=0.078)  charge=  4.1591  magn=  0.0022
     atom  26 (R=0.078)  charge=  4.1626  magn=  0.0026
     atom  27 (R=0.078)  charge=  4.1805  magn=  0.0068
     atom  28 (R=0.078)  charge=  4.1668  magn=  0.0125
     atom  29 (R=0.078)  charge=  4.1578  magn=  0.0030
     atom  30 (R=0.078)  charge=  4.1574  magn=  0.0007
     atom  31 (R=0.078)  charge=  4.1566  magn=  0.0017
     atom  32 (R=0.078)  charge=  4.1575  magn=  0.0062
     atom  33 (R=0.078)  charge=  4.1610  magn=  0.0008
     atom  34 (R=0.078)  charge=  4.1591  magn=  0.0009
     atom  35 (R=0.078)  charge=  4.1606  magn= -0.0002
     atom  36 (R=0.078)  charge=  4.1609  magn=  0.0001
     atom  37 (R=0.078)  charge=  4.1601  magn=  0.0005
     atom  38 (R=0.078)  charge=  4.1589  magn=  0.0036
     atom  39 (R=0.078)  charge=  4.1568  magn=  0.0010
     atom  40 (R=0.078)  charge=  4.1595  magn= -0.0001
     atom  41 (R=0.078)  charge=  4.1602  magn=  0.0005
     atom  42 (R=0.078)  charge=  4.1579  magn=  0.0018
     atom  43 (R=0.078)  charge=  4.1526  magn=  0.0025
     atom  44 (R=0.078)  charge=  4.1584  magn=  0.0032
     atom  45 (R=0.078)  charge=  4.1594  magn=  0.0015
     atom  46 (R=0.078)  charge=  4.1597  magn=  0.0002
     atom  47 (R=0.078)  charge=  4.1603  magn=  0.0006
     atom  48 (R=0.078)  charge=  4.1598  magn=  0.0022
     atom  49 (R=0.075)  charge=  8.3762  magn=  0.0118
     atom  50 (R=0.075)  charge=  8.3724  magn=  0.0310
     atom  51 (R=0.075)  charge=  8.3760  magn=  0.0134
     atom  52 (R=0.075)  charge=  8.3726  magn=  0.0330
     atom  53 (R=0.075)  charge=  8.3617  magn=  0.0185
     atom  54 (R=0.033)  charge=  1.3263  magn= -0.0002
     atom  55 (R=0.032)  charge=  2.0166  magn=  0.0004
     atom  56 (R=0.032)  charge=  0.4160  magn=  0.0002
     atom  57 (R=0.032)  charge=  0.4031  magn=  0.0001
     atom  58 (R=0.032)  charge=  0.4160  magn=  0.0001

     total cpu time spent up to now is    12825.8 secs

     End of self-consistent calculation

 ------ SPIN UP ------------


          k = 0.0000 0.0000 0.0000 (112117 PWs)   bands (ev):

   -73.8179 -73.8145 -73.8115 -73.8089 -73.8070 -73.8061 -73.8035 -73.8015
   -73.7967 -73.7948 -73.7920 -73.7899 -73.7881 -73.7553 -73.7505 -73.7411
   -38.2258 -38.2209 -38.2197 -38.1648 -38.1640 -38.1592 -38.1587 -38.1523
   -38.1445 -38.0608 -38.0579 -38.0552 -38.0546 -38.0495 -38.0475 -38.0456
   -38.0322 -38.0304 -38.0278 -38.0273 -38.0234 -38.0228 -38.0205 -38.0184
   -38.0178 -38.0149 -38.0133 -38.0054 -37.9966 -37.9935 -37.9923 -37.9892
   -37.9876 -37.9835 -37.9697 -37.9595 -37.9582 -37.9553 -37.9527 -37.9473
   -37.9262 -37.9194 -37.9148 -37.9142 -37.9105 -37.9055 -37.8713 -37.8679
   -21.5278 -15.4153 -14.5999 -13.7133 -13.7000 -13.6760 -13.6455 -13.6323
   -13.6221 -12.9845 -12.7148 -12.6793 -12.6569 -12.6411 -12.6046 -12.5828
   -12.5414 -12.5087 -12.4747 -12.4583 -12.4471 -12.4450 -12.4237 -12.4224
   -12.4176 -12.2252 -12.2031 -12.1918 -12.1761 -12.1591 -12.1553 -12.1515
   -12.1484 -12.1458  -7.9192  -7.5322  -6.3448  -6.3292  -6.3111  -6.2869
    -6.1918  -5.6171  -5.5757  -5.5537  -5.5354  -5.5302  -5.4964  -5.4478
    -5.4171  -5.3944  -5.3166  -5.2865  -5.2644  -5.1086  -5.0965  -5.0673
    -5.0623  -5.0578  -5.0566  -5.0022  -5.0007  -4.9918  -4.5273  -4.4443
    -4.4051  -4.3501  -4.2970  -4.2872  -4.2712  -4.2502  -4.2359  -4.1858
    -4.0837  -4.0137  -3.9818  -3.9656  -3.9395  -3.7988  -3.7636  -3.7617
    -3.7071  -3.6813  -3.6777  -3.6214  -3.5191  -3.4777  -3.4107  -3.4062
    -3.3769  -3.3692  -3.3050  -3.2290  -3.2004  -3.1864  -3.1676  -3.1463
    -3.1369  -3.1289  -3.1147  -3.1113  -3.0669  -2.9655  -2.8256  -2.7758
    -2.7267  -2.6826  -2.6523  -2.5951  -2.5868  -2.5273  -2.5179  -2.4692
    -2.4644  -2.4377  -2.4361  -2.4306  -2.4043  -2.3468  -2.2974  -2.2140
    -2.1367  -2.0892  -1.9844  -1.9810  -1.9582  -1.9365  -1.8733  -1.8414
    -1.8190  -1.7869  -1.7722  -1.7694  -1.7559  -1.7550  -1.7465  -1.7444
    -1.7410  -1.7126  -1.7024  -1.6704  -1.6633  -1.6488  -1.6392  -1.6132
    -1.5853  -1.5353  -1.5269  -1.5096  -1.4565  -1.4214  -1.3767  -1.3602
    -1.3146  -1.2798  -1.2087  -1.1020  -1.0633  -1.0329  -1.0176  -0.9991
    -0.7323  -0.6966  -0.6923  -0.6902  -0.6808  -0.6769  -0.6518  -0.6487
    -0.6326  -0.3996  -0.3910  -0.3795  -0.3644  -0.3521  -0.3439  -0.3259
     0.1945   1.2532   1.5329

     occupation numbers 
     1.0000   1.0000   1.0000   1.0000   1.0000   1.0000   1.0000   1.0000
     1.0000   1.0000   1.0000   1.0000   1.0000   1.0000   1.0000   1.0000
     1.0000   1.0000   1.0000   1.0000   1.0000   1.0000   1.0000   1.0000
     1.0000   1.0000   1.0000   1.0000   1.0000   1.0000   1.0000   1.0000
     1.0000   1.0000   1.0000   1.0000   1.0000   1.0000   1.0000   1.0000
     1.0000   1.0000   1.0000   1.0000   1.0000   1.0000   1.0000   1.0000
     1.0000   1.0000   1.0000   1.0000   1.0000   1.0000   1.0000   1.0000
     1.0000   1.0000   1.0000   1.0000   1.0000   1.0000   1.0000   1.0000
     1.0000   1.0000   1.0000   1.0000   1.0000   1.0000   1.0000   1.0000
     1.0000   1.0000   1.0000   1.0000   1.0000   1.0000   1.0000   1.0000
     1.0000   1.0000   1.0000   1.0000   1.0000   1.0000   1.0000   1.0000
     1.0000   1.0000   1.0000   1.0000   1.0000   1.0000   1.0000   1.0000
     1.0000   1.0000   1.0000   1.0000   1.0000   1.0000   1.0000   1.0000
     1.0000   1.0000   1.0000   1.0000   1.0000   1.0000   1.0000   1.0000
     1.0000   1.0000   1.0000   1.0000   1.0000   1.0000   1.0000   1.0000
     1.0000   1.0000   1.0000   1.0000   1.0000   1.0000   1.0000   1.0000
     1.0000   1.0000   1.0000   1.0000   1.0000   1.0000   1.0000   1.0000
     1.0000   1.0000   1.0000   1.0000   1.0000   1.0000   1.0000   1.0000
     1.0000   1.0000   1.0000   1.0000   1.0000   1.0000   1.0000   1.0000
     1.0000   1.0000   1.0000   1.0000   1.0000   1.0000   1.0000   1.0000
     1.0000   1.0000   1.0000   1.0000   1.0000   1.0000   1.0000   1.0000
     1.0000   1.0000   1.0000   1.0000   1.0000   1.0000   1.0000   1.0000
     1.0000   1.0000   1.0000   1.0000   1.0000   1.0000   1.0000   1.0000
     1.0000   1.0000   1.0000   1.0000   1.0000   1.0000   1.0000   1.0000
     1.0000   1.0000   1.0000   1.0000   1.0000   1.0000   1.0000   1.0000
     1.0000   1.0000   1.0000   1.0000   1.0000   1.0000   1.0000   1.0000
     1.0000   1.0000   1.0000   1.0000   1.0000   1.0000   1.0000   1.0000
     1.0000   1.0000   1.0000   1.0000   1.0000   1.0000   1.0000   1.0000
     1.0000   1.0000   1.0000   1.0000   1.0000   1.0000   1.0000   1.0000
     1.0000   1.0000   1.0000   1.0000   1.0000   1.0000   1.0000   1.0000
     1.0000   1.0000   1.0000

          k = 0.0000 0.2309 0.0000 (112171 PWs)   bands (ev):

   -73.8178 -73.8147 -73.8115 -73.8091 -73.8067 -73.8060 -73.8035 -73.8014
   -73.7968 -73.7948 -73.7919 -73.7900 -73.7881 -73.7553 -73.7505 -73.7411
   -38.2206 -38.2156 -38.2134 -38.1713 -38.1666 -38.1633 -38.1564 -38.1489
   -38.1419 -38.1046 -38.0799 -38.0777 -38.0537 -38.0501 -38.0465 -38.0337
   -38.0302 -38.0275 -38.0252 -38.0225 -38.0193 -38.0172 -38.0143 -38.0125
   -38.0054 -38.0001 -37.9982 -37.9969 -37.9950 -37.9931 -37.9895 -37.9882
   -37.9867 -37.9833 -37.9700 -37.9628 -37.9607 -37.9557 -37.9527 -37.9475
   -37.9335 -37.9238 -37.9229 -37.9124 -37.9092 -37.9019 -37.8787 -37.8695
   -21.5278 -15.4153 -14.5583 -13.9787 -13.8038 -13.7868 -13.4957 -13.4628
   -13.3260 -12.9685 -12.8084 -12.7368 -12.6989 -12.6890 -12.6565 -12.5891
   -12.5565 -12.5445 -12.4958 -12.4782 -12.4585 -12.4387 -12.4249 -12.3183
   -12.2865 -12.2647 -12.2455 -12.2156 -12.1867 -12.1758 -12.1694 -12.1540
   -12.0966 -12.0815  -7.9192  -7.5322  -6.2834  -6.2720  -6.2417  -6.2382
    -6.1885  -5.6724  -5.6492  -5.6320  -5.5615  -5.5204  -5.4911  -5.4730
    -5.4320  -5.4198  -5.3977  -5.3229  -5.3186  -5.2892  -5.2721  -5.0752
    -5.0681  -5.0199  -5.0039  -4.9580  -4.7413  -4.7360  -4.5936  -4.4871
    -4.4558  -4.3880  -4.3249  -4.2907  -4.2120  -4.1631  -4.1487  -4.1224
    -4.1016  -4.0647  -4.0454  -4.0032  -3.9869  -3.9147  -3.9116  -3.9030
    -3.6803  -3.5786  -3.5453  -3.5118  -3.4713  -3.4465  -3.4405  -3.3861
    -3.3661  -3.3186  -3.3001  -3.2835  -3.2782  -3.2115  -3.1971  -3.1513
    -3.1070  -2.9995  -2.9680  -2.9369  -2.8619  -2.7984  -2.7789  -2.7511
    -2.7269  -2.7203  -2.7015  -2.6891  -2.6611  -2.6394  -2.6128  -2.5469
    -2.5254  -2.5082  -2.4800  -2.4462  -2.3667  -2.3186  -2.2081  -2.1668
    -2.1274  -2.0903  -2.0209  -2.0066  -1.9877  -1.9712  -1.9399  -1.9132
    -1.8936  -1.8662  -1.8556  -1.8211  -1.7945  -1.7670  -1.7494  -1.7374
    -1.7247  -1.7064  -1.6918  -1.6692  -1.6530  -1.6119  -1.5879  -1.5550
    -1.5387  -1.4975  -1.4867  -1.4639  -1.4358  -1.3751  -1.3393  -1.3295
    -1.2992  -1.2837  -1.2494  -1.2288  -1.1707  -1.0748  -1.0515  -1.0308
    -0.8993  -0.7823  -0.7646  -0.7521  -0.5751  -0.5669  -0.5550  -0.5366
    -0.5237  -0.5138  -0.4152  -0.3794  -0.3679  -0.2691  -0.1726  -0.1476
     0.1755   1.2596   1.5642

     occupation numbers 
     1.0000   1.0000   1.0000   1.0000   1.0000   1.0000   1.0000   1.0000
     1.0000   1.0000   1.0000   1.0000   1.0000   1.0000   1.0000   1.0000
     1.0000   1.0000   1.0000   1.0000   1.0000   1.0000   1.0000   1.0000
     1.0000   1.0000   1.0000   1.0000   1.0000   1.0000   1.0000   1.0000
     1.0000   1.0000   1.0000   1.0000   1.0000   1.0000   1.0000   1.0000
     1.0000   1.0000   1.0000   1.0000   1.0000   1.0000   1.0000   1.0000
     1.0000   1.0000   1.0000   1.0000   1.0000   1.0000   1.0000   1.0000
     1.0000   1.0000   1.0000   1.0000   1.0000   1.0000   1.0000   1.0000
     1.0000   1.0000   1.0000   1.0000   1.0000   1.0000   1.0000   1.0000
     1.0000   1.0000   1.0000   1.0000   1.0000   1.0000   1.0000   1.0000
     1.0000   1.0000   1.0000   1.0000   1.0000   1.0000   1.0000   1.0000
     1.0000   1.0000   1.0000   1.0000   1.0000   1.0000   1.0000   1.0000
     1.0000   1.0000   1.0000   1.0000   1.0000   1.0000   1.0000   1.0000
     1.0000   1.0000   1.0000   1.0000   1.0000   1.0000   1.0000   1.0000
     1.0000   1.0000   1.0000   1.0000   1.0000   1.0000   1.0000   1.0000
     1.0000   1.0000   1.0000   1.0000   1.0000   1.0000   1.0000   1.0000
     1.0000   1.0000   1.0000   1.0000   1.0000   1.0000   1.0000   1.0000
     1.0000   1.0000   1.0000   1.0000   1.0000   1.0000   1.0000   1.0000
     1.0000   1.0000   1.0000   1.0000   1.0000   1.0000   1.0000   1.0000
     1.0000   1.0000   1.0000   1.0000   1.0000   1.0000   1.0000   1.0000
     1.0000   1.0000   1.0000   1.0000   1.0000   1.0000   1.0000   1.0000
     1.0000   1.0000   1.0000   1.0000   1.0000   1.0000   1.0000   1.0000
     1.0000   1.0000   1.0000   1.0000   1.0000   1.0000   1.0000   1.0000
     1.0000   1.0000   1.0000   1.0000   1.0000   1.0000   1.0000   1.0000
     1.0000   1.0000   1.0000   1.0000   1.0000   1.0000   1.0000   1.0000
     1.0000   1.0000   1.0000   1.0000   1.0000   1.0000   1.0000   1.0000
     1.0000   1.0000   1.0000   1.0000   1.0000   1.0000   1.0000   1.0000
     1.0000   1.0000   1.0000   1.0000   1.0000   1.0000   1.0000   1.0000
     1.0000   1.0000   1.0000   1.0000   1.0000   1.0000   1.0000   1.0000
     1.0000   1.0000   1.0000   1.0000   1.0000   1.0000   1.0000   1.0000
     1.0000   1.0000   1.0000

          k = 0.0000 0.4619 0.0000 (112236 PWs)   bands (ev):

   -73.8175 -73.8151 -73.8115 -73.8093 -73.8065 -73.8059 -73.8035 -73.8013
   -73.7970 -73.7947 -73.7917 -73.7902 -73.7881 -73.7554 -73.7505 -73.7411
   -38.2074 -38.2048 -38.1914 -38.1889 -38.1769 -38.1672 -38.1609 -38.1479
   -38.1319 -38.1272 -38.1065 -38.1021 -38.0648 -38.0595 -38.0483 -38.0394
   -38.0323 -38.0214 -38.0179 -38.0136 -38.0103 -38.0076 -38.0039 -38.0016
   -37.9996 -37.9983 -37.9978 -37.9921 -37.9894 -37.9865 -37.9833 -37.9797
   -37.9746 -37.9711 -37.9678 -37.9664 -37.9541 -37.9524 -37.9504 -37.9487
   -37.9439 -37.9373 -37.9326 -37.9169 -37.9120 -37.8961 -37.8945 -37.8724
   -21.5278 -15.4153 -14.4367 -14.2352 -13.8736 -13.8548 -13.2668 -13.2315
   -13.0218 -13.0009 -12.9716 -12.9188 -12.8344 -12.7324 -12.7060 -12.6903
   -12.5231 -12.5159 -12.4643 -12.4511 -12.4382 -12.4260 -12.3837 -12.3704
   -12.3518 -12.2855 -12.2178 -12.2030 -12.1786 -12.1603 -12.1583 -12.1540
   -12.0575 -12.0406  -7.9192  -7.5322  -6.2011  -6.1302  -6.1157  -6.0937
    -6.0288  -5.8748  -5.8625  -5.8400  -5.7161  -5.5363  -5.5016  -5.4902
    -5.4621  -5.4475  -5.4391  -5.3954  -5.3757  -5.3279  -5.3034  -5.0685
    -5.0651  -5.0324  -5.0109  -4.8127  -4.6342  -4.5312  -4.4887  -4.4422
    -4.3962  -4.3773  -4.3511  -4.3155  -4.2470  -4.2339  -4.1934  -4.1624
    -4.1314  -4.1208  -4.1048  -4.0787  -4.0672  -4.0538  -4.0443  -3.7036
    -3.5785  -3.5138  -3.4845  -3.4460  -3.4237  -3.3945  -3.3734  -3.3130
    -3.3001  -3.2842  -3.2652  -3.2424  -3.2233  -3.1914  -3.1662  -3.1097
    -3.0697  -3.0632  -3.0124  -2.9746  -2.9561  -2.9180  -2.8668  -2.7809
    -2.7552  -2.7115  -2.6712  -2.6420  -2.6136  -2.5755  -2.5445  -2.4999
    -2.4543  -2.4348  -2.4003  -2.3216  -2.2821  -2.2575  -2.2443  -2.1898
    -2.1303  -2.1016  -2.0488  -2.0225  -2.0128  -2.0026  -1.9855  -1.9570
    -1.9351  -1.9111  -1.8826  -1.8761  -1.8583  -1.8462  -1.8416  -1.8295
    -1.7770  -1.7703  -1.7270  -1.7191  -1.7004  -1.6729  -1.6360  -1.6227
    -1.5962  -1.5571  -1.5362  -1.5070  -1.4370  -1.3925  -1.3042  -1.2921
    -1.2395  -1.2059  -1.1937  -1.1530  -1.1228  -1.1005  -1.0514  -1.0138
    -0.9801  -0.8970  -0.7359  -0.7247  -0.6432  -0.6270  -0.4976  -0.4594
    -0.4459  -0.4356  -0.4001  -0.3826  -0.3160  -0.0965  -0.0001   0.0230
     0.1258   1.2694   1.6167

     occupation numbers 
     1.0000   1.0000   1.0000   1.0000   1.0000   1.0000   1.0000   1.0000
     1.0000   1.0000   1.0000   1.0000   1.0000   1.0000   1.0000   1.0000
     1.0000   1.0000   1.0000   1.0000   1.0000   1.0000   1.0000   1.0000
     1.0000   1.0000   1.0000   1.0000   1.0000   1.0000   1.0000   1.0000
     1.0000   1.0000   1.0000   1.0000   1.0000   1.0000   1.0000   1.0000
     1.0000   1.0000   1.0000   1.0000   1.0000   1.0000   1.0000   1.0000
     1.0000   1.0000   1.0000   1.0000   1.0000   1.0000   1.0000   1.0000
     1.0000   1.0000   1.0000   1.0000   1.0000   1.0000   1.0000   1.0000
     1.0000   1.0000   1.0000   1.0000   1.0000   1.0000   1.0000   1.0000
     1.0000   1.0000   1.0000   1.0000   1.0000   1.0000   1.0000   1.0000
     1.0000   1.0000   1.0000   1.0000   1.0000   1.0000   1.0000   1.0000
     1.0000   1.0000   1.0000   1.0000   1.0000   1.0000   1.0000   1.0000
     1.0000   1.0000   1.0000   1.0000   1.0000   1.0000   1.0000   1.0000
     1.0000   1.0000   1.0000   1.0000   1.0000   1.0000   1.0000   1.0000
     1.0000   1.0000   1.0000   1.0000   1.0000   1.0000   1.0000   1.0000
     1.0000   1.0000   1.0000   1.0000   1.0000   1.0000   1.0000   1.0000
     1.0000   1.0000   1.0000   1.0000   1.0000   1.0000   1.0000   1.0000
     1.0000   1.0000   1.0000   1.0000   1.0000   1.0000   1.0000   1.0000
     1.0000   1.0000   1.0000   1.0000   1.0000   1.0000   1.0000   1.0000
     1.0000   1.0000   1.0000   1.0000   1.0000   1.0000   1.0000   1.0000
     1.0000   1.0000   1.0000   1.0000   1.0000   1.0000   1.0000   1.0000
     1.0000   1.0000   1.0000   1.0000   1.0000   1.0000   1.0000   1.0000
     1.0000   1.0000   1.0000   1.0000   1.0000   1.0000   1.0000   1.0000
     1.0000   1.0000   1.0000   1.0000   1.0000   1.0000   1.0000   1.0000
     1.0000   1.0000   1.0000   1.0000   1.0000   1.0000   1.0000   1.0000
     1.0000   1.0000   1.0000   1.0000   1.0000   1.0000   1.0000   1.0000
     1.0000   1.0000   1.0000   1.0000   1.0000   1.0000   1.0000   1.0000
     1.0000   1.0000   1.0000   1.0000   1.0000   1.0000   1.0000   1.0000
     1.0000   1.0000   1.0000   1.0000   1.0000   1.0000   1.0000   1.0000
     1.0000   1.0000   1.0000   1.0000   1.0000   1.0000   1.0000   1.0000
     1.0000   1.0000   1.0000

          k = 0.2000 0.3464 0.0000 (112231 PWs)   bands (ev):

   -73.8174 -73.8152 -73.8115 -73.8091 -73.8067 -73.8058 -73.8036 -73.8014
   -73.7967 -73.7949 -73.7917 -73.7902 -73.7881 -73.7554 -73.7505 -73.7411
   -38.2129 -38.2041 -38.2009 -38.1801 -38.1770 -38.1653 -38.1565 -38.1491
   -38.1332 -38.1247 -38.1174 -38.0785 -38.0605 -38.0569 -38.0485 -38.0382
   -38.0330 -38.0299 -38.0262 -38.0206 -38.0168 -38.0103 -38.0039 -38.0010
   -37.9963 -37.9935 -37.9918 -37.9901 -37.9877 -37.9851 -37.9836 -37.9822
   -37.9772 -37.9736 -37.9701 -37.9668 -37.9599 -37.9560 -37.9528 -37.9481
   -37.9420 -37.9329 -37.9270 -37.9220 -37.9059 -37.9008 -37.8875 -37.8730
   -21.5278 -15.4153 -14.4765 -14.1049 -14.0602 -13.5684 -13.5655 -13.1762
   -13.1198 -13.0108 -12.9367 -12.8114 -12.7910 -12.7119 -12.6728 -12.6068
   -12.5963 -12.5778 -12.5729 -12.4589 -12.4260 -12.3925 -12.3781 -12.3146
   -12.2914 -12.2743 -12.2533 -12.2336 -12.2218 -12.1561 -12.1515 -12.1091
   -12.0964 -12.0369  -7.9192  -7.5322  -6.2045  -6.1787  -6.1540  -6.1300
    -6.1066  -5.7678  -5.7388  -5.7224  -5.6828  -5.6456  -5.6032  -5.5679
    -5.5067  -5.4751  -5.3570  -5.3360  -5.2857  -5.2774  -5.2447  -5.2302
    -5.0968  -4.9069  -4.8914  -4.8174  -4.7525  -4.6080  -4.4930  -4.4721
    -4.3996  -4.3686  -4.3393  -4.3060  -4.2774  -4.2646  -4.2363  -4.2282
    -4.1745  -4.1241  -4.1089  -4.0935  -4.0569  -3.7689  -3.7382  -3.7281
    -3.7202  -3.6955  -3.6194  -3.4997  -3.4333  -3.4033  -3.3542  -3.3246
    -3.3025  -3.2479  -3.2282  -3.2086  -3.1710  -3.1524  -3.1102  -3.0930
    -3.0434  -3.0175  -2.9926  -2.9534  -2.9457  -2.9279  -2.9178  -2.9022
    -2.8214  -2.7470  -2.7250  -2.6567  -2.6382  -2.5654  -2.5252  -2.4818
    -2.4683  -2.4411  -2.3889  -2.3645  -2.3175  -2.2231  -2.1871  -2.1668
    -2.1333  -2.1267  -2.0988  -2.0905  -2.0205  -2.0010  -1.9834  -1.9536
    -1.9303  -1.9082  -1.8852  -1.8598  -1.8397  -1.8307  -1.8015  -1.7534
    -1.7395  -1.7213  -1.7139  -1.6811  -1.6734  -1.6247  -1.5976  -1.5768
    -1.5681  -1.5432  -1.5394  -1.5104  -1.4301  -1.3950  -1.3826  -1.3675
    -1.2936  -1.2279  -1.2099  -1.1875  -1.1586  -1.1207  -1.0375  -1.0202
    -0.8764  -0.8498  -0.6832  -0.6737  -0.6403  -0.6329  -0.6174  -0.5432
    -0.5343  -0.4409  -0.3775  -0.2570  -0.2127  -0.2014  -0.1609   0.0701
     0.1386   1.2822   1.5889

     occupation numbers 
     1.0000   1.0000   1.0000   1.0000   1.0000   1.0000   1.0000   1.0000
     1.0000   1.0000   1.0000   1.0000   1.0000   1.0000   1.0000   1.0000
     1.0000   1.0000   1.0000   1.0000   1.0000   1.0000   1.0000   1.0000
     1.0000   1.0000   1.0000   1.0000   1.0000   1.0000   1.0000   1.0000
     1.0000   1.0000   1.0000   1.0000   1.0000   1.0000   1.0000   1.0000
     1.0000   1.0000   1.0000   1.0000   1.0000   1.0000   1.0000   1.0000
     1.0000   1.0000   1.0000   1.0000   1.0000   1.0000   1.0000   1.0000
     1.0000   1.0000   1.0000   1.0000   1.0000   1.0000   1.0000   1.0000
     1.0000   1.0000   1.0000   1.0000   1.0000   1.0000   1.0000   1.0000
     1.0000   1.0000   1.0000   1.0000   1.0000   1.0000   1.0000   1.0000
     1.0000   1.0000   1.0000   1.0000   1.0000   1.0000   1.0000   1.0000
     1.0000   1.0000   1.0000   1.0000   1.0000   1.0000   1.0000   1.0000
     1.0000   1.0000   1.0000   1.0000   1.0000   1.0000   1.0000   1.0000
     1.0000   1.0000   1.0000   1.0000   1.0000   1.0000   1.0000   1.0000
     1.0000   1.0000   1.0000   1.0000   1.0000   1.0000   1.0000   1.0000
     1.0000   1.0000   1.0000   1.0000   1.0000   1.0000   1.0000   1.0000
     1.0000   1.0000   1.0000   1.0000   1.0000   1.0000   1.0000   1.0000
     1.0000   1.0000   1.0000   1.0000   1.0000   1.0000   1.0000   1.0000
     1.0000   1.0000   1.0000   1.0000   1.0000   1.0000   1.0000   1.0000
     1.0000   1.0000   1.0000   1.0000   1.0000   1.0000   1.0000   1.0000
     1.0000   1.0000   1.0000   1.0000   1.0000   1.0000   1.0000   1.0000
     1.0000   1.0000   1.0000   1.0000   1.0000   1.0000   1.0000   1.0000
     1.0000   1.0000   1.0000   1.0000   1.0000   1.0000   1.0000   1.0000
     1.0000   1.0000   1.0000   1.0000   1.0000   1.0000   1.0000   1.0000
     1.0000   1.0000   1.0000   1.0000   1.0000   1.0000   1.0000   1.0000
     1.0000   1.0000   1.0000   1.0000   1.0000   1.0000   1.0000   1.0000
     1.0000   1.0000   1.0000   1.0000   1.0000   1.0000   1.0000   1.0000
     1.0000   1.0000   1.0000   1.0000   1.0000   1.0000   1.0000   1.0000
     1.0000   1.0000   1.0000   1.0000   1.0000   1.0000   1.0000   1.0000
     1.0000   1.0000   1.0000   1.0000   1.0000   1.0000   1.0000   1.0000
     1.0000   1.0000   1.0000

          k = 0.2000 0.5774 0.0000 (112237 PWs)   bands (ev):

   -73.8173 -73.8152 -73.8116 -73.8094 -73.8065 -73.8057 -73.8036 -73.8014
   -73.7969 -73.7948 -73.7917 -73.7902 -73.7881 -73.7554 -73.7505 -73.7411
   -38.2018 -38.1978 -38.1876 -38.1844 -38.1776 -38.1721 -38.1662 -38.1515
   -38.1482 -38.1338 -38.0936 -38.0921 -38.0880 -38.0519 -38.0464 -38.0409
   -38.0347 -38.0315 -38.0185 -38.0181 -38.0083 -38.0059 -38.0036 -38.0019
   -38.0008 -37.9980 -37.9931 -37.9894 -37.9866 -37.9830 -37.9760 -37.9716
   -37.9702 -37.9676 -37.9626 -37.9600 -37.9572 -37.9539 -37.9513 -37.9470
   -37.9434 -37.9387 -37.9328 -37.9300 -37.9185 -37.8983 -37.8894 -37.8761
   -21.5278 -15.4153 -14.3376 -14.2941 -14.1158 -13.5967 -13.3031 -13.2947
   -12.9555 -12.9498 -12.8897 -12.8546 -12.8430 -12.8032 -12.7939 -12.6594
   -12.6321 -12.6043 -12.4934 -12.4854 -12.3852 -12.3735 -12.3600 -12.3246
   -12.3107 -12.2980 -12.2599 -12.2345 -12.2334 -12.1318 -12.1217 -12.1194
   -12.0797 -12.0173  -7.9192  -7.5322  -6.1989  -6.0604  -6.0107  -5.9875
    -5.9226  -5.8975  -5.8773  -5.8512  -5.8105  -5.7447  -5.6883  -5.6254
    -5.6143  -5.5421  -5.3649  -5.2680  -5.2563  -5.2207  -5.2055  -5.1722
    -5.1562  -4.8576  -4.8333  -4.7549  -4.6353  -4.5799  -4.5494  -4.5228
    -4.4759  -4.4197  -4.4002  -4.3205  -4.3132  -4.2405  -4.2339  -4.2140
    -4.1902  -4.1664  -4.1235  -4.0965  -3.9549  -3.9513  -3.7948  -3.6654
    -3.6559  -3.5702  -3.4437  -3.3951  -3.3636  -3.3311  -3.3122  -3.2875
    -3.2742  -3.2633  -3.2462  -3.2358  -3.2171  -3.2029  -3.1450  -3.1272
    -3.1034  -3.0819  -3.0635  -3.0370  -3.0095  -2.9612  -2.8804  -2.8330
    -2.7553  -2.7313  -2.6995  -2.6747  -2.6348  -2.5604  -2.5213  -2.4595
    -2.4002  -2.3352  -2.3215  -2.3098  -2.2563  -2.2086  -2.1810  -2.1373
    -2.1223  -2.1121  -2.0814  -2.0632  -2.0193  -1.9887  -1.9685  -1.9573
    -1.9402  -1.9199  -1.8989  -1.8823  -1.8715  -1.8577  -1.8449  -1.8369
    -1.8258  -1.7838  -1.7666  -1.7402  -1.7088  -1.6905  -1.6825  -1.6527
    -1.6197  -1.5742  -1.5629  -1.5101  -1.4800  -1.4678  -1.4160  -1.3354
    -1.2868  -1.1974  -1.1626  -1.1458  -1.0994  -1.0825  -1.0110  -1.0018
    -0.8151  -0.8007  -0.7034  -0.6926  -0.6614  -0.6468  -0.5940  -0.5845
    -0.5676  -0.4171  -0.2803  -0.2716  -0.1903  -0.1265  -0.0681   0.0884
     0.1870   1.2914   1.6052

     occupation numbers 
     1.0000   1.0000   1.0000   1.0000   1.0000   1.0000   1.0000   1.0000
     1.0000   1.0000   1.0000   1.0000   1.0000   1.0000   1.0000   1.0000
     1.0000   1.0000   1.0000   1.0000   1.0000   1.0000   1.0000   1.0000
     1.0000   1.0000   1.0000   1.0000   1.0000   1.0000   1.0000   1.0000
     1.0000   1.0000   1.0000   1.0000   1.0000   1.0000   1.0000   1.0000
     1.0000   1.0000   1.0000   1.0000   1.0000   1.0000   1.0000   1.0000
     1.0000   1.0000   1.0000   1.0000   1.0000   1.0000   1.0000   1.0000
     1.0000   1.0000   1.0000   1.0000   1.0000   1.0000   1.0000   1.0000
     1.0000   1.0000   1.0000   1.0000   1.0000   1.0000   1.0000   1.0000
     1.0000   1.0000   1.0000   1.0000   1.0000   1.0000   1.0000   1.0000
     1.0000   1.0000   1.0000   1.0000   1.0000   1.0000   1.0000   1.0000
     1.0000   1.0000   1.0000   1.0000   1.0000   1.0000   1.0000   1.0000
     1.0000   1.0000   1.0000   1.0000   1.0000   1.0000   1.0000   1.0000
     1.0000   1.0000   1.0000   1.0000   1.0000   1.0000   1.0000   1.0000
     1.0000   1.0000   1.0000   1.0000   1.0000   1.0000   1.0000   1.0000
     1.0000   1.0000   1.0000   1.0000   1.0000   1.0000   1.0000   1.0000
     1.0000   1.0000   1.0000   1.0000   1.0000   1.0000   1.0000   1.0000
     1.0000   1.0000   1.0000   1.0000   1.0000   1.0000   1.0000   1.0000
     1.0000   1.0000   1.0000   1.0000   1.0000   1.0000   1.0000   1.0000
     1.0000   1.0000   1.0000   1.0000   1.0000   1.0000   1.0000   1.0000
     1.0000   1.0000   1.0000   1.0000   1.0000   1.0000   1.0000   1.0000
     1.0000   1.0000   1.0000   1.0000   1.0000   1.0000   1.0000   1.0000
     1.0000   1.0000   1.0000   1.0000   1.0000   1.0000   1.0000   1.0000
     1.0000   1.0000   1.0000   1.0000   1.0000   1.0000   1.0000   1.0000
     1.0000   1.0000   1.0000   1.0000   1.0000   1.0000   1.0000   1.0000
     1.0000   1.0000   1.0000   1.0000   1.0000   1.0000   1.0000   1.0000
     1.0000   1.0000   1.0000   1.0000   1.0000   1.0000   1.0000   1.0000
     1.0000   1.0000   1.0000   1.0000   1.0000   1.0000   1.0000   1.0000
     1.0000   1.0000   1.0000   1.0000   1.0000   1.0000   1.0000   1.0000
     1.0000   1.0000   1.0000   1.0000   1.0000   1.0000   1.0000   1.0000
     1.0000   1.0000   1.0000

          k =-0.2000 0.1155 0.0000 (112171 PWs)   bands (ev):

   -73.8178 -73.8146 -73.8115 -73.8093 -73.8068 -73.8058 -73.8036 -73.8015
   -73.7967 -73.7949 -73.7920 -73.7899 -73.7881 -73.7554 -73.7505 -73.7411
   -38.2207 -38.2159 -38.2130 -38.1698 -38.1660 -38.1649 -38.1599 -38.1472
   -38.1407 -38.1039 -38.0811 -38.0770 -38.0522 -38.0496 -38.0456 -38.0353
   -38.0291 -38.0286 -38.0260 -38.0248 -38.0177 -38.0169 -38.0146 -38.0133
   -38.0051 -38.0017 -37.9985 -37.9972 -37.9943 -37.9928 -37.9892 -37.9873
   -37.9865 -37.9832 -37.9700 -37.9633 -37.9608 -37.9552 -37.9527 -37.9475
   -37.9338 -37.9257 -37.9217 -37.9115 -37.9095 -37.9014 -37.8758 -37.8726
   -21.5278 -15.4153 -14.5583 -13.9774 -13.8039 -13.7895 -13.4806 -13.4759
   -13.3267 -12.9689 -12.7935 -12.7608 -12.6934 -12.6835 -12.6588 -12.5888
   -12.5665 -12.5231 -12.4992 -12.4802 -12.4714 -12.4338 -12.4231 -12.3095
   -12.2960 -12.2630 -12.2456 -12.2148 -12.1881 -12.1771 -12.1691 -12.1519
   -12.0963 -12.0822  -7.9192  -7.5322  -6.2874  -6.2668  -6.2468  -6.2344
    -6.1886  -5.6807  -5.6414  -5.6270  -5.5513  -5.5336  -5.4944  -5.4708
    -5.4406  -5.4220  -5.3859  -5.3300  -5.3125  -5.2843  -5.2783  -5.0838
    -5.0646  -5.0176  -5.0014  -4.9534  -4.7422  -4.7372  -4.5755  -4.5172
    -4.4524  -4.3744  -4.3422  -4.2824  -4.2103  -4.1640  -4.1495  -4.1246
    -4.1018  -4.0681  -4.0422  -3.9982  -3.9858  -3.9172  -3.9074  -3.8988
    -3.6756  -3.5931  -3.5389  -3.5055  -3.4807  -3.4634  -3.4471  -3.3774
    -3.3684  -3.3238  -3.2975  -3.2813  -3.2679  -3.2083  -3.1970  -3.1568
    -3.1061  -2.9889  -2.9675  -2.9331  -2.8367  -2.8061  -2.7792  -2.7523
    -2.7340  -2.7172  -2.7009  -2.6927  -2.6791  -2.6558  -2.6093  -2.5494
    -2.5229  -2.4874  -2.4723  -2.4500  -2.3730  -2.3161  -2.2008  -2.1780
    -2.1374  -2.0920  -2.0242  -2.0081  -1.9823  -1.9688  -1.9473  -1.9100
    -1.8878  -1.8691  -1.8444  -1.8237  -1.8089  -1.7770  -1.7463  -1.7308
    -1.7126  -1.7034  -1.6874  -1.6694  -1.6562  -1.6112  -1.5787  -1.5582
    -1.5312  -1.5080  -1.4977  -1.4381  -1.4288  -1.3755  -1.3541  -1.3322
    -1.3160  -1.2784  -1.2587  -1.2265  -1.1686  -1.0837  -1.0491  -1.0199
    -0.9023  -0.7782  -0.7612  -0.7428  -0.5881  -0.5712  -0.5548  -0.5355
    -0.5208  -0.5125  -0.4173  -0.3852  -0.3611  -0.2670  -0.1743  -0.1474
     0.1742   1.2814   1.5404

     occupation numbers 
     1.0000   1.0000   1.0000   1.0000   1.0000   1.0000   1.0000   1.0000
     1.0000   1.0000   1.0000   1.0000   1.0000   1.0000   1.0000   1.0000
     1.0000   1.0000   1.0000   1.0000   1.0000   1.0000   1.0000   1.0000
     1.0000   1.0000   1.0000   1.0000   1.0000   1.0000   1.0000   1.0000
     1.0000   1.0000   1.0000   1.0000   1.0000   1.0000   1.0000   1.0000
     1.0000   1.0000   1.0000   1.0000   1.0000   1.0000   1.0000   1.0000
     1.0000   1.0000   1.0000   1.0000   1.0000   1.0000   1.0000   1.0000
     1.0000   1.0000   1.0000   1.0000   1.0000   1.0000   1.0000   1.0000
     1.0000   1.0000   1.0000   1.0000   1.0000   1.0000   1.0000   1.0000
     1.0000   1.0000   1.0000   1.0000   1.0000   1.0000   1.0000   1.0000
     1.0000   1.0000   1.0000   1.0000   1.0000   1.0000   1.0000   1.0000
     1.0000   1.0000   1.0000   1.0000   1.0000   1.0000   1.0000   1.0000
     1.0000   1.0000   1.0000   1.0000   1.0000   1.0000   1.0000   1.0000
     1.0000   1.0000   1.0000   1.0000   1.0000   1.0000   1.0000   1.0000
     1.0000   1.0000   1.0000   1.0000   1.0000   1.0000   1.0000   1.0000
     1.0000   1.0000   1.0000   1.0000   1.0000   1.0000   1.0000   1.0000
     1.0000   1.0000   1.0000   1.0000   1.0000   1.0000   1.0000   1.0000
     1.0000   1.0000   1.0000   1.0000   1.0000   1.0000   1.0000   1.0000
     1.0000   1.0000   1.0000   1.0000   1.0000   1.0000   1.0000   1.0000
     1.0000   1.0000   1.0000   1.0000   1.0000   1.0000   1.0000   1.0000
     1.0000   1.0000   1.0000   1.0000   1.0000   1.0000   1.0000   1.0000
     1.0000   1.0000   1.0000   1.0000   1.0000   1.0000   1.0000   1.0000
     1.0000   1.0000   1.0000   1.0000   1.0000   1.0000   1.0000   1.0000
     1.0000   1.0000   1.0000   1.0000   1.0000   1.0000   1.0000   1.0000
     1.0000   1.0000   1.0000   1.0000   1.0000   1.0000   1.0000   1.0000
     1.0000   1.0000   1.0000   1.0000   1.0000   1.0000   1.0000   1.0000
     1.0000   1.0000   1.0000   1.0000   1.0000   1.0000   1.0000   1.0000
     1.0000   1.0000   1.0000   1.0000   1.0000   1.0000   1.0000   1.0000
     1.0000   1.0000   1.0000   1.0000   1.0000   1.0000   1.0000   1.0000
     1.0000   1.0000   1.0000   1.0000   1.0000   1.0000   1.0000   1.0000
     1.0000   1.0000   1.0000

          k = 0.2000 0.1155 0.0000 (112171 PWs)   bands (ev):

   -73.8177 -73.8148 -73.8115 -73.8090 -73.8069 -73.8058 -73.8036 -73.8015
   -73.7966 -73.7949 -73.7919 -73.7900 -73.7881 -73.7553 -73.7505 -73.7411
   -38.2204 -38.2164 -38.2127 -38.1706 -38.1670 -38.1637 -38.1587 -38.1475
   -38.1408 -38.1042 -38.0810 -38.0773 -38.0523 -38.0499 -38.0461 -38.0354
   -38.0292 -38.0273 -38.0262 -38.0244 -38.0180 -38.0160 -38.0151 -38.0135
   -38.0054 -38.0008 -37.9986 -37.9971 -37.9945 -37.9924 -37.9903 -37.9874
   -37.9864 -37.9832 -37.9698 -37.9626 -37.9615 -37.9553 -37.9527 -37.9474
   -37.9337 -37.9250 -37.9212 -37.9135 -37.9087 -37.9015 -37.8773 -37.8709
   -21.5278 -15.4153 -14.5583 -13.9776 -13.8030 -13.7900 -13.4798 -13.4776
   -13.3258 -12.9690 -12.7937 -12.7601 -12.6929 -12.6847 -12.6591 -12.5887
   -12.5677 -12.5214 -12.4970 -12.4821 -12.4709 -12.4361 -12.4225 -12.3049
   -12.2958 -12.2661 -12.2487 -12.2099 -12.1937 -12.1740 -12.1722 -12.1494
   -12.0935 -12.0847  -7.9192  -7.5322  -6.2819  -6.2686  -6.2492  -6.2362
    -6.1885  -5.6746  -5.6449  -5.6246  -5.5524  -5.5379  -5.4914  -5.4734
    -5.4463  -5.4257  -5.3729  -5.3295  -5.3159  -5.2849  -5.2773  -5.0796
    -5.0725  -5.0155  -5.0052  -4.9479  -4.7431  -4.7379  -4.5711  -4.5132
    -4.4496  -4.3961  -4.3413  -4.2760  -4.2094  -4.1646  -4.1514  -4.1249
    -4.1014  -4.0582  -4.0421  -4.0053  -3.9841  -3.9147  -3.9116  -3.9012
    -3.6683  -3.5727  -3.5548  -3.5127  -3.4706  -3.4595  -3.4435  -3.3862
    -3.3744  -3.3151  -3.3042  -3.2849  -3.2630  -3.2154  -3.1988  -3.1495
    -3.1124  -3.0047  -2.9628  -2.9150  -2.8332  -2.8118  -2.7868  -2.7549
    -2.7405  -2.7149  -2.7013  -2.6947  -2.6710  -2.6417  -2.6020  -2.5524
    -2.5368  -2.5037  -2.4780  -2.4336  -2.3696  -2.3093  -2.2059  -2.1840
    -2.1264  -2.0938  -2.0216  -2.0031  -1.9750  -1.9715  -1.9334  -1.9110
    -1.9030  -1.8804  -1.8410  -1.8285  -1.8104  -1.7840  -1.7474  -1.7392
    -1.7137  -1.6956  -1.6832  -1.6609  -1.6426  -1.6289  -1.5929  -1.5471
    -1.5352  -1.5071  -1.4620  -1.4480  -1.4271  -1.4069  -1.3589  -1.3136
    -1.3075  -1.2992  -1.2534  -1.2138  -1.1729  -1.0693  -1.0490  -1.0320
    -0.9014  -0.7683  -0.7599  -0.7574  -0.5997  -0.5642  -0.5502  -0.5348
    -0.5231  -0.5174  -0.4126  -0.3859  -0.3574  -0.2678  -0.1705  -0.1514
     0.1749   1.2760   1.5468

     occupation numbers 
     1.0000   1.0000   1.0000   1.0000   1.0000   1.0000   1.0000   1.0000
     1.0000   1.0000   1.0000   1.0000   1.0000   1.0000   1.0000   1.0000
     1.0000   1.0000   1.0000   1.0000   1.0000   1.0000   1.0000   1.0000
     1.0000   1.0000   1.0000   1.0000   1.0000   1.0000   1.0000   1.0000
     1.0000   1.0000   1.0000   1.0000   1.0000   1.0000   1.0000   1.0000
     1.0000   1.0000   1.0000   1.0000   1.0000   1.0000   1.0000   1.0000
     1.0000   1.0000   1.0000   1.0000   1.0000   1.0000   1.0000   1.0000
     1.0000   1.0000   1.0000   1.0000   1.0000   1.0000   1.0000   1.0000
     1.0000   1.0000   1.0000   1.0000   1.0000   1.0000   1.0000   1.0000
     1.0000   1.0000   1.0000   1.0000   1.0000   1.0000   1.0000   1.0000
     1.0000   1.0000   1.0000   1.0000   1.0000   1.0000   1.0000   1.0000
     1.0000   1.0000   1.0000   1.0000   1.0000   1.0000   1.0000   1.0000
     1.0000   1.0000   1.0000   1.0000   1.0000   1.0000   1.0000   1.0000
     1.0000   1.0000   1.0000   1.0000   1.0000   1.0000   1.0000   1.0000
     1.0000   1.0000   1.0000   1.0000   1.0000   1.0000   1.0000   1.0000
     1.0000   1.0000   1.0000   1.0000   1.0000   1.0000   1.0000   1.0000
     1.0000   1.0000   1.0000   1.0000   1.0000   1.0000   1.0000   1.0000
     1.0000   1.0000   1.0000   1.0000   1.0000   1.0000   1.0000   1.0000
     1.0000   1.0000   1.0000   1.0000   1.0000   1.0000   1.0000   1.0000
     1.0000   1.0000   1.0000   1.0000   1.0000   1.0000   1.0000   1.0000
     1.0000   1.0000   1.0000   1.0000   1.0000   1.0000   1.0000   1.0000
     1.0000   1.0000   1.0000   1.0000   1.0000   1.0000   1.0000   1.0000
     1.0000   1.0000   1.0000   1.0000   1.0000   1.0000   1.0000   1.0000
     1.0000   1.0000   1.0000   1.0000   1.0000   1.0000   1.0000   1.0000
     1.0000   1.0000   1.0000   1.0000   1.0000   1.0000   1.0000   1.0000
     1.0000   1.0000   1.0000   1.0000   1.0000   1.0000   1.0000   1.0000
     1.0000   1.0000   1.0000   1.0000   1.0000   1.0000   1.0000   1.0000
     1.0000   1.0000   1.0000   1.0000   1.0000   1.0000   1.0000   1.0000
     1.0000   1.0000   1.0000   1.0000   1.0000   1.0000   1.0000   1.0000
     1.0000   1.0000   1.0000   1.0000   1.0000   1.0000   1.0000   1.0000
     1.0000   1.0000   1.0000

          k =-0.4000 0.2309 0.0000 (112236 PWs)   bands (ev):

   -73.8175 -73.8148 -73.8115 -73.8098 -73.8066 -73.8052 -73.8038 -73.8014
   -73.7967 -73.7950 -73.7919 -73.7899 -73.7881 -73.7554 -73.7505 -73.7411
   -38.2086 -38.2028 -38.1914 -38.1851 -38.1840 -38.1652 -38.1621 -38.1481
   -38.1313 -38.1249 -38.1068 -38.1020 -38.0641 -38.0589 -38.0481 -38.0409
   -38.0302 -38.0257 -38.0155 -38.0132 -38.0104 -38.0092 -38.0052 -38.0007
   -37.9995 -37.9984 -37.9963 -37.9936 -37.9886 -37.9869 -37.9833 -37.9804
   -37.9762 -37.9704 -37.9670 -37.9663 -37.9543 -37.9523 -37.9504 -37.9478
   -37.9456 -37.9393 -37.9308 -37.9181 -37.9101 -37.8931 -37.8915 -37.8771
   -21.5278 -15.4153 -14.4371 -14.2340 -13.8710 -13.8591 -13.2509 -13.2452
   -13.0263 -12.9990 -12.9765 -12.9121 -12.8338 -12.7345 -12.7051 -12.6863
   -12.5378 -12.5106 -12.4630 -12.4542 -12.4318 -12.4244 -12.3877 -12.3646
   -12.3542 -12.2833 -12.2234 -12.2014 -12.1770 -12.1626 -12.1560 -12.1534
   -12.0574 -12.0413  -7.9192  -7.5322  -6.2008  -6.1356  -6.1172  -6.0910
    -6.0243  -5.8781  -5.8577  -5.8411  -5.7131  -5.5358  -5.5127  -5.4915
    -5.4558  -5.4482  -5.4390  -5.3905  -5.3811  -5.3188  -5.3114  -5.0839
    -5.0596  -5.0253  -5.0071  -4.8063  -4.6111  -4.5585  -4.4838  -4.4438
    -4.4155  -4.3751  -4.3539  -4.3130  -4.2481  -4.2242  -4.1972  -4.1634
    -4.1239  -4.1157  -4.1033  -4.0765  -4.0703  -4.0557  -4.0444  -3.6974
    -3.5749  -3.5271  -3.4808  -3.4615  -3.4279  -3.4010  -3.3607  -3.3208
    -3.3069  -3.2828  -3.2623  -3.2441  -3.2171  -3.2015  -3.1528  -3.1178
    -3.0754  -3.0508  -3.0167  -2.9756  -2.9407  -2.9088  -2.8434  -2.7840
    -2.7466  -2.7178  -2.6699  -2.6366  -2.6182  -2.5905  -2.5605  -2.5021
    -2.4352  -2.4290  -2.4029  -2.3397  -2.2879  -2.2567  -2.2473  -2.1803
    -2.1303  -2.1209  -2.0626  -2.0343  -2.0208  -1.9968  -1.9672  -1.9391
    -1.9204  -1.9034  -1.8928  -1.8724  -1.8675  -1.8546  -1.8410  -1.8268
    -1.7928  -1.7638  -1.7205  -1.7014  -1.6970  -1.6750  -1.6554  -1.6171
    -1.5949  -1.5661  -1.5082  -1.4807  -1.4546  -1.3622  -1.3355  -1.3044
    -1.2686  -1.2243  -1.1760  -1.1313  -1.1245  -1.1064  -1.0804  -0.9930
    -0.9744  -0.8819  -0.7380  -0.7224  -0.6434  -0.6262  -0.5129  -0.4582
    -0.4523  -0.4271  -0.4062  -0.3794  -0.3065  -0.1035  -0.0013   0.0290
     0.1203   1.3275   1.5523

     occupation numbers 
     1.0000   1.0000   1.0000   1.0000   1.0000   1.0000   1.0000   1.0000
     1.0000   1.0000   1.0000   1.0000   1.0000   1.0000   1.0000   1.0000
     1.0000   1.0000   1.0000   1.0000   1.0000   1.0000   1.0000   1.0000
     1.0000   1.0000   1.0000   1.0000   1.0000   1.0000   1.0000   1.0000
     1.0000   1.0000   1.0000   1.0000   1.0000   1.0000   1.0000   1.0000
     1.0000   1.0000   1.0000   1.0000   1.0000   1.0000   1.0000   1.0000
     1.0000   1.0000   1.0000   1.0000   1.0000   1.0000   1.0000   1.0000
     1.0000   1.0000   1.0000   1.0000   1.0000   1.0000   1.0000   1.0000
     1.0000   1.0000   1.0000   1.0000   1.0000   1.0000   1.0000   1.0000
     1.0000   1.0000   1.0000   1.0000   1.0000   1.0000   1.0000   1.0000
     1.0000   1.0000   1.0000   1.0000   1.0000   1.0000   1.0000   1.0000
     1.0000   1.0000   1.0000   1.0000   1.0000   1.0000   1.0000   1.0000
     1.0000   1.0000   1.0000   1.0000   1.0000   1.0000   1.0000   1.0000
     1.0000   1.0000   1.0000   1.0000   1.0000   1.0000   1.0000   1.0000
     1.0000   1.0000   1.0000   1.0000   1.0000   1.0000   1.0000   1.0000
     1.0000   1.0000   1.0000   1.0000   1.0000   1.0000   1.0000   1.0000
     1.0000   1.0000   1.0000   1.0000   1.0000   1.0000   1.0000   1.0000
     1.0000   1.0000   1.0000   1.0000   1.0000   1.0000   1.0000   1.0000
     1.0000   1.0000   1.0000   1.0000   1.0000   1.0000   1.0000   1.0000
     1.0000   1.0000   1.0000   1.0000   1.0000   1.0000   1.0000   1.0000
     1.0000   1.0000   1.0000   1.0000   1.0000   1.0000   1.0000   1.0000
     1.0000   1.0000   1.0000   1.0000   1.0000   1.0000   1.0000   1.0000
     1.0000   1.0000   1.0000   1.0000   1.0000   1.0000   1.0000   1.0000
     1.0000   1.0000   1.0000   1.0000   1.0000   1.0000   1.0000   1.0000
     1.0000   1.0000   1.0000   1.0000   1.0000   1.0000   1.0000   1.0000
     1.0000   1.0000   1.0000   1.0000   1.0000   1.0000   1.0000   1.0000
     1.0000   1.0000   1.0000   1.0000   1.0000   1.0000   1.0000   1.0000
     1.0000   1.0000   1.0000   1.0000   1.0000   1.0000   1.0000   1.0000
     1.0000   1.0000   1.0000   1.0000   1.0000   1.0000   1.0000   1.0000
     1.0000   1.0000   1.0000   1.0000   1.0000   1.0000   1.0000   1.0000
     1.0000   1.0000   1.0000

          k = 0.4000 0.2309 0.0000 (112236 PWs)   bands (ev):

   -73.8173 -73.8154 -73.8115 -73.8091 -73.8068 -73.8055 -73.8038 -73.8015
   -73.7964 -73.7952 -73.7917 -73.7902 -73.7880 -73.7554 -73.7505 -73.7411
   -38.2070 -38.2049 -38.1911 -38.1878 -38.1814 -38.1642 -38.1625 -38.1479
   -38.1309 -38.1254 -38.1075 -38.1023 -38.0636 -38.0600 -38.0479 -38.0411
   -38.0293 -38.0257 -38.0147 -38.0123 -38.0116 -38.0104 -38.0052 -38.0010
   -37.9988 -37.9975 -37.9958 -37.9925 -37.9905 -37.9870 -37.9830 -37.9803
   -37.9776 -37.9703 -37.9677 -37.9651 -37.9537 -37.9513 -37.9508 -37.9475
   -37.9456 -37.9383 -37.9309 -37.9189 -37.9105 -37.8950 -37.8926 -37.8748
   -21.5278 -15.4153 -14.4370 -14.2343 -13.8703 -13.8597 -13.2507 -13.2463
   -13.0230 -12.9989 -12.9785 -12.9113 -12.8346 -12.7322 -12.7070 -12.6871
   -12.5447 -12.5034 -12.4672 -12.4518 -12.4307 -12.4246 -12.3881 -12.3632
   -12.3517 -12.2832 -12.2301 -12.1993 -12.1790 -12.1616 -12.1564 -12.1508
   -12.0544 -12.0438  -7.9192  -7.5322  -6.2007  -6.1278  -6.1171  -6.0908
    -6.0381  -5.8708  -5.8574  -5.8377  -5.7180  -5.5370  -5.5112  -5.4944
    -5.4504  -5.4497  -5.4416  -5.3900  -5.3845  -5.3166  -5.3105  -5.0752
    -5.0712  -5.0235  -5.0118  -4.7785  -4.6244  -4.5627  -4.4922  -4.4541
    -4.4216  -4.3741  -4.3520  -4.3069  -4.2424  -4.2285  -4.1931  -4.1608
    -4.1274  -4.1171  -4.1045  -4.0784  -4.0653  -4.0533  -4.0450  -3.6853
    -3.5668  -3.5281  -3.4713  -3.4540  -3.4338  -3.4049  -3.3633  -3.3307
    -3.2944  -3.2884  -3.2574  -3.2429  -3.2217  -3.2076  -3.1421  -3.1209
    -3.0935  -3.0593  -3.0231  -2.9738  -2.9429  -2.9083  -2.8550  -2.7844
    -2.7504  -2.6942  -2.6603  -2.6368  -2.6238  -2.6082  -2.5249  -2.5088
    -2.4649  -2.4343  -2.3791  -2.3378  -2.2801  -2.2623  -2.2483  -2.1640
    -2.1294  -2.1219  -2.0477  -2.0189  -2.0130  -1.9894  -1.9826  -1.9671
    -1.9432  -1.9079  -1.8974  -1.8717  -1.8596  -1.8499  -1.8413  -1.8260
    -1.8097  -1.7506  -1.7347  -1.7137  -1.7004  -1.6522  -1.6385  -1.6302
    -1.6015  -1.5594  -1.5155  -1.5027  -1.4282  -1.3661  -1.3171  -1.2974
    -1.2641  -1.2409  -1.1954  -1.1372  -1.1213  -1.0676  -1.0610  -1.0081
    -0.9799  -0.8931  -0.7331  -0.7287  -0.6419  -0.6325  -0.5227  -0.4618
    -0.4510  -0.4253  -0.4072  -0.3696  -0.3002  -0.1052   0.0000   0.0250
     0.1234   1.3105   1.5730

     occupation numbers 
     1.0000   1.0000   1.0000   1.0000   1.0000   1.0000   1.0000   1.0000
     1.0000   1.0000   1.0000   1.0000   1.0000   1.0000   1.0000   1.0000
     1.0000   1.0000   1.0000   1.0000   1.0000   1.0000   1.0000   1.0000
     1.0000   1.0000   1.0000   1.0000   1.0000   1.0000   1.0000   1.0000
     1.0000   1.0000   1.0000   1.0000   1.0000   1.0000   1.0000   1.0000
     1.0000   1.0000   1.0000   1.0000   1.0000   1.0000   1.0000   1.0000
     1.0000   1.0000   1.0000   1.0000   1.0000   1.0000   1.0000   1.0000
     1.0000   1.0000   1.0000   1.0000   1.0000   1.0000   1.0000   1.0000
     1.0000   1.0000   1.0000   1.0000   1.0000   1.0000   1.0000   1.0000
     1.0000   1.0000   1.0000   1.0000   1.0000   1.0000   1.0000   1.0000
     1.0000   1.0000   1.0000   1.0000   1.0000   1.0000   1.0000   1.0000
     1.0000   1.0000   1.0000   1.0000   1.0000   1.0000   1.0000   1.0000
     1.0000   1.0000   1.0000   1.0000   1.0000   1.0000   1.0000   1.0000
     1.0000   1.0000   1.0000   1.0000   1.0000   1.0000   1.0000   1.0000
     1.0000   1.0000   1.0000   1.0000   1.0000   1.0000   1.0000   1.0000
     1.0000   1.0000   1.0000   1.0000   1.0000   1.0000   1.0000   1.0000
     1.0000   1.0000   1.0000   1.0000   1.0000   1.0000   1.0000   1.0000
     1.0000   1.0000   1.0000   1.0000   1.0000   1.0000   1.0000   1.0000
     1.0000   1.0000   1.0000   1.0000   1.0000   1.0000   1.0000   1.0000
     1.0000   1.0000   1.0000   1.0000   1.0000   1.0000   1.0000   1.0000
     1.0000   1.0000   1.0000   1.0000   1.0000   1.0000   1.0000   1.0000
     1.0000   1.0000   1.0000   1.0000   1.0000   1.0000   1.0000   1.0000
     1.0000   1.0000   1.0000   1.0000   1.0000   1.0000   1.0000   1.0000
     1.0000   1.0000   1.0000   1.0000   1.0000   1.0000   1.0000   1.0000
     1.0000   1.0000   1.0000   1.0000   1.0000   1.0000   1.0000   1.0000
     1.0000   1.0000   1.0000   1.0000   1.0000   1.0000   1.0000   1.0000
     1.0000   1.0000   1.0000   1.0000   1.0000   1.0000   1.0000   1.0000
     1.0000   1.0000   1.0000   1.0000   1.0000   1.0000   1.0000   1.0000
     1.0000   1.0000   1.0000   1.0000   1.0000   1.0000   1.0000   1.0000
     1.0000   1.0000   1.0000   1.0000   1.0000   1.0000   1.0000   1.0000
     1.0000   1.0000   1.0000

          k =-0.2000 0.3464 0.0000 (112231 PWs)   bands (ev):

   -73.8176 -73.8148 -73.8116 -73.8095 -73.8066 -73.8057 -73.8036 -73.8014
   -73.7969 -73.7948 -73.7919 -73.7900 -73.7881 -73.7554 -73.7505 -73.7411
   -38.2131 -38.2031 -38.2016 -38.1801 -38.1766 -38.1652 -38.1565 -38.1503
   -38.1337 -38.1264 -38.1139 -38.0779 -38.0618 -38.0564 -38.0488 -38.0381
   -38.0331 -38.0294 -38.0261 -38.0213 -38.0170 -38.0091 -38.0045 -38.0006
   -37.9972 -37.9942 -37.9922 -37.9894 -37.9873 -37.9849 -37.9831 -37.9820
   -37.9775 -37.9745 -37.9705 -37.9661 -37.9593 -37.9563 -37.9527 -37.9481
   -37.9425 -37.9333 -37.9276 -37.9225 -37.9044 -37.8995 -37.8876 -37.8741
   -21.5278 -15.4153 -14.4766 -14.1041 -14.0610 -13.5752 -13.5582 -13.1769
   -13.1203 -13.0108 -12.9365 -12.8097 -12.7926 -12.7077 -12.6738 -12.6212
   -12.5864 -12.5780 -12.5701 -12.4563 -12.4274 -12.3950 -12.3806 -12.3116
   -12.2930 -12.2752 -12.2526 -12.2278 -12.2240 -12.1578 -12.1511 -12.1096
   -12.0966 -12.0366  -7.9192  -7.5322  -6.2056  -6.1876  -6.1502  -6.1236
    -6.1047  -5.7705  -5.7395  -5.7184  -5.7011  -5.6278  -5.6038  -5.5654
    -5.5092  -5.4775  -5.3579  -5.3327  -5.3017  -5.2669  -5.2436  -5.2228
    -5.0992  -4.9156  -4.8962  -4.7983  -4.7574  -4.6107  -4.5192  -4.4498
    -4.3972  -4.3462  -4.3369  -4.3111  -4.2821  -4.2624  -4.2473  -4.2292
    -4.1659  -4.1318  -4.1128  -4.0948  -4.0556  -3.7775  -3.7419  -3.7306
    -3.7106  -3.6939  -3.6213  -3.5100  -3.4256  -3.3851  -3.3764  -3.3122
    -3.2979  -3.2454  -3.2352  -3.2059  -3.1687  -3.1492  -3.1297  -3.0857
    -3.0654  -3.0148  -2.9768  -2.9478  -2.9360  -2.9289  -2.9257  -2.9038
    -2.8005  -2.7475  -2.7251  -2.6808  -2.6331  -2.5676  -2.5343  -2.4803
    -2.4662  -2.4125  -2.3924  -2.3679  -2.3252  -2.2243  -2.2000  -2.1603
    -2.1400  -2.1256  -2.1105  -2.0861  -2.0402  -1.9929  -1.9856  -1.9462
    -1.9226  -1.9037  -1.8719  -1.8577  -1.8284  -1.8199  -1.7997  -1.7776
    -1.7499  -1.7123  -1.7075  -1.6832  -1.6577  -1.6409  -1.5914  -1.5856
    -1.5633  -1.5507  -1.5331  -1.5136  -1.4457  -1.3993  -1.3874  -1.3488
    -1.2923  -1.2509  -1.1994  -1.1755  -1.1607  -1.1251  -1.0499  -1.0087
    -0.8785  -0.8397  -0.6895  -0.6732  -0.6399  -0.6300  -0.6123  -0.5450
    -0.5382  -0.4309  -0.3876  -0.2596  -0.2083  -0.2010  -0.1632   0.0707
     0.1369   1.2902   1.5789

     occupation numbers 
     1.0000   1.0000   1.0000   1.0000   1.0000   1.0000   1.0000   1.0000
     1.0000   1.0000   1.0000   1.0000   1.0000   1.0000   1.0000   1.0000
     1.0000   1.0000   1.0000   1.0000   1.0000   1.0000   1.0000   1.0000
     1.0000   1.0000   1.0000   1.0000   1.0000   1.0000   1.0000   1.0000
     1.0000   1.0000   1.0000   1.0000   1.0000   1.0000   1.0000   1.0000
     1.0000   1.0000   1.0000   1.0000   1.0000   1.0000   1.0000   1.0000
     1.0000   1.0000   1.0000   1.0000   1.0000   1.0000   1.0000   1.0000
     1.0000   1.0000   1.0000   1.0000   1.0000   1.0000   1.0000   1.0000
     1.0000   1.0000   1.0000   1.0000   1.0000   1.0000   1.0000   1.0000
     1.0000   1.0000   1.0000   1.0000   1.0000   1.0000   1.0000   1.0000
     1.0000   1.0000   1.0000   1.0000   1.0000   1.0000   1.0000   1.0000
     1.0000   1.0000   1.0000   1.0000   1.0000   1.0000   1.0000   1.0000
     1.0000   1.0000   1.0000   1.0000   1.0000   1.0000   1.0000   1.0000
     1.0000   1.0000   1.0000   1.0000   1.0000   1.0000   1.0000   1.0000
     1.0000   1.0000   1.0000   1.0000   1.0000   1.0000   1.0000   1.0000
     1.0000   1.0000   1.0000   1.0000   1.0000   1.0000   1.0000   1.0000
     1.0000   1.0000   1.0000   1.0000   1.0000   1.0000   1.0000   1.0000
     1.0000   1.0000   1.0000   1.0000   1.0000   1.0000   1.0000   1.0000
     1.0000   1.0000   1.0000   1.0000   1.0000   1.0000   1.0000   1.0000
     1.0000   1.0000   1.0000   1.0000   1.0000   1.0000   1.0000   1.0000
     1.0000   1.0000   1.0000   1.0000   1.0000   1.0000   1.0000   1.0000
     1.0000   1.0000   1.0000   1.0000   1.0000   1.0000   1.0000   1.0000
     1.0000   1.0000   1.0000   1.0000   1.0000   1.0000   1.0000   1.0000
     1.0000   1.0000   1.0000   1.0000   1.0000   1.0000   1.0000   1.0000
     1.0000   1.0000   1.0000   1.0000   1.0000   1.0000   1.0000   1.0000
     1.0000   1.0000   1.0000   1.0000   1.0000   1.0000   1.0000   1.0000
     1.0000   1.0000   1.0000   1.0000   1.0000   1.0000   1.0000   1.0000
     1.0000   1.0000   1.0000   1.0000   1.0000   1.0000   1.0000   1.0000
     1.0000   1.0000   1.0000   1.0000   1.0000   1.0000   1.0000   1.0000
     1.0000   1.0000   1.0000   1.0000   1.0000   1.0000   1.0000   1.0000
     1.0000   1.0000   1.0000

          k = 0.4000-0.0000 0.0000 (112231 PWs)   bands (ev):

   -73.8175 -73.8150 -73.8115 -73.8094 -73.8067 -73.8054 -73.8038 -73.8015
   -73.7965 -73.7951 -73.7919 -73.7900 -73.7881 -73.7554 -73.7505 -73.7411
   -38.2132 -38.2038 -38.2005 -38.1799 -38.1768 -38.1665 -38.1570 -38.1504
   -38.1330 -38.1250 -38.1135 -38.0777 -38.0627 -38.0571 -38.0486 -38.0388
   -38.0316 -38.0297 -38.0262 -38.0228 -38.0149 -38.0102 -38.0049 -37.9995
   -37.9970 -37.9944 -37.9921 -37.9899 -37.9887 -37.9861 -37.9830 -37.9810
   -37.9761 -37.9755 -37.9703 -37.9663 -37.9592 -37.9558 -37.9525 -37.9478
   -37.9431 -37.9327 -37.9288 -37.9230 -37.9025 -37.8991 -37.8864 -37.8761
   -21.5278 -15.4153 -14.4767 -14.1006 -14.0645 -13.5696 -13.5645 -13.1719
   -13.1237 -13.0147 -12.9303 -12.8056 -12.7967 -12.7124 -12.6830 -12.6034
   -12.6005 -12.5751 -12.5621 -12.4579 -12.4246 -12.4138 -12.3658 -12.3086
   -12.2941 -12.2721 -12.2553 -12.2357 -12.2211 -12.1586 -12.1485 -12.1074
   -12.0981 -12.0370  -7.9192  -7.5322  -6.2041  -6.1828  -6.1561  -6.1207
    -6.1100  -5.7600  -5.7443  -5.7224  -5.6893  -5.6382  -5.6102  -5.5630
    -5.5072  -5.4748  -5.3534  -5.3365  -5.2943  -5.2733  -5.2460  -5.2309
    -5.0988  -4.9034  -4.8881  -4.8118  -4.7577  -4.5739  -4.5407  -4.4676
    -4.4114  -4.3484  -4.3395  -4.3149  -4.2771  -4.2660  -4.2452  -4.2123
    -4.1768  -4.1191  -4.1117  -4.0915  -4.0558  -3.7665  -3.7366  -3.7293
    -3.7099  -3.7005  -3.6325  -3.4889  -3.4329  -3.4048  -3.3744  -3.3298
    -3.2913  -3.2484  -3.2385  -3.2046  -3.1792  -3.1468  -3.1292  -3.0844
    -3.0455  -3.0083  -2.9714  -2.9540  -2.9430  -2.9260  -2.9101  -2.9020
    -2.7919  -2.7617  -2.7250  -2.6647  -2.6360  -2.5870  -2.5509  -2.4741
    -2.4698  -2.4230  -2.3902  -2.3491  -2.3232  -2.2295  -2.1828  -2.1648
    -2.1342  -2.1264  -2.1101  -2.1038  -2.0156  -1.9970  -1.9787  -1.9530
    -1.9291  -1.9032  -1.8852  -1.8671  -1.8551  -1.8237  -1.7946  -1.7720
    -1.7354  -1.7164  -1.6965  -1.6770  -1.6632  -1.6316  -1.5974  -1.5747
    -1.5589  -1.5493  -1.5349  -1.5087  -1.4521  -1.4149  -1.3720  -1.3425
    -1.2902  -1.2695  -1.2040  -1.1812  -1.1542  -1.1131  -1.0530  -1.0069
    -0.8696  -0.8516  -0.6839  -0.6765  -0.6410  -0.6248  -0.6167  -0.5433
    -0.5374  -0.4453  -0.3851  -0.2543  -0.2091  -0.1959  -0.1647   0.0680
     0.1370   1.3199   1.5479

     occupation numbers 
     1.0000   1.0000   1.0000   1.0000   1.0000   1.0000   1.0000   1.0000
     1.0000   1.0000   1.0000   1.0000   1.0000   1.0000   1.0000   1.0000
     1.0000   1.0000   1.0000   1.0000   1.0000   1.0000   1.0000   1.0000
     1.0000   1.0000   1.0000   1.0000   1.0000   1.0000   1.0000   1.0000
     1.0000   1.0000   1.0000   1.0000   1.0000   1.0000   1.0000   1.0000
     1.0000   1.0000   1.0000   1.0000   1.0000   1.0000   1.0000   1.0000
     1.0000   1.0000   1.0000   1.0000   1.0000   1.0000   1.0000   1.0000
     1.0000   1.0000   1.0000   1.0000   1.0000   1.0000   1.0000   1.0000
     1.0000   1.0000   1.0000   1.0000   1.0000   1.0000   1.0000   1.0000
     1.0000   1.0000   1.0000   1.0000   1.0000   1.0000   1.0000   1.0000
     1.0000   1.0000   1.0000   1.0000   1.0000   1.0000   1.0000   1.0000
     1.0000   1.0000   1.0000   1.0000   1.0000   1.0000   1.0000   1.0000
     1.0000   1.0000   1.0000   1.0000   1.0000   1.0000   1.0000   1.0000
     1.0000   1.0000   1.0000   1.0000   1.0000   1.0000   1.0000   1.0000
     1.0000   1.0000   1.0000   1.0000   1.0000   1.0000   1.0000   1.0000
     1.0000   1.0000   1.0000   1.0000   1.0000   1.0000   1.0000   1.0000
     1.0000   1.0000   1.0000   1.0000   1.0000   1.0000   1.0000   1.0000
     1.0000   1.0000   1.0000   1.0000   1.0000   1.0000   1.0000   1.0000
     1.0000   1.0000   1.0000   1.0000   1.0000   1.0000   1.0000   1.0000
     1.0000   1.0000   1.0000   1.0000   1.0000   1.0000   1.0000   1.0000
     1.0000   1.0000   1.0000   1.0000   1.0000   1.0000   1.0000   1.0000
     1.0000   1.0000   1.0000   1.0000   1.0000   1.0000   1.0000   1.0000
     1.0000   1.0000   1.0000   1.0000   1.0000   1.0000   1.0000   1.0000
     1.0000   1.0000   1.0000   1.0000   1.0000   1.0000   1.0000   1.0000
     1.0000   1.0000   1.0000   1.0000   1.0000   1.0000   1.0000   1.0000
     1.0000   1.0000   1.0000   1.0000   1.0000   1.0000   1.0000   1.0000
     1.0000   1.0000   1.0000   1.0000   1.0000   1.0000   1.0000   1.0000
     1.0000   1.0000   1.0000   1.0000   1.0000   1.0000   1.0000   1.0000
     1.0000   1.0000   1.0000   1.0000   1.0000   1.0000   1.0000   1.0000
     1.0000   1.0000   1.0000   1.0000   1.0000   1.0000   1.0000   1.0000
     1.0000   1.0000   1.0000

          k =-0.4000 0.4619 0.0000 (112237 PWs)   bands (ev):

   -73.8174 -73.8151 -73.8116 -73.8097 -73.8066 -73.8052 -73.8038 -73.8014
   -73.7967 -73.7950 -73.7918 -73.7900 -73.7881 -73.7554 -73.7505 -73.7411
   -38.2028 -38.1960 -38.1865 -38.1832 -38.1806 -38.1743 -38.1668 -38.1500
   -38.1472 -38.1336 -38.0953 -38.0910 -38.0859 -38.0530 -38.0457 -38.0421
   -38.0340 -38.0321 -38.0219 -38.0138 -38.0091 -38.0061 -38.0045 -38.0011
   -38.0000 -37.9972 -37.9944 -37.9890 -37.9868 -37.9831 -37.9757 -37.9725
   -37.9705 -37.9689 -37.9621 -37.9586 -37.9555 -37.9538 -37.9508 -37.9486
   -37.9465 -37.9391 -37.9348 -37.9278 -37.9157 -37.8969 -37.8863 -37.8805
   -21.5278 -15.4153 -14.3403 -14.2903 -14.1168 -13.5977 -13.2995 -13.2959
   -12.9627 -12.9506 -12.8878 -12.8578 -12.8287 -12.8022 -12.7974 -12.6668
   -12.6354 -12.5972 -12.4952 -12.4847 -12.3890 -12.3766 -12.3492 -12.3271
   -12.3105 -12.2983 -12.2621 -12.2358 -12.2305 -12.1350 -12.1210 -12.1160
   -12.0809 -12.0174  -7.9192  -7.5322  -6.1988  -6.0619  -6.0263  -5.9707
    -5.9163  -5.8916  -5.8786  -5.8608  -5.8092  -5.7459  -5.6905  -5.6271
    -5.6115  -5.5424  -5.3590  -5.2878  -5.2489  -5.2180  -5.2030  -5.1699
    -5.1589  -4.8558  -4.8340  -4.7472  -4.6216  -4.5914  -4.5458  -4.5265
    -4.4927  -4.4280  -4.3858  -4.3272  -4.3096  -4.2434  -4.2284  -4.2103
    -4.1948  -4.1652  -4.1214  -4.0956  -3.9584  -3.9483  -3.7946  -3.6739
    -3.6321  -3.5912  -3.4361  -3.3997  -3.3654  -3.3276  -3.3109  -3.2833
    -3.2802  -3.2687  -3.2436  -3.2332  -3.2215  -3.2153  -3.1511  -3.1225
    -3.0985  -3.0868  -3.0604  -3.0484  -2.9991  -2.9552  -2.8526  -2.8176
    -2.7463  -2.7323  -2.7142  -2.6846  -2.6333  -2.6006  -2.5133  -2.4220
    -2.4019  -2.3324  -2.3245  -2.3194  -2.2695  -2.2004  -2.1760  -2.1622
    -2.1484  -2.0916  -2.0814  -2.0534  -2.0301  -1.9807  -1.9702  -1.9503
    -1.9338  -1.9199  -1.8963  -1.8851  -1.8702  -1.8565  -1.8462  -1.8436
    -1.8203  -1.7966  -1.7603  -1.7289  -1.7071  -1.6959  -1.6747  -1.6555
    -1.6279  -1.5867  -1.5379  -1.5072  -1.4857  -1.4631  -1.4225  -1.3192
    -1.2863  -1.2383  -1.1721  -1.1179  -1.0956  -1.0791  -1.0467  -0.9760
    -0.8156  -0.7895  -0.7038  -0.6930  -0.6593  -0.6478  -0.6013  -0.5852
    -0.5688  -0.4161  -0.2822  -0.2760  -0.1806  -0.1207  -0.0787   0.0888
     0.1857   1.3283   1.5651

     occupation numbers 
     1.0000   1.0000   1.0000   1.0000   1.0000   1.0000   1.0000   1.0000
     1.0000   1.0000   1.0000   1.0000   1.0000   1.0000   1.0000   1.0000
     1.0000   1.0000   1.0000   1.0000   1.0000   1.0000   1.0000   1.0000
     1.0000   1.0000   1.0000   1.0000   1.0000   1.0000   1.0000   1.0000
     1.0000   1.0000   1.0000   1.0000   1.0000   1.0000   1.0000   1.0000
     1.0000   1.0000   1.0000   1.0000   1.0000   1.0000   1.0000   1.0000
     1.0000   1.0000   1.0000   1.0000   1.0000   1.0000   1.0000   1.0000
     1.0000   1.0000   1.0000   1.0000   1.0000   1.0000   1.0000   1.0000
     1.0000   1.0000   1.0000   1.0000   1.0000   1.0000   1.0000   1.0000
     1.0000   1.0000   1.0000   1.0000   1.0000   1.0000   1.0000   1.0000
     1.0000   1.0000   1.0000   1.0000   1.0000   1.0000   1.0000   1.0000
     1.0000   1.0000   1.0000   1.0000   1.0000   1.0000   1.0000   1.0000
     1.0000   1.0000   1.0000   1.0000   1.0000   1.0000   1.0000   1.0000
     1.0000   1.0000   1.0000   1.0000   1.0000   1.0000   1.0000   1.0000
     1.0000   1.0000   1.0000   1.0000   1.0000   1.0000   1.0000   1.0000
     1.0000   1.0000   1.0000   1.0000   1.0000   1.0000   1.0000   1.0000
     1.0000   1.0000   1.0000   1.0000   1.0000   1.0000   1.0000   1.0000
     1.0000   1.0000   1.0000   1.0000   1.0000   1.0000   1.0000   1.0000
     1.0000   1.0000   1.0000   1.0000   1.0000   1.0000   1.0000   1.0000
     1.0000   1.0000   1.0000   1.0000   1.0000   1.0000   1.0000   1.0000
     1.0000   1.0000   1.0000   1.0000   1.0000   1.0000   1.0000   1.0000
     1.0000   1.0000   1.0000   1.0000   1.0000   1.0000   1.0000   1.0000
     1.0000   1.0000   1.0000   1.0000   1.0000   1.0000   1.0000   1.0000
     1.0000   1.0000   1.0000   1.0000   1.0000   1.0000   1.0000   1.0000
     1.0000   1.0000   1.0000   1.0000   1.0000   1.0000   1.0000   1.0000
     1.0000   1.0000   1.0000   1.0000   1.0000   1.0000   1.0000   1.0000
     1.0000   1.0000   1.0000   1.0000   1.0000   1.0000   1.0000   1.0000
     1.0000   1.0000   1.0000   1.0000   1.0000   1.0000   1.0000   1.0000
     1.0000   1.0000   1.0000   1.0000   1.0000   1.0000   1.0000   1.0000
     1.0000   1.0000   1.0000   1.0000   1.0000   1.0000   1.0000   1.0000
     1.0000   1.0000   1.0000

          k = 0.6000 0.1155 0.0000 (112237 PWs)   bands (ev):

   -73.8172 -73.8154 -73.8115 -73.8093 -73.8066 -73.8054 -73.8038 -73.8015
   -73.7965 -73.7951 -73.7917 -73.7902 -73.7880 -73.7554 -73.7505 -73.7411
   -38.2015 -38.1976 -38.1873 -38.1847 -38.1777 -38.1742 -38.1663 -38.1497
   -38.1480 -38.1334 -38.0947 -38.0930 -38.0855 -38.0525 -38.0458 -38.0418
   -38.0341 -38.0324 -38.0216 -38.0130 -38.0099 -38.0069 -38.0039 -38.0014
   -38.0004 -37.9958 -37.9941 -37.9899 -37.9869 -37.9830 -37.9755 -37.9727
   -37.9704 -37.9696 -37.9619 -37.9586 -37.9560 -37.9541 -37.9512 -37.9485
   -37.9426 -37.9397 -37.9330 -37.9302 -37.9169 -37.8978 -37.8878 -37.8782
   -21.5278 -15.4153 -14.3397 -14.2912 -14.1166 -13.5976 -13.3068 -13.2886
   -12.9687 -12.9446 -12.8828 -12.8613 -12.8290 -12.8026 -12.7979 -12.6693
   -12.6342 -12.5954 -12.5051 -12.4746 -12.3957 -12.3733 -12.3454 -12.3224
   -12.3113 -12.3004 -12.2653 -12.2363 -12.2313 -12.1328 -12.1218 -12.1163
   -12.0802 -12.0177  -7.9192  -7.5322  -6.1988  -6.0589  -6.0212  -5.9698
    -5.9299  -5.9079  -5.8780  -5.8364  -5.8085  -5.7509  -5.6924  -5.6248
    -5.6137  -5.5390  -5.3579  -5.2841  -5.2575  -5.2268  -5.1982  -5.1738
    -5.1497  -4.8578  -4.8408  -4.6971  -4.6486  -4.6112  -4.5529  -4.5158
    -4.4957  -4.4370  -4.3862  -4.3227  -4.3035  -4.2434  -4.2327  -4.2009
    -4.1932  -4.1689  -4.1211  -4.0972  -3.9591  -3.9486  -3.7910  -3.6714
    -3.6337  -3.5820  -3.4382  -3.3778  -3.3691  -3.3369  -3.3051  -3.2886
    -3.2859  -3.2632  -3.2471  -3.2361  -3.2222  -3.2045  -3.1817  -3.1449
    -3.0888  -3.0805  -3.0547  -3.0230  -3.0088  -2.9678  -2.8506  -2.8150
    -2.7548  -2.7339  -2.7275  -2.6598  -2.6434  -2.5627  -2.5227  -2.4699
    -2.3969  -2.3374  -2.3173  -2.2985  -2.2483  -2.2166  -2.1758  -2.1528
    -2.1313  -2.1065  -2.0786  -2.0499  -2.0213  -1.9860  -1.9701  -1.9608
    -1.9396  -1.9145  -1.9047  -1.8836  -1.8743  -1.8637  -1.8549  -1.8462
    -1.8129  -1.8003  -1.7503  -1.7356  -1.7095  -1.6952  -1.6676  -1.6457
    -1.6284  -1.6070  -1.5403  -1.5232  -1.4780  -1.4359  -1.4080  -1.3312
    -1.2953  -1.2322  -1.1622  -1.1411  -1.0976  -1.0599  -1.0251  -0.9953
    -0.8119  -0.7960  -0.6993  -0.6976  -0.6604  -0.6539  -0.6020  -0.5967
    -0.5543  -0.4176  -0.2842  -0.2691  -0.1781  -0.1257  -0.0780   0.0896
     0.1860   1.3181   1.5775

     occupation numbers 
     1.0000   1.0000   1.0000   1.0000   1.0000   1.0000   1.0000   1.0000
     1.0000   1.0000   1.0000   1.0000   1.0000   1.0000   1.0000   1.0000
     1.0000   1.0000   1.0000   1.0000   1.0000   1.0000   1.0000   1.0000
     1.0000   1.0000   1.0000   1.0000   1.0000   1.0000   1.0000   1.0000
     1.0000   1.0000   1.0000   1.0000   1.0000   1.0000   1.0000   1.0000
     1.0000   1.0000   1.0000   1.0000   1.0000   1.0000   1.0000   1.0000
     1.0000   1.0000   1.0000   1.0000   1.0000   1.0000   1.0000   1.0000
     1.0000   1.0000   1.0000   1.0000   1.0000   1.0000   1.0000   1.0000
     1.0000   1.0000   1.0000   1.0000   1.0000   1.0000   1.0000   1.0000
     1.0000   1.0000   1.0000   1.0000   1.0000   1.0000   1.0000   1.0000
     1.0000   1.0000   1.0000   1.0000   1.0000   1.0000   1.0000   1.0000
     1.0000   1.0000   1.0000   1.0000   1.0000   1.0000   1.0000   1.0000
     1.0000   1.0000   1.0000   1.0000   1.0000   1.0000   1.0000   1.0000
     1.0000   1.0000   1.0000   1.0000   1.0000   1.0000   1.0000   1.0000
     1.0000   1.0000   1.0000   1.0000   1.0000   1.0000   1.0000   1.0000
     1.0000   1.0000   1.0000   1.0000   1.0000   1.0000   1.0000   1.0000
     1.0000   1.0000   1.0000   1.0000   1.0000   1.0000   1.0000   1.0000
     1.0000   1.0000   1.0000   1.0000   1.0000   1.0000   1.0000   1.0000
     1.0000   1.0000   1.0000   1.0000   1.0000   1.0000   1.0000   1.0000
     1.0000   1.0000   1.0000   1.0000   1.0000   1.0000   1.0000   1.0000
     1.0000   1.0000   1.0000   1.0000   1.0000   1.0000   1.0000   1.0000
     1.0000   1.0000   1.0000   1.0000   1.0000   1.0000   1.0000   1.0000
     1.0000   1.0000   1.0000   1.0000   1.0000   1.0000   1.0000   1.0000
     1.0000   1.0000   1.0000   1.0000   1.0000   1.0000   1.0000   1.0000
     1.0000   1.0000   1.0000   1.0000   1.0000   1.0000   1.0000   1.0000
     1.0000   1.0000   1.0000   1.0000   1.0000   1.0000   1.0000   1.0000
     1.0000   1.0000   1.0000   1.0000   1.0000   1.0000   1.0000   1.0000
     1.0000   1.0000   1.0000   1.0000   1.0000   1.0000   1.0000   1.0000
     1.0000   1.0000   1.0000   1.0000   1.0000   1.0000   1.0000   1.0000
     1.0000   1.0000   1.0000   1.0000   1.0000   1.0000   1.0000   1.0000
     1.0000   1.0000   1.0000

 ------ SPIN DOWN ----------


          k = 0.0000 0.0000 0.0000 (112117 PWs)   bands (ev):

   -73.8146 -73.8101 -73.8071 -73.8053 -73.8030 -73.8023 -73.7990 -73.7967
   -73.7945 -73.7895 -73.7885 -73.7870 -73.7829 -73.7419 -73.7323 -73.7294
   -38.2167 -38.2155 -38.2135 -38.1575 -38.1568 -38.1527 -38.1480 -38.1469
   -38.1355 -38.0564 -38.0513 -38.0487 -38.0482 -38.0421 -38.0391 -38.0379
   -38.0251 -38.0231 -38.0213 -38.0200 -38.0174 -38.0172 -38.0158 -38.0128
   -38.0097 -38.0064 -38.0050 -38.0000 -37.9931 -37.9897 -37.9872 -37.9857
   -37.9842 -37.9771 -37.9530 -37.9521 -37.9492 -37.9454 -37.9361 -37.9256
   -37.9196 -37.9086 -37.9064 -37.9048 -37.9024 -37.8917 -37.8592 -37.8572
   -21.5264 -15.4141 -14.5954 -13.7066 -13.6920 -13.6720 -13.6432 -13.6292
   -13.6200 -12.9800 -12.7058 -12.6753 -12.6511 -12.6366 -12.6014 -12.5807
   -12.5332 -12.5045 -12.4685 -12.4557 -12.4441 -12.4424 -12.4213 -12.4197
   -12.4160 -12.2211 -12.1988 -12.1890 -12.1724 -12.1567 -12.1528 -12.1485
   -12.1465 -12.1441  -7.9172  -7.5304  -6.3366  -6.3234  -6.3058  -6.2766
    -6.1899  -5.6007  -5.5692  -5.5452  -5.5294  -5.5252  -5.4927  -5.4385
    -5.4057  -5.3870  -5.3117  -5.2804  -5.2604  -5.0996  -5.0906  -5.0625
    -5.0579  -5.0538  -5.0531  -4.9971  -4.9965  -4.9880  -4.5121  -4.4328
    -4.3931  -4.3437  -4.2900  -4.2810  -4.2650  -4.2438  -4.2304  -4.1768
    -4.0778  -4.0070  -3.9760  -3.9609  -3.9346  -3.7890  -3.7564  -3.7526
    -3.6988  -3.6767  -3.6737  -3.6033  -3.5087  -3.4690  -3.4036  -3.3998
    -3.3723  -3.3655  -3.2775  -3.2199  -3.1937  -3.1799  -3.1581  -3.1403
    -3.1274  -3.1226  -3.1082  -3.1058  -3.0406  -2.9258  -2.7927  -2.7490
    -2.6885  -2.6673  -2.6208  -2.5863  -2.5734  -2.5025  -2.4920  -2.4634
    -2.4584  -2.4311  -2.4284  -2.4234  -2.3903  -2.3304  -2.2736  -2.1874
    -2.1163  -2.0543  -1.9651  -1.9603  -1.9303  -1.9171  -1.8658  -1.8237
    -1.7998  -1.7760  -1.7643  -1.7624  -1.7500  -1.7477  -1.7416  -1.7376
    -1.7327  -1.6999  -1.6916  -1.6564  -1.6470  -1.6348  -1.6321  -1.5989
    -1.5733  -1.5265  -1.5162  -1.4892  -1.4485  -1.4094  -1.3700  -1.3525
    -1.2905  -1.2624  -1.1835  -1.0884  -1.0353  -1.0267  -1.0100  -0.9907
    -0.7225  -0.6876  -0.6835  -0.6832  -0.6702  -0.6655  -0.6434  -0.6369
    -0.6206  -0.3931  -0.3818  -0.3718  -0.3566  -0.3399  -0.3305  -0.2947
     0.2177   1.3011   1.6755

     occupation numbers 
     1.0000   1.0000   1.0000   1.0000   1.0000   1.0000   1.0000   1.0000
     1.0000   1.0000   1.0000   1.0000   1.0000   1.0000   1.0000   1.0000
     1.0000   1.0000   1.0000   1.0000   1.0000   1.0000   1.0000   1.0000
     1.0000   1.0000   1.0000   1.0000   1.0000   1.0000   1.0000   1.0000
     1.0000   1.0000   1.0000   1.0000   1.0000   1.0000   1.0000   1.0000
     1.0000   1.0000   1.0000   1.0000   1.0000   1.0000   1.0000   1.0000
     1.0000   1.0000   1.0000   1.0000   1.0000   1.0000   1.0000   1.0000
     1.0000   1.0000   1.0000   1.0000   1.0000   1.0000   1.0000   1.0000
     1.0000   1.0000   1.0000   1.0000   1.0000   1.0000   1.0000   1.0000
     1.0000   1.0000   1.0000   1.0000   1.0000   1.0000   1.0000   1.0000
     1.0000   1.0000   1.0000   1.0000   1.0000   1.0000   1.0000   1.0000
     1.0000   1.0000   1.0000   1.0000   1.0000   1.0000   1.0000   1.0000
     1.0000   1.0000   1.0000   1.0000   1.0000   1.0000   1.0000   1.0000
     1.0000   1.0000   1.0000   1.0000   1.0000   1.0000   1.0000   1.0000
     1.0000   1.0000   1.0000   1.0000   1.0000   1.0000   1.0000   1.0000
     1.0000   1.0000   1.0000   1.0000   1.0000   1.0000   1.0000   1.0000
     1.0000   1.0000   1.0000   1.0000   1.0000   1.0000   1.0000   1.0000
     1.0000   1.0000   1.0000   1.0000   1.0000   1.0000   1.0000   1.0000
     1.0000   1.0000   1.0000   1.0000   1.0000   1.0000   1.0000   1.0000
     1.0000   1.0000   1.0000   1.0000   1.0000   1.0000   1.0000   1.0000
     1.0000   1.0000   1.0000   1.0000   1.0000   1.0000   1.0000   1.0000
     1.0000   1.0000   1.0000   1.0000   1.0000   1.0000   1.0000   1.0000
     1.0000   1.0000   1.0000   1.0000   1.0000   1.0000   1.0000   1.0000
     1.0000   1.0000   1.0000   1.0000   1.0000   1.0000   1.0000   1.0000
     1.0000   1.0000   1.0000   1.0000   1.0000   1.0000   1.0000   1.0000
     1.0000   1.0000   1.0000   1.0000   1.0000   1.0000   1.0000   1.0000
     1.0000   1.0000   1.0000   1.0000   1.0000   1.0000   1.0000   1.0000
     1.0000   1.0000   1.0000   1.0000   1.0000   1.0000   1.0000   1.0000
     1.0000   1.0000   1.0000   1.0000   1.0000   1.0000   1.0000   1.0000
     1.0000   1.0000   1.0000   1.0000   1.0000   1.0000   1.0000   1.0000
     1.0000   1.0000   0.0000

          k = 0.0000 0.2309 0.0000 (112171 PWs)   bands (ev):

   -73.8145 -73.8102 -73.8073 -73.8052 -73.8032 -73.8020 -73.7990 -73.7967
   -73.7946 -73.7895 -73.7885 -73.7870 -73.7829 -73.7419 -73.7323 -73.7294
   -38.2119 -38.2101 -38.2071 -38.1611 -38.1596 -38.1582 -38.1510 -38.1404
   -38.1323 -38.0971 -38.0717 -38.0704 -38.0470 -38.0431 -38.0383 -38.0275
   -38.0260 -38.0208 -38.0179 -38.0166 -38.0139 -38.0110 -38.0094 -38.0060
   -37.9999 -37.9952 -37.9947 -37.9913 -37.9887 -37.9873 -37.9845 -37.9838
   -37.9800 -37.9770 -37.9561 -37.9537 -37.9496 -37.9463 -37.9363 -37.9265
   -37.9260 -37.9152 -37.9113 -37.9033 -37.8994 -37.8902 -37.8649 -37.8599
   -21.5264 -15.4141 -14.5538 -13.9735 -13.7994 -13.7833 -13.4893 -13.4594
   -13.3225 -12.9640 -12.8007 -12.7327 -12.6936 -12.6852 -12.6533 -12.5836
   -12.5527 -12.5397 -12.4923 -12.4756 -12.4544 -12.4337 -12.4226 -12.3144
   -12.2832 -12.2609 -12.2425 -12.2132 -12.1836 -12.1731 -12.1663 -12.1514
   -12.0945 -12.0787  -7.9172  -7.5304  -6.2755  -6.2649  -6.2341  -6.2313
    -6.1859  -5.6597  -5.6402  -5.6236  -5.5536  -5.5150  -5.4865  -5.4676
    -5.4234  -5.4130  -5.3907  -5.3181  -5.3138  -5.2833  -5.2665  -5.0692
    -5.0644  -5.0136  -4.9997  -4.9516  -4.7364  -4.7317  -4.5808  -4.4737
    -4.4452  -4.3813  -4.3185  -4.2812  -4.2034  -4.1578  -4.1427  -4.1167
    -4.0965  -4.0583  -4.0402  -3.9983  -3.9821  -3.9079  -3.9054  -3.8979
    -3.6585  -3.5674  -3.5361  -3.5025  -3.4630  -3.4388  -3.4341  -3.3805
    -3.3613  -3.3103  -3.2894  -3.2756  -3.2634  -3.2036  -3.1897  -3.1466
    -3.0741  -2.9815  -2.9379  -2.9224  -2.8432  -2.7761  -2.7564  -2.7419
    -2.7160  -2.7082  -2.6928  -2.6693  -2.6430  -2.6263  -2.5831  -2.5386
    -2.4998  -2.4954  -2.4643  -2.4290  -2.3485  -2.3023  -2.1864  -2.1573
    -2.1046  -2.0614  -2.0092  -1.9937  -1.9686  -1.9491  -1.9229  -1.9009
    -1.8817  -1.8524  -1.8408  -1.8110  -1.7777  -1.7530  -1.7374  -1.7267
    -1.7164  -1.6939  -1.6780  -1.6523  -1.6366  -1.6003  -1.5788  -1.5388
    -1.5234  -1.4886  -1.4769  -1.4484  -1.4290  -1.3647  -1.3321  -1.3192
    -1.2938  -1.2725  -1.2329  -1.2149  -1.1489  -1.0624  -1.0389  -1.0061
    -0.8878  -0.7739  -0.7557  -0.7392  -0.5637  -0.5596  -0.5424  -0.5286
    -0.5155  -0.5026  -0.4029  -0.3723  -0.3566  -0.2428  -0.1659  -0.1354
     0.1997   1.3069   1.7066

     occupation numbers 
     1.0000   1.0000   1.0000   1.0000   1.0000   1.0000   1.0000   1.0000
     1.0000   1.0000   1.0000   1.0000   1.0000   1.0000   1.0000   1.0000
     1.0000   1.0000   1.0000   1.0000   1.0000   1.0000   1.0000   1.0000
     1.0000   1.0000   1.0000   1.0000   1.0000   1.0000   1.0000   1.0000
     1.0000   1.0000   1.0000   1.0000   1.0000   1.0000   1.0000   1.0000
     1.0000   1.0000   1.0000   1.0000   1.0000   1.0000   1.0000   1.0000
     1.0000   1.0000   1.0000   1.0000   1.0000   1.0000   1.0000   1.0000
     1.0000   1.0000   1.0000   1.0000   1.0000   1.0000   1.0000   1.0000
     1.0000   1.0000   1.0000   1.0000   1.0000   1.0000   1.0000   1.0000
     1.0000   1.0000   1.0000   1.0000   1.0000   1.0000   1.0000   1.0000
     1.0000   1.0000   1.0000   1.0000   1.0000   1.0000   1.0000   1.0000
     1.0000   1.0000   1.0000   1.0000   1.0000   1.0000   1.0000   1.0000
     1.0000   1.0000   1.0000   1.0000   1.0000   1.0000   1.0000   1.0000
     1.0000   1.0000   1.0000   1.0000   1.0000   1.0000   1.0000   1.0000
     1.0000   1.0000   1.0000   1.0000   1.0000   1.0000   1.0000   1.0000
     1.0000   1.0000   1.0000   1.0000   1.0000   1.0000   1.0000   1.0000
     1.0000   1.0000   1.0000   1.0000   1.0000   1.0000   1.0000   1.0000
     1.0000   1.0000   1.0000   1.0000   1.0000   1.0000   1.0000   1.0000
     1.0000   1.0000   1.0000   1.0000   1.0000   1.0000   1.0000   1.0000
     1.0000   1.0000   1.0000   1.0000   1.0000   1.0000   1.0000   1.0000
     1.0000   1.0000   1.0000   1.0000   1.0000   1.0000   1.0000   1.0000
     1.0000   1.0000   1.0000   1.0000   1.0000   1.0000   1.0000   1.0000
     1.0000   1.0000   1.0000   1.0000   1.0000   1.0000   1.0000   1.0000
     1.0000   1.0000   1.0000   1.0000   1.0000   1.0000   1.0000   1.0000
     1.0000   1.0000   1.0000   1.0000   1.0000   1.0000   1.0000   1.0000
     1.0000   1.0000   1.0000   1.0000   1.0000   1.0000   1.0000   1.0000
     1.0000   1.0000   1.0000   1.0000   1.0000   1.0000   1.0000   1.0000
     1.0000   1.0000   1.0000   1.0000   1.0000   1.0000   1.0000   1.0000
     1.0000   1.0000   1.0000   1.0000   1.0000   1.0000   1.0000   1.0000
     1.0000   1.0000   1.0000   1.0000   1.0000   1.0000   1.0000   1.0000
     1.0000   1.0000   0.0000

          k = 0.0000 0.4619 0.0000 (112236 PWs)   bands (ev):

   -73.8143 -73.8103 -73.8076 -73.8051 -73.8033 -73.8018 -73.7989 -73.7966
   -73.7947 -73.7895 -73.7885 -73.7870 -73.7829 -73.7419 -73.7323 -73.7294
   -38.2013 -38.1971 -38.1855 -38.1784 -38.1734 -38.1589 -38.1553 -38.1393
   -38.1248 -38.1176 -38.0967 -38.0940 -38.0571 -38.0508 -38.0434 -38.0338
   -38.0277 -38.0164 -38.0108 -38.0078 -38.0035 -38.0023 -37.9991 -37.9981
   -37.9953 -37.9922 -37.9918 -37.9882 -37.9846 -37.9830 -37.9770 -37.9739
   -37.9676 -37.9612 -37.9592 -37.9512 -37.9457 -37.9419 -37.9395 -37.9342
   -37.9329 -37.9229 -37.9183 -37.9098 -37.8996 -37.8848 -37.8788 -37.8633
   -21.5264 -15.4141 -14.4320 -14.2306 -13.8688 -13.8514 -13.2599 -13.2281
   -13.0155 -12.9968 -12.9680 -12.9141 -12.8307 -12.7270 -12.7027 -12.6869
   -12.5180 -12.5105 -12.4588 -12.4479 -12.4345 -12.4236 -12.3806 -12.3669
   -12.3487 -12.2826 -12.2136 -12.1999 -12.1755 -12.1574 -12.1556 -12.1513
   -12.0553 -12.0379  -7.9172  -7.5304  -6.1983  -6.1205  -6.1060  -6.0872
    -6.0215  -5.8682  -5.8562  -5.8311  -5.7086  -5.5285  -5.4959  -5.4829
    -5.4558  -5.4430  -5.4340  -5.3881  -5.3707  -5.3212  -5.2978  -5.0644
    -5.0591  -5.0263  -5.0069  -4.8033  -4.6219  -4.5171  -4.4796  -4.4355
    -4.3910  -4.3713  -4.3452  -4.3075  -4.2409  -4.2262  -4.1883  -4.1567
    -4.1259  -4.1148  -4.1002  -4.0738  -4.0637  -4.0489  -4.0388  -3.6825
    -3.5663  -3.5044  -3.4726  -3.4379  -3.4135  -3.3838  -3.3639  -3.3069
    -3.2861  -3.2767  -3.2581  -3.2335  -3.2158  -3.1835  -3.1536  -3.1033
    -3.0589  -3.0464  -3.0023  -2.9508  -2.9329  -2.9055  -2.8427  -2.7596
    -2.7233  -2.6939  -2.6438  -2.6282  -2.5931  -2.5533  -2.5250  -2.4787
    -2.4399  -2.4256  -2.3894  -2.3112  -2.2735  -2.2471  -2.2381  -2.1702
    -2.1034  -2.0819  -2.0342  -2.0092  -2.0024  -1.9909  -1.9704  -1.9352
    -1.9184  -1.8974  -1.8747  -1.8645  -1.8497  -1.8375  -1.8284  -1.8219
    -1.7634  -1.7568  -1.7126  -1.7038  -1.6802  -1.6529  -1.6230  -1.6094
    -1.5813  -1.5476  -1.5165  -1.4866  -1.4189  -1.3811  -1.2969  -1.2793
    -1.2232  -1.1959  -1.1858  -1.1386  -1.1121  -1.0916  -1.0391  -0.9919
    -0.9663  -0.8844  -0.7280  -0.7131  -0.6356  -0.6156  -0.4787  -0.4505
    -0.4388  -0.4272  -0.3935  -0.3701  -0.2989  -0.0823   0.0062   0.0358
     0.1532   1.3156   1.7576

     occupation numbers 
     1.0000   1.0000   1.0000   1.0000   1.0000   1.0000   1.0000   1.0000
     1.0000   1.0000   1.0000   1.0000   1.0000   1.0000   1.0000   1.0000
     1.0000   1.0000   1.0000   1.0000   1.0000   1.0000   1.0000   1.0000
     1.0000   1.0000   1.0000   1.0000   1.0000   1.0000   1.0000   1.0000
     1.0000   1.0000   1.0000   1.0000   1.0000   1.0000   1.0000   1.0000
     1.0000   1.0000   1.0000   1.0000   1.0000   1.0000   1.0000   1.0000
     1.0000   1.0000   1.0000   1.0000   1.0000   1.0000   1.0000   1.0000
     1.0000   1.0000   1.0000   1.0000   1.0000   1.0000   1.0000   1.0000
     1.0000   1.0000   1.0000   1.0000   1.0000   1.0000   1.0000   1.0000
     1.0000   1.0000   1.0000   1.0000   1.0000   1.0000   1.0000   1.0000
     1.0000   1.0000   1.0000   1.0000   1.0000   1.0000   1.0000   1.0000
     1.0000   1.0000   1.0000   1.0000   1.0000   1.0000   1.0000   1.0000
     1.0000   1.0000   1.0000   1.0000   1.0000   1.0000   1.0000   1.0000
     1.0000   1.0000   1.0000   1.0000   1.0000   1.0000   1.0000   1.0000
     1.0000   1.0000   1.0000   1.0000   1.0000   1.0000   1.0000   1.0000
     1.0000   1.0000   1.0000   1.0000   1.0000   1.0000   1.0000   1.0000
     1.0000   1.0000   1.0000   1.0000   1.0000   1.0000   1.0000   1.0000
     1.0000   1.0000   1.0000   1.0000   1.0000   1.0000   1.0000   1.0000
     1.0000   1.0000   1.0000   1.0000   1.0000   1.0000   1.0000   1.0000
     1.0000   1.0000   1.0000   1.0000   1.0000   1.0000   1.0000   1.0000
     1.0000   1.0000   1.0000   1.0000   1.0000   1.0000   1.0000   1.0000
     1.0000   1.0000   1.0000   1.0000   1.0000   1.0000   1.0000   1.0000
     1.0000   1.0000   1.0000   1.0000   1.0000   1.0000   1.0000   1.0000
     1.0000   1.0000   1.0000   1.0000   1.0000   1.0000   1.0000   1.0000
     1.0000   1.0000   1.0000   1.0000   1.0000   1.0000   1.0000   1.0000
     1.0000   1.0000   1.0000   1.0000   1.0000   1.0000   1.0000   1.0000
     1.0000   1.0000   1.0000   1.0000   1.0000   1.0000   1.0000   1.0000
     1.0000   1.0000   1.0000   1.0000   1.0000   1.0000   1.0000   1.0000
     1.0000   1.0000   1.0000   1.0000   1.0000   1.0000   1.0000   1.0000
     1.0000   1.0000   1.0000   1.0000   1.0000   1.0000   1.0000   1.0000
     1.0000   1.0000   0.0000

          k = 0.2000 0.3464 0.0000 (112231 PWs)   bands (ev):

   -73.8143 -73.8104 -73.8074 -73.8052 -73.8031 -73.8018 -73.7991 -73.7967
   -73.7945 -73.7896 -73.7884 -73.7870 -73.7829 -73.7419 -73.7323 -73.7294
   -38.2056 -38.1965 -38.1958 -38.1731 -38.1679 -38.1589 -38.1490 -38.1418
   -38.1271 -38.1165 -38.1057 -38.0707 -38.0538 -38.0482 -38.0439 -38.0325
   -38.0277 -38.0230 -38.0176 -38.0150 -38.0115 -38.0060 -37.9993 -37.9977
   -37.9922 -37.9890 -37.9874 -37.9852 -37.9829 -37.9804 -37.9770 -37.9759
   -37.9704 -37.9664 -37.9580 -37.9526 -37.9498 -37.9470 -37.9383 -37.9339
   -37.9273 -37.9210 -37.9180 -37.9097 -37.8965 -37.8897 -37.8745 -37.8620
   -21.5264 -15.4141 -14.4719 -14.0989 -14.0575 -13.5635 -13.5615 -13.1694
   -13.1171 -13.0058 -12.9320 -12.8057 -12.7868 -12.7069 -12.6703 -12.6013
   -12.5918 -12.5746 -12.5695 -12.4544 -12.4228 -12.3884 -12.3742 -12.3105
   -12.2886 -12.2703 -12.2507 -12.2303 -12.2195 -12.1529 -12.1484 -12.1057
   -12.0946 -12.0344  -7.9172  -7.5304  -6.2006  -6.1718  -6.1447  -6.1205
    -6.1017  -5.7545  -5.7314  -5.7165  -5.6759  -5.6408  -5.5986  -5.5602
    -5.5015  -5.4699  -5.3512  -5.3287  -5.2807  -5.2714  -5.2393  -5.2225
    -5.0921  -4.9000  -4.8856  -4.8104  -4.7493  -4.5933  -4.4840  -4.4583
    -4.3913  -4.3619  -4.3341  -4.2986  -4.2732  -4.2598  -4.2297  -4.2218
    -4.1686  -4.1186  -4.1038  -4.0886  -4.0532  -3.7573  -3.7306  -3.7213
    -3.7136  -3.6883  -3.6014  -3.4905  -3.4227  -3.3910  -3.3457  -3.3151
    -3.2823  -3.2406  -3.2180  -3.1993  -3.1628  -3.1467  -3.0947  -3.0879
    -3.0335  -3.0013  -2.9659  -2.9443  -2.9363  -2.9186  -2.9039  -2.8913
    -2.7940  -2.7190  -2.6900  -2.6419  -2.6049  -2.5375  -2.5033  -2.4712
    -2.4548  -2.4259  -2.3809  -2.3547  -2.3050  -2.2094  -2.1719  -2.1545
    -2.1212  -2.1197  -2.0822  -2.0721  -1.9971  -1.9822  -1.9664  -1.9385
    -1.9171  -1.8934  -1.8695  -1.8456  -1.8301  -1.8160  -1.7878  -1.7427
    -1.7238  -1.7084  -1.7000  -1.6640  -1.6575  -1.6103  -1.5826  -1.5692
    -1.5607  -1.5342  -1.5222  -1.4953  -1.4150  -1.3830  -1.3691  -1.3563
    -1.2800  -1.2166  -1.2000  -1.1760  -1.1489  -1.1040  -1.0225  -0.9936
    -0.8686  -0.8370  -0.6750  -0.6653  -0.6311  -0.6219  -0.6085  -0.5336
    -0.5249  -0.4194  -0.3685  -0.2500  -0.2009  -0.1916  -0.1435   0.0797
     0.1650   1.3294   1.7278

     occupation numbers 
     1.0000   1.0000   1.0000   1.0000   1.0000   1.0000   1.0000   1.0000
     1.0000   1.0000   1.0000   1.0000   1.0000   1.0000   1.0000   1.0000
     1.0000   1.0000   1.0000   1.0000   1.0000   1.0000   1.0000   1.0000
     1.0000   1.0000   1.0000   1.0000   1.0000   1.0000   1.0000   1.0000
     1.0000   1.0000   1.0000   1.0000   1.0000   1.0000   1.0000   1.0000
     1.0000   1.0000   1.0000   1.0000   1.0000   1.0000   1.0000   1.0000
     1.0000   1.0000   1.0000   1.0000   1.0000   1.0000   1.0000   1.0000
     1.0000   1.0000   1.0000   1.0000   1.0000   1.0000   1.0000   1.0000
     1.0000   1.0000   1.0000   1.0000   1.0000   1.0000   1.0000   1.0000
     1.0000   1.0000   1.0000   1.0000   1.0000   1.0000   1.0000   1.0000
     1.0000   1.0000   1.0000   1.0000   1.0000   1.0000   1.0000   1.0000
     1.0000   1.0000   1.0000   1.0000   1.0000   1.0000   1.0000   1.0000
     1.0000   1.0000   1.0000   1.0000   1.0000   1.0000   1.0000   1.0000
     1.0000   1.0000   1.0000   1.0000   1.0000   1.0000   1.0000   1.0000
     1.0000   1.0000   1.0000   1.0000   1.0000   1.0000   1.0000   1.0000
     1.0000   1.0000   1.0000   1.0000   1.0000   1.0000   1.0000   1.0000
     1.0000   1.0000   1.0000   1.0000   1.0000   1.0000   1.0000   1.0000
     1.0000   1.0000   1.0000   1.0000   1.0000   1.0000   1.0000   1.0000
     1.0000   1.0000   1.0000   1.0000   1.0000   1.0000   1.0000   1.0000
     1.0000   1.0000   1.0000   1.0000   1.0000   1.0000   1.0000   1.0000
     1.0000   1.0000   1.0000   1.0000   1.0000   1.0000   1.0000   1.0000
     1.0000   1.0000   1.0000   1.0000   1.0000   1.0000   1.0000   1.0000
     1.0000   1.0000   1.0000   1.0000   1.0000   1.0000   1.0000   1.0000
     1.0000   1.0000   1.0000   1.0000   1.0000   1.0000   1.0000   1.0000
     1.0000   1.0000   1.0000   1.0000   1.0000   1.0000   1.0000   1.0000
     1.0000   1.0000   1.0000   1.0000   1.0000   1.0000   1.0000   1.0000
     1.0000   1.0000   1.0000   1.0000   1.0000   1.0000   1.0000   1.0000
     1.0000   1.0000   1.0000   1.0000   1.0000   1.0000   1.0000   1.0000
     1.0000   1.0000   1.0000   1.0000   1.0000   1.0000   1.0000   1.0000
     1.0000   1.0000   1.0000   1.0000   1.0000   1.0000   1.0000   1.0000
     1.0000   1.0000   0.0000

          k = 0.2000 0.5774 0.0000 (112237 PWs)   bands (ev):

   -73.8142 -73.8104 -73.8076 -73.8051 -73.8032 -73.8018 -73.7990 -73.7966
   -73.7946 -73.7896 -73.7885 -73.7870 -73.7829 -73.7419 -73.7323 -73.7294
   -38.1964 -38.1894 -38.1807 -38.1766 -38.1709 -38.1670 -38.1589 -38.1436
   -38.1396 -38.1235 -38.0862 -38.0849 -38.0769 -38.0455 -38.0417 -38.0352
   -38.0297 -38.0233 -38.0140 -38.0104 -38.0043 -38.0006 -37.9987 -37.9968
   -37.9957 -37.9937 -37.9890 -37.9850 -37.9825 -37.9769 -37.9697 -37.9657
   -37.9606 -37.9563 -37.9540 -37.9511 -37.9499 -37.9424 -37.9387 -37.9351
   -37.9319 -37.9250 -37.9209 -37.9168 -37.9050 -37.8874 -37.8751 -37.8666
   -21.5264 -15.4141 -14.3321 -14.2901 -14.1121 -13.5924 -13.2964 -13.2915
   -12.9481 -12.9448 -12.8858 -12.8505 -12.8382 -12.8003 -12.7908 -12.6555
   -12.6282 -12.6004 -12.4887 -12.4822 -12.3805 -12.3689 -12.3554 -12.3220
   -12.3075 -12.2956 -12.2562 -12.2317 -12.2307 -12.1287 -12.1186 -12.1162
   -12.0774 -12.0149  -7.9172  -7.5304  -6.1966  -6.0456  -5.9987  -5.9820
    -5.9154  -5.8903  -5.8710  -5.8443  -5.8056  -5.7404  -5.6820  -5.6187
    -5.6102  -5.5375  -5.3585  -5.2609  -5.2508  -5.2138  -5.1987  -5.1666
    -5.1505  -4.8513  -4.8275  -4.7440  -4.6275  -4.5715  -4.5418  -4.5147
    -4.4689  -4.4120  -4.3924  -4.3123  -4.3061  -4.2359  -4.2286  -4.2084
    -4.1823  -4.1614  -4.1191  -4.0927  -3.9496  -3.9462  -3.7852  -3.6571
    -3.6373  -3.5615  -3.4276  -3.3839  -3.3510  -3.3184  -3.2991  -3.2798
    -3.2652  -3.2561  -3.2381  -3.2283  -3.2109  -3.1958  -3.1360  -3.1170
    -3.0927  -3.0747  -3.0568  -3.0247  -2.9929  -2.9231  -2.8684  -2.8124
    -2.7299  -2.6997  -2.6793  -2.6571  -2.6000  -2.5411  -2.4940  -2.4425
    -2.3851  -2.3273  -2.3149  -2.3008  -2.2455  -2.1906  -2.1676  -2.1247
    -2.1086  -2.0939  -2.0687  -2.0473  -2.0070  -1.9737  -1.9543  -1.9434
    -1.9251  -1.9057  -1.8862  -1.8698  -1.8614  -1.8486  -1.8383  -1.8287
    -1.8116  -1.7720  -1.7553  -1.7273  -1.6963  -1.6735  -1.6588  -1.6363
    -1.6027  -1.5611  -1.5437  -1.4913  -1.4728  -1.4582  -1.3925  -1.3211
    -1.2666  -1.1857  -1.1524  -1.1344  -1.0873  -1.0732  -0.9990  -0.9757
    -0.8070  -0.7919  -0.6957  -0.6834  -0.6504  -0.6362  -0.5861  -0.5751
    -0.5570  -0.3925  -0.2721  -0.2628  -0.1806  -0.1175  -0.0570   0.1204
     0.1964   1.3375   1.7409

     occupation numbers 
     1.0000   1.0000   1.0000   1.0000   1.0000   1.0000   1.0000   1.0000
     1.0000   1.0000   1.0000   1.0000   1.0000   1.0000   1.0000   1.0000
     1.0000   1.0000   1.0000   1.0000   1.0000   1.0000   1.0000   1.0000
     1.0000   1.0000   1.0000   1.0000   1.0000   1.0000   1.0000   1.0000
     1.0000   1.0000   1.0000   1.0000   1.0000   1.0000   1.0000   1.0000
     1.0000   1.0000   1.0000   1.0000   1.0000   1.0000   1.0000   1.0000
     1.0000   1.0000   1.0000   1.0000   1.0000   1.0000   1.0000   1.0000
     1.0000   1.0000   1.0000   1.0000   1.0000   1.0000   1.0000   1.0000
     1.0000   1.0000   1.0000   1.0000   1.0000   1.0000   1.0000   1.0000
     1.0000   1.0000   1.0000   1.0000   1.0000   1.0000   1.0000   1.0000
     1.0000   1.0000   1.0000   1.0000   1.0000   1.0000   1.0000   1.0000
     1.0000   1.0000   1.0000   1.0000   1.0000   1.0000   1.0000   1.0000
     1.0000   1.0000   1.0000   1.0000   1.0000   1.0000   1.0000   1.0000
     1.0000   1.0000   1.0000   1.0000   1.0000   1.0000   1.0000   1.0000
     1.0000   1.0000   1.0000   1.0000   1.0000   1.0000   1.0000   1.0000
     1.0000   1.0000   1.0000   1.0000   1.0000   1.0000   1.0000   1.0000
     1.0000   1.0000   1.0000   1.0000   1.0000   1.0000   1.0000   1.0000
     1.0000   1.0000   1.0000   1.0000   1.0000   1.0000   1.0000   1.0000
     1.0000   1.0000   1.0000   1.0000   1.0000   1.0000   1.0000   1.0000
     1.0000   1.0000   1.0000   1.0000   1.0000   1.0000   1.0000   1.0000
     1.0000   1.0000   1.0000   1.0000   1.0000   1.0000   1.0000   1.0000
     1.0000   1.0000   1.0000   1.0000   1.0000   1.0000   1.0000   1.0000
     1.0000   1.0000   1.0000   1.0000   1.0000   1.0000   1.0000   1.0000
     1.0000   1.0000   1.0000   1.0000   1.0000   1.0000   1.0000   1.0000
     1.0000   1.0000   1.0000   1.0000   1.0000   1.0000   1.0000   1.0000
     1.0000   1.0000   1.0000   1.0000   1.0000   1.0000   1.0000   1.0000
     1.0000   1.0000   1.0000   1.0000   1.0000   1.0000   1.0000   1.0000
     1.0000   1.0000   1.0000   1.0000   1.0000   1.0000   1.0000   1.0000
     1.0000   1.0000   1.0000   1.0000   1.0000   1.0000   1.0000   1.0000
     1.0000   1.0000   1.0000   1.0000   1.0000   1.0000   1.0000   1.0000
     1.0000   1.0000   0.0000

          k =-0.2000 0.1155 0.0000 (112171 PWs)   bands (ev):

   -73.8145 -73.8102 -73.8072 -73.8053 -73.8029 -73.8023 -73.7990 -73.7967
   -73.7945 -73.7895 -73.7885 -73.7870 -73.7829 -73.7419 -73.7323 -73.7294
   -38.2115 -38.2111 -38.2065 -38.1626 -38.1594 -38.1568 -38.1512 -38.1397
   -38.1326 -38.0965 -38.0726 -38.0704 -38.0471 -38.0433 -38.0381 -38.0290
   -38.0229 -38.0211 -38.0202 -38.0188 -38.0121 -38.0105 -38.0092 -38.0057
   -37.9999 -37.9950 -37.9934 -37.9920 -37.9889 -37.9875 -37.9852 -37.9834
   -37.9799 -37.9769 -37.9560 -37.9530 -37.9503 -37.9463 -37.9363 -37.9283
   -37.9245 -37.9146 -37.9105 -37.9040 -37.9000 -37.8900 -37.8643 -37.8604
   -21.5264 -15.4141 -14.5538 -13.9728 -13.7985 -13.7861 -13.4761 -13.4714
   -13.3228 -12.9643 -12.7879 -12.7536 -12.6893 -12.6795 -12.6555 -12.5843
   -12.5621 -12.5187 -12.4944 -12.4768 -12.4663 -12.4310 -12.4217 -12.3051
   -12.2925 -12.2599 -12.2427 -12.2113 -12.1851 -12.1736 -12.1666 -12.1502
   -12.0937 -12.0796  -7.9172  -7.5304  -6.2794  -6.2591  -6.2394  -6.2279
    -6.1859  -5.6686  -5.6326  -5.6199  -5.5444  -5.5264  -5.4860  -5.4662
    -5.4332  -5.4143  -5.3805  -5.3247  -5.3087  -5.2785  -5.2732  -5.0765
    -5.0599  -5.0121  -4.9976  -4.9482  -4.7366  -4.7330  -4.5633  -4.5044
    -4.4403  -4.3672  -4.3357  -4.2736  -4.2017  -4.1579  -4.1430  -4.1196
    -4.0964  -4.0615  -4.0372  -3.9930  -3.9804  -3.9118  -3.9017  -3.8931
    -3.6535  -3.5820  -3.5297  -3.4968  -3.4717  -3.4558  -3.4410  -3.3710
    -3.3624  -3.3096  -3.2914  -3.2742  -3.2548  -3.2014  -3.1902  -3.1496
    -3.0751  -2.9686  -2.9455  -2.9127  -2.8143  -2.7895  -2.7647  -2.7391
    -2.7163  -2.7037  -2.6911  -2.6815  -2.6633  -2.6353  -2.5811  -2.5389
    -2.4943  -2.4773  -2.4616  -2.4270  -2.3554  -2.3018  -2.1789  -2.1657
    -2.1137  -2.0658  -2.0134  -1.9921  -1.9648  -1.9540  -1.9235  -1.8994
    -1.8741  -1.8549  -1.8310  -1.8113  -1.7916  -1.7631  -1.7349  -1.7204
    -1.7034  -1.6923  -1.6740  -1.6536  -1.6438  -1.5989  -1.5652  -1.5438
    -1.5147  -1.4953  -1.4886  -1.4312  -1.4228  -1.3584  -1.3434  -1.3225
    -1.3056  -1.2720  -1.2441  -1.2141  -1.1465  -1.0721  -1.0358  -0.9931
    -0.8938  -0.7691  -0.7513  -0.7312  -0.5782  -0.5628  -0.5421  -0.5273
    -0.5108  -0.5019  -0.4057  -0.3755  -0.3509  -0.2418  -0.1653  -0.1375
     0.1984   1.3292   1.6811

     occupation numbers 
     1.0000   1.0000   1.0000   1.0000   1.0000   1.0000   1.0000   1.0000
     1.0000   1.0000   1.0000   1.0000   1.0000   1.0000   1.0000   1.0000
     1.0000   1.0000   1.0000   1.0000   1.0000   1.0000   1.0000   1.0000
     1.0000   1.0000   1.0000   1.0000   1.0000   1.0000   1.0000   1.0000
     1.0000   1.0000   1.0000   1.0000   1.0000   1.0000   1.0000   1.0000
     1.0000   1.0000   1.0000   1.0000   1.0000   1.0000   1.0000   1.0000
     1.0000   1.0000   1.0000   1.0000   1.0000   1.0000   1.0000   1.0000
     1.0000   1.0000   1.0000   1.0000   1.0000   1.0000   1.0000   1.0000
     1.0000   1.0000   1.0000   1.0000   1.0000   1.0000   1.0000   1.0000
     1.0000   1.0000   1.0000   1.0000   1.0000   1.0000   1.0000   1.0000
     1.0000   1.0000   1.0000   1.0000   1.0000   1.0000   1.0000   1.0000
     1.0000   1.0000   1.0000   1.0000   1.0000   1.0000   1.0000   1.0000
     1.0000   1.0000   1.0000   1.0000   1.0000   1.0000   1.0000   1.0000
     1.0000   1.0000   1.0000   1.0000   1.0000   1.0000   1.0000   1.0000
     1.0000   1.0000   1.0000   1.0000   1.0000   1.0000   1.0000   1.0000
     1.0000   1.0000   1.0000   1.0000   1.0000   1.0000   1.0000   1.0000
     1.0000   1.0000   1.0000   1.0000   1.0000   1.0000   1.0000   1.0000
     1.0000   1.0000   1.0000   1.0000   1.0000   1.0000   1.0000   1.0000
     1.0000   1.0000   1.0000   1.0000   1.0000   1.0000   1.0000   1.0000
     1.0000   1.0000   1.0000   1.0000   1.0000   1.0000   1.0000   1.0000
     1.0000   1.0000   1.0000   1.0000   1.0000   1.0000   1.0000   1.0000
     1.0000   1.0000   1.0000   1.0000   1.0000   1.0000   1.0000   1.0000
     1.0000   1.0000   1.0000   1.0000   1.0000   1.0000   1.0000   1.0000
     1.0000   1.0000   1.0000   1.0000   1.0000   1.0000   1.0000   1.0000
     1.0000   1.0000   1.0000   1.0000   1.0000   1.0000   1.0000   1.0000
     1.0000   1.0000   1.0000   1.0000   1.0000   1.0000   1.0000   1.0000
     1.0000   1.0000   1.0000   1.0000   1.0000   1.0000   1.0000   1.0000
     1.0000   1.0000   1.0000   1.0000   1.0000   1.0000   1.0000   1.0000
     1.0000   1.0000   1.0000   1.0000   1.0000   1.0000   1.0000   1.0000
     1.0000   1.0000   1.0000   1.0000   1.0000   1.0000   1.0000   1.0000
     1.0000   1.0000   0.0000

          k = 0.2000 0.1155 0.0000 (112171 PWs)   bands (ev):

   -73.8145 -73.8103 -73.8071 -73.8053 -73.8030 -73.8021 -73.7992 -73.7967
   -73.7944 -73.7896 -73.7885 -73.7870 -73.7829 -73.7419 -73.7323 -73.7294
   -38.2121 -38.2099 -38.2071 -38.1639 -38.1589 -38.1560 -38.1504 -38.1398
   -38.1331 -38.0967 -38.0728 -38.0702 -38.0471 -38.0422 -38.0395 -38.0289
   -38.0234 -38.0211 -38.0194 -38.0179 -38.0131 -38.0103 -38.0083 -38.0058
   -38.0003 -37.9949 -37.9940 -37.9906 -37.9886 -37.9877 -37.9864 -37.9833
   -37.9799 -37.9769 -37.9551 -37.9541 -37.9504 -37.9459 -37.9362 -37.9284
   -37.9241 -37.9141 -37.9111 -37.9041 -37.8999 -37.8903 -37.8662 -37.8585
   -21.5264 -15.4141 -14.5538 -13.9729 -13.7978 -13.7866 -13.4750 -13.4732
   -13.3221 -12.9644 -12.7878 -12.7530 -12.6886 -12.6811 -12.6559 -12.5842
   -12.5632 -12.5175 -12.4921 -12.4786 -12.4662 -12.4329 -12.4207 -12.3008
   -12.2923 -12.2627 -12.2457 -12.2068 -12.1907 -12.1712 -12.1691 -12.1473
   -12.0910 -12.0820  -7.9172  -7.5304  -6.2735  -6.2616  -6.2421  -6.2290
    -6.1859  -5.6614  -5.6381  -5.6165  -5.5442  -5.5315  -5.4850  -5.4678
    -5.4376  -5.4194  -5.3675  -5.3241  -5.3116  -5.2789  -5.2719  -5.0738
    -5.0669  -5.0104  -5.0009  -4.9424  -4.7379  -4.7333  -4.5570  -4.5045
    -4.4351  -4.3879  -4.3351  -4.2681  -4.2006  -4.1586  -4.1452  -4.1201
    -4.0959  -4.0524  -4.0368  -3.9997  -3.9794  -3.9091  -3.9054  -3.8954
    -3.6461  -3.5625  -3.5453  -3.5028  -3.4628  -3.4532  -3.4362  -3.3781
    -3.3683  -3.3055  -3.2960  -3.2785  -3.2467  -3.2076  -3.1929  -3.1435
    -3.0834  -2.9821  -2.9356  -2.9010  -2.8115  -2.7911  -2.7698  -2.7409
    -2.7275  -2.7042  -2.6928  -2.6822  -2.6494  -2.6230  -2.5741  -2.5423
    -2.5186  -2.4831  -2.4654  -2.4145  -2.3518  -2.2945  -2.1894  -2.1641
    -2.1078  -2.0666  -2.0112  -1.9839  -1.9590  -1.9468  -1.9153  -1.9012
    -1.8936  -1.8673  -1.8290  -1.8118  -1.7969  -1.7662  -1.7360  -1.7296
    -1.7026  -1.6842  -1.6710  -1.6473  -1.6284  -1.6100  -1.5842  -1.5316
    -1.5259  -1.4970  -1.4483  -1.4385  -1.4190  -1.3937  -1.3456  -1.3059
    -1.3014  -1.2905  -1.2396  -1.1979  -1.1526  -1.0526  -1.0370  -1.0094
    -0.8912  -0.7594  -0.7499  -0.7453  -0.5890  -0.5538  -0.5418  -0.5267
    -0.5135  -0.5061  -0.4015  -0.3769  -0.3459  -0.2427  -0.1613  -0.1413
     0.1990   1.3240   1.6876

     occupation numbers 
     1.0000   1.0000   1.0000   1.0000   1.0000   1.0000   1.0000   1.0000
     1.0000   1.0000   1.0000   1.0000   1.0000   1.0000   1.0000   1.0000
     1.0000   1.0000   1.0000   1.0000   1.0000   1.0000   1.0000   1.0000
     1.0000   1.0000   1.0000   1.0000   1.0000   1.0000   1.0000   1.0000
     1.0000   1.0000   1.0000   1.0000   1.0000   1.0000   1.0000   1.0000
     1.0000   1.0000   1.0000   1.0000   1.0000   1.0000   1.0000   1.0000
     1.0000   1.0000   1.0000   1.0000   1.0000   1.0000   1.0000   1.0000
     1.0000   1.0000   1.0000   1.0000   1.0000   1.0000   1.0000   1.0000
     1.0000   1.0000   1.0000   1.0000   1.0000   1.0000   1.0000   1.0000
     1.0000   1.0000   1.0000   1.0000   1.0000   1.0000   1.0000   1.0000
     1.0000   1.0000   1.0000   1.0000   1.0000   1.0000   1.0000   1.0000
     1.0000   1.0000   1.0000   1.0000   1.0000   1.0000   1.0000   1.0000
     1.0000   1.0000   1.0000   1.0000   1.0000   1.0000   1.0000   1.0000
     1.0000   1.0000   1.0000   1.0000   1.0000   1.0000   1.0000   1.0000
     1.0000   1.0000   1.0000   1.0000   1.0000   1.0000   1.0000   1.0000
     1.0000   1.0000   1.0000   1.0000   1.0000   1.0000   1.0000   1.0000
     1.0000   1.0000   1.0000   1.0000   1.0000   1.0000   1.0000   1.0000
     1.0000   1.0000   1.0000   1.0000   1.0000   1.0000   1.0000   1.0000
     1.0000   1.0000   1.0000   1.0000   1.0000   1.0000   1.0000   1.0000
     1.0000   1.0000   1.0000   1.0000   1.0000   1.0000   1.0000   1.0000
     1.0000   1.0000   1.0000   1.0000   1.0000   1.0000   1.0000   1.0000
     1.0000   1.0000   1.0000   1.0000   1.0000   1.0000   1.0000   1.0000
     1.0000   1.0000   1.0000   1.0000   1.0000   1.0000   1.0000   1.0000
     1.0000   1.0000   1.0000   1.0000   1.0000   1.0000   1.0000   1.0000
     1.0000   1.0000   1.0000   1.0000   1.0000   1.0000   1.0000   1.0000
     1.0000   1.0000   1.0000   1.0000   1.0000   1.0000   1.0000   1.0000
     1.0000   1.0000   1.0000   1.0000   1.0000   1.0000   1.0000   1.0000
     1.0000   1.0000   1.0000   1.0000   1.0000   1.0000   1.0000   1.0000
     1.0000   1.0000   1.0000   1.0000   1.0000   1.0000   1.0000   1.0000
     1.0000   1.0000   1.0000   1.0000   1.0000   1.0000   1.0000   1.0000
     1.0000   1.0000   0.0000

          k =-0.4000 0.2309 0.0000 (112236 PWs)   bands (ev):

   -73.8143 -73.8104 -73.8073 -73.8054 -73.8026 -73.8023 -73.7990 -73.7967
   -73.7945 -73.7896 -73.7885 -73.7870 -73.7829 -73.7419 -73.7323 -73.7294
   -38.2009 -38.1983 -38.1849 -38.1797 -38.1730 -38.1574 -38.1552 -38.1391
   -38.1237 -38.1176 -38.0980 -38.0941 -38.0574 -38.0511 -38.0433 -38.0348
   -38.0244 -38.0205 -38.0078 -38.0075 -38.0057 -38.0037 -37.9998 -37.9968
   -37.9944 -37.9916 -37.9907 -37.9891 -37.9856 -37.9820 -37.9769 -37.9747
   -37.9679 -37.9605 -37.9578 -37.9517 -37.9453 -37.9425 -37.9400 -37.9368
   -37.9292 -37.9235 -37.9175 -37.9097 -37.9003 -37.8855 -37.8780 -37.8636
   -21.5264 -15.4141 -14.4322 -14.2299 -13.8658 -13.8556 -13.2458 -13.2406
   -13.0202 -12.9941 -12.9724 -12.9082 -12.8305 -12.7292 -12.7015 -12.6831
   -12.5308 -12.5047 -12.4588 -12.4507 -12.4285 -12.4231 -12.3842 -12.3613
   -12.3507 -12.2807 -12.2193 -12.1973 -12.1745 -12.1595 -12.1536 -12.1507
   -12.0548 -12.0388  -7.9172  -7.5304  -6.1980  -6.1260  -6.1042  -6.0852
    -6.0185  -5.8715  -5.8524  -5.8332  -5.7070  -5.5256  -5.5068  -5.4813
    -5.4502  -5.4425  -5.4346  -5.3858  -5.3765  -5.3134  -5.3058  -5.0760
    -5.0539  -5.0206  -5.0038  -4.7985  -4.5999  -4.5450  -4.4725  -4.4366
    -4.4088  -4.3688  -4.3489  -4.3051  -4.2412  -4.2179  -4.1925  -4.1573
    -4.1188  -4.1102  -4.0983  -4.0723  -4.0653  -4.0490  -4.0382  -3.6760
    -3.5642  -3.5162  -3.4699  -3.4509  -3.4209  -3.3913  -3.3528  -3.3137
    -3.2866  -3.2762  -3.2560  -3.2386  -3.2105  -3.1925  -3.1420  -3.1124
    -3.0635  -3.0332  -3.0067  -2.9458  -2.9266  -2.8948  -2.8205  -2.7603
    -2.7157  -2.6972  -2.6472  -2.6236  -2.5897  -2.5751  -2.5458  -2.4769
    -2.4241  -2.4184  -2.3889  -2.3268  -2.2752  -2.2473  -2.2388  -2.1620
    -2.1153  -2.0937  -2.0483  -2.0255  -2.0064  -1.9874  -1.9512  -1.9172
    -1.9036  -1.8907  -1.8805  -1.8626  -1.8542  -1.8462  -1.8346  -1.8165
    -1.7766  -1.7477  -1.7071  -1.6845  -1.6817  -1.6556  -1.6411  -1.6072
    -1.5807  -1.5486  -1.4927  -1.4636  -1.4422  -1.3483  -1.3199  -1.2907
    -1.2591  -1.2075  -1.1688  -1.1231  -1.1127  -1.0938  -1.0672  -0.9808
    -0.9547  -0.8701  -0.7283  -0.7120  -0.6340  -0.6168  -0.4969  -0.4487
    -0.4412  -0.4193  -0.3985  -0.3682  -0.2863  -0.0923   0.0073   0.0385
     0.1487   1.3756   1.6886

     occupation numbers 
     1.0000   1.0000   1.0000   1.0000   1.0000   1.0000   1.0000   1.0000
     1.0000   1.0000   1.0000   1.0000   1.0000   1.0000   1.0000   1.0000
     1.0000   1.0000   1.0000   1.0000   1.0000   1.0000   1.0000   1.0000
     1.0000   1.0000   1.0000   1.0000   1.0000   1.0000   1.0000   1.0000
     1.0000   1.0000   1.0000   1.0000   1.0000   1.0000   1.0000   1.0000
     1.0000   1.0000   1.0000   1.0000   1.0000   1.0000   1.0000   1.0000
     1.0000   1.0000   1.0000   1.0000   1.0000   1.0000   1.0000   1.0000
     1.0000   1.0000   1.0000   1.0000   1.0000   1.0000   1.0000   1.0000
     1.0000   1.0000   1.0000   1.0000   1.0000   1.0000   1.0000   1.0000
     1.0000   1.0000   1.0000   1.0000   1.0000   1.0000   1.0000   1.0000
     1.0000   1.0000   1.0000   1.0000   1.0000   1.0000   1.0000   1.0000
     1.0000   1.0000   1.0000   1.0000   1.0000   1.0000   1.0000   1.0000
     1.0000   1.0000   1.0000   1.0000   1.0000   1.0000   1.0000   1.0000
     1.0000   1.0000   1.0000   1.0000   1.0000   1.0000   1.0000   1.0000
     1.0000   1.0000   1.0000   1.0000   1.0000   1.0000   1.0000   1.0000
     1.0000   1.0000   1.0000   1.0000   1.0000   1.0000   1.0000   1.0000
     1.0000   1.0000   1.0000   1.0000   1.0000   1.0000   1.0000   1.0000
     1.0000   1.0000   1.0000   1.0000   1.0000   1.0000   1.0000   1.0000
     1.0000   1.0000   1.0000   1.0000   1.0000   1.0000   1.0000   1.0000
     1.0000   1.0000   1.0000   1.0000   1.0000   1.0000   1.0000   1.0000
     1.0000   1.0000   1.0000   1.0000   1.0000   1.0000   1.0000   1.0000
     1.0000   1.0000   1.0000   1.0000   1.0000   1.0000   1.0000   1.0000
     1.0000   1.0000   1.0000   1.0000   1.0000   1.0000   1.0000   1.0000
     1.0000   1.0000   1.0000   1.0000   1.0000   1.0000   1.0000   1.0000
     1.0000   1.0000   1.0000   1.0000   1.0000   1.0000   1.0000   1.0000
     1.0000   1.0000   1.0000   1.0000   1.0000   1.0000   1.0000   1.0000
     1.0000   1.0000   1.0000   1.0000   1.0000   1.0000   1.0000   1.0000
     1.0000   1.0000   1.0000   1.0000   1.0000   1.0000   1.0000   1.0000
     1.0000   1.0000   1.0000   1.0000   1.0000   1.0000   1.0000   1.0000
     1.0000   1.0000   1.0000   1.0000   1.0000   1.0000   1.0000   1.0000
     1.0000   1.0000   0.0000

          k = 0.4000 0.2309 0.0000 (112236 PWs)   bands (ev):

   -73.8142 -73.8106 -73.8072 -73.8054 -73.8028 -73.8018 -73.7994 -73.7967
   -73.7943 -73.7897 -73.7884 -73.7871 -73.7829 -73.7419 -73.7323 -73.7294
   -38.1996 -38.1991 -38.1854 -38.1811 -38.1714 -38.1567 -38.1555 -38.1399
   -38.1231 -38.1175 -38.0990 -38.0943 -38.0559 -38.0524 -38.0432 -38.0350
   -38.0249 -38.0188 -38.0083 -38.0074 -38.0063 -38.0039 -37.9999 -37.9973
   -37.9925 -37.9921 -37.9903 -37.9881 -37.9866 -37.9823 -37.9769 -37.9744
   -37.9695 -37.9600 -37.9581 -37.9513 -37.9443 -37.9427 -37.9403 -37.9358
   -37.9280 -37.9244 -37.9184 -37.9107 -37.8984 -37.8865 -37.8814 -37.8611
   -21.5264 -15.4141 -14.4322 -14.2301 -13.8653 -13.8560 -13.2454 -13.2418
   -13.0172 -12.9937 -12.9745 -12.9074 -12.8311 -12.7269 -12.7034 -12.6840
   -12.5384 -12.4969 -12.4629 -12.4480 -12.4275 -12.4231 -12.3848 -12.3599
   -12.3484 -12.2805 -12.2263 -12.1953 -12.1763 -12.1586 -12.1538 -12.1481
   -12.0520 -12.0413  -7.9172  -7.5304  -6.1979  -6.1165  -6.1077  -6.0839
    -6.0312  -5.8643  -5.8525  -5.8300  -5.7116  -5.5273  -5.5059  -5.4841
    -5.4455  -5.4443  -5.4364  -5.3854  -5.3783  -5.3110  -5.3046  -5.0687
    -5.0653  -5.0189  -5.0080  -4.7715  -4.6092  -4.5538  -4.4788  -4.4467
    -4.4150  -4.3680  -4.3451  -4.3013  -4.2356  -4.2222  -4.1881  -4.1545
    -4.1223  -4.1125  -4.0992  -4.0738  -4.0607  -4.0468  -4.0394  -3.6635
    -3.5579  -3.5169  -3.4587  -3.4451  -3.4248  -3.3953  -3.3550  -3.3221
    -3.2874  -3.2732  -3.2501  -3.2330  -3.2153  -3.1998  -3.1316  -3.1132
    -3.0727  -3.0530  -3.0132  -2.9464  -2.9249  -2.8989  -2.8289  -2.7610
    -2.7135  -2.6796  -2.6357  -2.6133  -2.6096  -2.5937  -2.5038  -2.4882
    -2.4497  -2.4252  -2.3670  -2.3263  -2.2693  -2.2538  -2.2386  -2.1425
    -2.1120  -2.1000  -2.0335  -2.0056  -1.9968  -1.9783  -1.9687  -1.9529
    -1.9265  -1.8958  -1.8815  -1.8607  -1.8480  -1.8423  -1.8341  -1.8116
    -1.7948  -1.7389  -1.7165  -1.6961  -1.6854  -1.6339  -1.6216  -1.6153
    -1.5916  -1.5448  -1.5020  -1.4896  -1.4074  -1.3561  -1.3035  -1.2844
    -1.2469  -1.2284  -1.1864  -1.1308  -1.1140  -1.0553  -1.0426  -0.9909
    -0.9667  -0.8778  -0.7245  -0.7184  -0.6335  -0.6231  -0.5047  -0.4522
    -0.4433  -0.4167  -0.4009  -0.3569  -0.2808  -0.0931   0.0093   0.0346
     0.1512   1.3595   1.7090

     occupation numbers 
     1.0000   1.0000   1.0000   1.0000   1.0000   1.0000   1.0000   1.0000
     1.0000   1.0000   1.0000   1.0000   1.0000   1.0000   1.0000   1.0000
     1.0000   1.0000   1.0000   1.0000   1.0000   1.0000   1.0000   1.0000
     1.0000   1.0000   1.0000   1.0000   1.0000   1.0000   1.0000   1.0000
     1.0000   1.0000   1.0000   1.0000   1.0000   1.0000   1.0000   1.0000
     1.0000   1.0000   1.0000   1.0000   1.0000   1.0000   1.0000   1.0000
     1.0000   1.0000   1.0000   1.0000   1.0000   1.0000   1.0000   1.0000
     1.0000   1.0000   1.0000   1.0000   1.0000   1.0000   1.0000   1.0000
     1.0000   1.0000   1.0000   1.0000   1.0000   1.0000   1.0000   1.0000
     1.0000   1.0000   1.0000   1.0000   1.0000   1.0000   1.0000   1.0000
     1.0000   1.0000   1.0000   1.0000   1.0000   1.0000   1.0000   1.0000
     1.0000   1.0000   1.0000   1.0000   1.0000   1.0000   1.0000   1.0000
     1.0000   1.0000   1.0000   1.0000   1.0000   1.0000   1.0000   1.0000
     1.0000   1.0000   1.0000   1.0000   1.0000   1.0000   1.0000   1.0000
     1.0000   1.0000   1.0000   1.0000   1.0000   1.0000   1.0000   1.0000
     1.0000   1.0000   1.0000   1.0000   1.0000   1.0000   1.0000   1.0000
     1.0000   1.0000   1.0000   1.0000   1.0000   1.0000   1.0000   1.0000
     1.0000   1.0000   1.0000   1.0000   1.0000   1.0000   1.0000   1.0000
     1.0000   1.0000   1.0000   1.0000   1.0000   1.0000   1.0000   1.0000
     1.0000   1.0000   1.0000   1.0000   1.0000   1.0000   1.0000   1.0000
     1.0000   1.0000   1.0000   1.0000   1.0000   1.0000   1.0000   1.0000
     1.0000   1.0000   1.0000   1.0000   1.0000   1.0000   1.0000   1.0000
     1.0000   1.0000   1.0000   1.0000   1.0000   1.0000   1.0000   1.0000
     1.0000   1.0000   1.0000   1.0000   1.0000   1.0000   1.0000   1.0000
     1.0000   1.0000   1.0000   1.0000   1.0000   1.0000   1.0000   1.0000
     1.0000   1.0000   1.0000   1.0000   1.0000   1.0000   1.0000   1.0000
     1.0000   1.0000   1.0000   1.0000   1.0000   1.0000   1.0000   1.0000
     1.0000   1.0000   1.0000   1.0000   1.0000   1.0000   1.0000   1.0000
     1.0000   1.0000   1.0000   1.0000   1.0000   1.0000   1.0000   1.0000
     1.0000   1.0000   1.0000   1.0000   1.0000   1.0000   1.0000   1.0000
     1.0000   1.0000   0.0000

          k =-0.2000 0.3464 0.0000 (112231 PWs)   bands (ev):

   -73.8143 -73.8103 -73.8075 -73.8052 -73.8031 -73.8020 -73.7989 -73.7966
   -73.7947 -73.7895 -73.7885 -73.7870 -73.7829 -73.7419 -73.7323 -73.7294
   -38.2059 -38.1973 -38.1947 -38.1727 -38.1676 -38.1595 -38.1491 -38.1424
   -38.1266 -38.1184 -38.1030 -38.0702 -38.0551 -38.0487 -38.0441 -38.0321
   -38.0278 -38.0227 -38.0173 -38.0162 -38.0111 -38.0051 -37.9993 -37.9970
   -37.9937 -37.9892 -37.9873 -37.9849 -37.9832 -37.9790 -37.9770 -37.9758
   -37.9699 -37.9680 -37.9578 -37.9524 -37.9496 -37.9473 -37.9378 -37.9346
   -37.9273 -37.9207 -37.9176 -37.9120 -37.8951 -37.8886 -37.8731 -37.8639
   -21.5264 -15.4141 -14.4719 -14.0983 -14.0581 -13.5706 -13.5538 -13.1704
   -13.1174 -13.0059 -12.9318 -12.8047 -12.7878 -12.7027 -12.6710 -12.6158
   -12.5820 -12.5749 -12.5668 -12.4519 -12.4240 -12.3906 -12.3768 -12.3078
   -12.2900 -12.2716 -12.2493 -12.2250 -12.2217 -12.1547 -12.1480 -12.1066
   -12.0945 -12.0341  -7.9172  -7.5304  -6.2012  -6.1809  -6.1383  -6.1181
    -6.0988  -5.7581  -5.7306  -5.7129  -5.6942  -5.6233  -5.5990  -5.5573
    -5.5037  -5.4727  -5.3519  -5.3262  -5.2956  -5.2622  -5.2378  -5.2156
    -5.0939  -4.9091  -4.8902  -4.7916  -4.7538  -4.5980  -4.5047  -4.4389
    -4.3911  -4.3402  -4.3304  -4.3046  -4.2779  -4.2560  -4.2409  -4.2221
    -4.1603  -4.1259  -4.1075  -4.0906  -4.0512  -3.7660  -3.7347  -3.7237
    -3.7043  -3.6868  -3.6026  -3.5000  -3.4148  -3.3764  -3.3655  -3.3012
    -3.2816  -3.2372  -3.2238  -3.1977  -3.1600  -3.1441  -3.1115  -3.0794
    -3.0529  -3.0019  -2.9565  -2.9388  -2.9240  -2.9193  -2.9089  -2.8948
    -2.7758  -2.7185  -2.6869  -2.6665  -2.5977  -2.5443  -2.5127  -2.4681
    -2.4525  -2.4006  -2.3803  -2.3563  -2.3129  -2.2083  -2.1901  -2.1463
    -2.1243  -2.1170  -2.0987  -2.0668  -2.0227  -1.9778  -1.9653  -1.9286
    -1.9027  -1.8903  -1.8592  -1.8429  -1.8166  -1.8098  -1.7872  -1.7653
    -1.7336  -1.7032  -1.6886  -1.6679  -1.6412  -1.6249  -1.5794  -1.5771
    -1.5549  -1.5437  -1.5186  -1.4936  -1.4263  -1.3891  -1.3781  -1.3383
    -1.2747  -1.2389  -1.1880  -1.1681  -1.1506  -1.1076  -1.0374  -0.9802
    -0.8712  -0.8273  -0.6820  -0.6652  -0.6290  -0.6188  -0.6035  -0.5339
    -0.5298  -0.4091  -0.3783  -0.2521  -0.1992  -0.1907  -0.1452   0.0803
     0.1634   1.3373   1.7176

     occupation numbers 
     1.0000   1.0000   1.0000   1.0000   1.0000   1.0000   1.0000   1.0000
     1.0000   1.0000   1.0000   1.0000   1.0000   1.0000   1.0000   1.0000
     1.0000   1.0000   1.0000   1.0000   1.0000   1.0000   1.0000   1.0000
     1.0000   1.0000   1.0000   1.0000   1.0000   1.0000   1.0000   1.0000
     1.0000   1.0000   1.0000   1.0000   1.0000   1.0000   1.0000   1.0000
     1.0000   1.0000   1.0000   1.0000   1.0000   1.0000   1.0000   1.0000
     1.0000   1.0000   1.0000   1.0000   1.0000   1.0000   1.0000   1.0000
     1.0000   1.0000   1.0000   1.0000   1.0000   1.0000   1.0000   1.0000
     1.0000   1.0000   1.0000   1.0000   1.0000   1.0000   1.0000   1.0000
     1.0000   1.0000   1.0000   1.0000   1.0000   1.0000   1.0000   1.0000
     1.0000   1.0000   1.0000   1.0000   1.0000   1.0000   1.0000   1.0000
     1.0000   1.0000   1.0000   1.0000   1.0000   1.0000   1.0000   1.0000
     1.0000   1.0000   1.0000   1.0000   1.0000   1.0000   1.0000   1.0000
     1.0000   1.0000   1.0000   1.0000   1.0000   1.0000   1.0000   1.0000
     1.0000   1.0000   1.0000   1.0000   1.0000   1.0000   1.0000   1.0000
     1.0000   1.0000   1.0000   1.0000   1.0000   1.0000   1.0000   1.0000
     1.0000   1.0000   1.0000   1.0000   1.0000   1.0000   1.0000   1.0000
     1.0000   1.0000   1.0000   1.0000   1.0000   1.0000   1.0000   1.0000
     1.0000   1.0000   1.0000   1.0000   1.0000   1.0000   1.0000   1.0000
     1.0000   1.0000   1.0000   1.0000   1.0000   1.0000   1.0000   1.0000
     1.0000   1.0000   1.0000   1.0000   1.0000   1.0000   1.0000   1.0000
     1.0000   1.0000   1.0000   1.0000   1.0000   1.0000   1.0000   1.0000
     1.0000   1.0000   1.0000   1.0000   1.0000   1.0000   1.0000   1.0000
     1.0000   1.0000   1.0000   1.0000   1.0000   1.0000   1.0000   1.0000
     1.0000   1.0000   1.0000   1.0000   1.0000   1.0000   1.0000   1.0000
     1.0000   1.0000   1.0000   1.0000   1.0000   1.0000   1.0000   1.0000
     1.0000   1.0000   1.0000   1.0000   1.0000   1.0000   1.0000   1.0000
     1.0000   1.0000   1.0000   1.0000   1.0000   1.0000   1.0000   1.0000
     1.0000   1.0000   1.0000   1.0000   1.0000   1.0000   1.0000   1.0000
     1.0000   1.0000   1.0000   1.0000   1.0000   1.0000   1.0000   1.0000
     1.0000   1.0000   0.0000

          k = 0.4000-0.0000 0.0000 (112231 PWs)   bands (ev):

   -73.8143 -73.8105 -73.8072 -73.8054 -73.8026 -73.8022 -73.7992 -73.7967
   -73.7943 -73.7897 -73.7884 -73.7870 -73.7829 -73.7419 -73.7323 -73.7294
   -38.2060 -38.1969 -38.1952 -38.1724 -38.1687 -38.1593 -38.1489 -38.1414
   -38.1253 -38.1169 -38.1064 -38.0711 -38.0540 -38.0483 -38.0440 -38.0330
   -38.0265 -38.0232 -38.0182 -38.0162 -38.0111 -38.0061 -37.9997 -37.9953
   -37.9931 -37.9895 -37.9870 -37.9856 -37.9826 -37.9800 -37.9769 -37.9760
   -37.9694 -37.9662 -37.9585 -37.9530 -37.9505 -37.9463 -37.9378 -37.9359
   -37.9255 -37.9207 -37.9176 -37.9104 -37.8965 -37.8900 -37.8740 -37.8623
   -21.5264 -15.4141 -14.4720 -14.0961 -14.0604 -13.5641 -13.5610 -13.1665
   -13.1196 -13.0096 -12.9263 -12.8018 -12.7907 -12.7068 -12.6786 -12.6002
   -12.5963 -12.5722 -12.5578 -12.4542 -12.4204 -12.4090 -12.3623 -12.3060
   -12.2904 -12.2684 -12.2514 -12.2336 -12.2187 -12.1554 -12.1452 -12.1050
   -12.0954 -12.0345  -7.9172  -7.5304  -6.2002  -6.1748  -6.1453  -6.1134
    -6.1051  -5.7506  -5.7357  -5.7170  -5.6819  -5.6307  -5.6045  -5.5561
    -5.5015  -5.4701  -5.3482  -5.3315  -5.2867  -5.2681  -5.2400  -5.2246
    -5.0932  -4.8964  -4.8835  -4.8051  -4.7531  -4.5613  -4.5285  -4.4538
    -4.4036  -4.3422  -4.3343  -4.3077  -4.2727  -4.2607  -4.2384  -4.2055
    -4.1715  -4.1145  -4.1062  -4.0869  -4.0507  -3.7563  -3.7293  -3.7226
    -3.7028  -3.6934  -3.6128  -3.4798  -3.4239  -3.3921  -3.3656  -3.3122
    -3.2781  -3.2404  -3.2278  -3.1973  -3.1694  -3.1392  -3.1192  -3.0756
    -3.0326  -2.9860  -2.9627  -2.9440  -2.9355  -2.9128  -2.8977  -2.8893
    -2.7635  -2.7348  -2.6893  -2.6398  -2.6105  -2.5654  -2.5262  -2.4619
    -2.4559  -2.4103  -2.3793  -2.3357  -2.3120  -2.2149  -2.1741  -2.1459
    -2.1222  -2.1177  -2.0965  -2.0842  -1.9952  -1.9783  -1.9648  -1.9318
    -1.9165  -1.8911  -1.8685  -1.8552  -1.8385  -1.8134  -1.7773  -1.7560
    -1.7281  -1.7015  -1.6819  -1.6655  -1.6445  -1.6175  -1.5868  -1.5672
    -1.5480  -1.5388  -1.5191  -1.4918  -1.4407  -1.4027  -1.3584  -1.3303
    -1.2774  -1.2528  -1.1936  -1.1717  -1.1451  -1.0968  -1.0385  -0.9793
    -0.8609  -0.8414  -0.6765  -0.6677  -0.6290  -0.6153  -0.6074  -0.5333
    -0.5287  -0.4272  -0.3717  -0.2448  -0.2001  -0.1860  -0.1481   0.0779
     0.1630   1.3676   1.6849

     occupation numbers 
     1.0000   1.0000   1.0000   1.0000   1.0000   1.0000   1.0000   1.0000
     1.0000   1.0000   1.0000   1.0000   1.0000   1.0000   1.0000   1.0000
     1.0000   1.0000   1.0000   1.0000   1.0000   1.0000   1.0000   1.0000
     1.0000   1.0000   1.0000   1.0000   1.0000   1.0000   1.0000   1.0000
     1.0000   1.0000   1.0000   1.0000   1.0000   1.0000   1.0000   1.0000
     1.0000   1.0000   1.0000   1.0000   1.0000   1.0000   1.0000   1.0000
     1.0000   1.0000   1.0000   1.0000   1.0000   1.0000   1.0000   1.0000
     1.0000   1.0000   1.0000   1.0000   1.0000   1.0000   1.0000   1.0000
     1.0000   1.0000   1.0000   1.0000   1.0000   1.0000   1.0000   1.0000
     1.0000   1.0000   1.0000   1.0000   1.0000   1.0000   1.0000   1.0000
     1.0000   1.0000   1.0000   1.0000   1.0000   1.0000   1.0000   1.0000
     1.0000   1.0000   1.0000   1.0000   1.0000   1.0000   1.0000   1.0000
     1.0000   1.0000   1.0000   1.0000   1.0000   1.0000   1.0000   1.0000
     1.0000   1.0000   1.0000   1.0000   1.0000   1.0000   1.0000   1.0000
     1.0000   1.0000   1.0000   1.0000   1.0000   1.0000   1.0000   1.0000
     1.0000   1.0000   1.0000   1.0000   1.0000   1.0000   1.0000   1.0000
     1.0000   1.0000   1.0000   1.0000   1.0000   1.0000   1.0000   1.0000
     1.0000   1.0000   1.0000   1.0000   1.0000   1.0000   1.0000   1.0000
     1.0000   1.0000   1.0000   1.0000   1.0000   1.0000   1.0000   1.0000
     1.0000   1.0000   1.0000   1.0000   1.0000   1.0000   1.0000   1.0000
     1.0000   1.0000   1.0000   1.0000   1.0000   1.0000   1.0000   1.0000
     1.0000   1.0000   1.0000   1.0000   1.0000   1.0000   1.0000   1.0000
     1.0000   1.0000   1.0000   1.0000   1.0000   1.0000   1.0000   1.0000
     1.0000   1.0000   1.0000   1.0000   1.0000   1.0000   1.0000   1.0000
     1.0000   1.0000   1.0000   1.0000   1.0000   1.0000   1.0000   1.0000
     1.0000   1.0000   1.0000   1.0000   1.0000   1.0000   1.0000   1.0000
     1.0000   1.0000   1.0000   1.0000   1.0000   1.0000   1.0000   1.0000
     1.0000   1.0000   1.0000   1.0000   1.0000   1.0000   1.0000   1.0000
     1.0000   1.0000   1.0000   1.0000   1.0000   1.0000   1.0000   1.0000
     1.0000   1.0000   1.0000   1.0000   1.0000   1.0000   1.0000   1.0000
     1.0000   1.0000   0.0000

          k =-0.4000 0.4619 0.0000 (112237 PWs)   bands (ev):

   -73.8142 -73.8105 -73.8075 -73.8053 -73.8028 -73.8021 -73.7990 -73.7967
   -73.7945 -73.7896 -73.7884 -73.7870 -73.7829 -73.7419 -73.7323 -73.7294
   -38.1963 -38.1902 -38.1804 -38.1778 -38.1702 -38.1663 -38.1583 -38.1434
   -38.1396 -38.1234 -38.0870 -38.0839 -38.0780 -38.0450 -38.0415 -38.0358
   -38.0286 -38.0248 -38.0161 -38.0080 -38.0054 -38.0006 -37.9985 -37.9964
   -37.9945 -37.9933 -37.9900 -37.9855 -37.9821 -37.9768 -37.9695 -37.9662
   -37.9607 -37.9559 -37.9531 -37.9514 -37.9498 -37.9430 -37.9385 -37.9367
   -37.9310 -37.9244 -37.9199 -37.9166 -37.9059 -37.8874 -37.8748 -37.8669
   -21.5264 -15.4141 -14.3339 -14.2877 -14.1127 -13.5931 -13.2944 -13.2916
   -12.9557 -12.9453 -12.8827 -12.8541 -12.8249 -12.7994 -12.7940 -12.6612
   -12.6321 -12.5935 -12.4909 -12.4811 -12.3845 -12.3721 -12.3445 -12.3230
   -12.3083 -12.2963 -12.2585 -12.2329 -12.2278 -12.1314 -12.1185 -12.1128
   -12.0783 -12.0150  -7.9172  -7.5304  -6.1965  -6.0465  -6.0123  -5.9655
    -5.9102  -5.8862  -5.8729  -5.8545  -5.8054  -5.7410  -5.6821  -5.6213
    -5.6059  -5.5379  -5.3541  -5.2785  -5.2430  -5.2125  -5.1968  -5.1643
    -5.1531  -4.8488  -4.8281  -4.7377  -4.6164  -4.5806  -4.5387  -4.5178
    -4.4848  -4.4195  -4.3777  -4.3196  -4.3024  -4.2380  -4.2232  -4.2037
    -4.1891  -4.1595  -4.1176  -4.0910  -3.9519  -3.9439  -3.7851  -3.6626
    -3.6136  -3.5833  -3.4223  -3.3864  -3.3508  -3.3178  -3.2992  -3.2748
    -3.2706  -3.2614  -3.2377  -3.2261  -3.2160  -3.2079  -3.1402  -3.1163
    -3.0908  -3.0742  -3.0539  -3.0357  -2.9815  -2.9193  -2.8373  -2.7973
    -2.7298  -2.7026  -2.6853  -2.6626  -2.6055  -2.5800  -2.4853  -2.4049
    -2.3889  -2.3202  -2.3160  -2.3098  -2.2591  -2.1802  -2.1658  -2.1494
    -2.1288  -2.0834  -2.0687  -2.0398  -2.0177  -1.9644  -1.9510  -1.9351
    -1.9222  -1.9088  -1.8854  -1.8712  -1.8580  -1.8472  -1.8400  -1.8328
    -1.8061  -1.7826  -1.7482  -1.7178  -1.6922  -1.6787  -1.6551  -1.6390
    -1.6127  -1.5714  -1.5191  -1.4943  -1.4741  -1.4522  -1.4027  -1.3010
    -1.2663  -1.2264  -1.1586  -1.1092  -1.0866  -1.0664  -1.0337  -0.9518
    -0.8086  -0.7807  -0.6946  -0.6839  -0.6500  -0.6370  -0.5938  -0.5745
    -0.5578  -0.3926  -0.2720  -0.2672  -0.1689  -0.1127  -0.0700   0.1211
     0.1949   1.3753   1.6993

     occupation numbers 
     1.0000   1.0000   1.0000   1.0000   1.0000   1.0000   1.0000   1.0000
     1.0000   1.0000   1.0000   1.0000   1.0000   1.0000   1.0000   1.0000
     1.0000   1.0000   1.0000   1.0000   1.0000   1.0000   1.0000   1.0000
     1.0000   1.0000   1.0000   1.0000   1.0000   1.0000   1.0000   1.0000
     1.0000   1.0000   1.0000   1.0000   1.0000   1.0000   1.0000   1.0000
     1.0000   1.0000   1.0000   1.0000   1.0000   1.0000   1.0000   1.0000
     1.0000   1.0000   1.0000   1.0000   1.0000   1.0000   1.0000   1.0000
     1.0000   1.0000   1.0000   1.0000   1.0000   1.0000   1.0000   1.0000
     1.0000   1.0000   1.0000   1.0000   1.0000   1.0000   1.0000   1.0000
     1.0000   1.0000   1.0000   1.0000   1.0000   1.0000   1.0000   1.0000
     1.0000   1.0000   1.0000   1.0000   1.0000   1.0000   1.0000   1.0000
     1.0000   1.0000   1.0000   1.0000   1.0000   1.0000   1.0000   1.0000
     1.0000   1.0000   1.0000   1.0000   1.0000   1.0000   1.0000   1.0000
     1.0000   1.0000   1.0000   1.0000   1.0000   1.0000   1.0000   1.0000
     1.0000   1.0000   1.0000   1.0000   1.0000   1.0000   1.0000   1.0000
     1.0000   1.0000   1.0000   1.0000   1.0000   1.0000   1.0000   1.0000
     1.0000   1.0000   1.0000   1.0000   1.0000   1.0000   1.0000   1.0000
     1.0000   1.0000   1.0000   1.0000   1.0000   1.0000   1.0000   1.0000
     1.0000   1.0000   1.0000   1.0000   1.0000   1.0000   1.0000   1.0000
     1.0000   1.0000   1.0000   1.0000   1.0000   1.0000   1.0000   1.0000
     1.0000   1.0000   1.0000   1.0000   1.0000   1.0000   1.0000   1.0000
     1.0000   1.0000   1.0000   1.0000   1.0000   1.0000   1.0000   1.0000
     1.0000   1.0000   1.0000   1.0000   1.0000   1.0000   1.0000   1.0000
     1.0000   1.0000   1.0000   1.0000   1.0000   1.0000   1.0000   1.0000
     1.0000   1.0000   1.0000   1.0000   1.0000   1.0000   1.0000   1.0000
     1.0000   1.0000   1.0000   1.0000   1.0000   1.0000   1.0000   1.0000
     1.0000   1.0000   1.0000   1.0000   1.0000   1.0000   1.0000   1.0000
     1.0000   1.0000   1.0000   1.0000   1.0000   1.0000   1.0000   1.0000
     1.0000   1.0000   1.0000   1.0000   1.0000   1.0000   1.0000   1.0000
     1.0000   1.0000   1.0000   1.0000   1.0000   1.0000   1.0000   1.0000
     1.0000   1.0000   0.0000

          k = 0.6000 0.1155 0.0000 (112237 PWs)   bands (ev):

   -73.8142 -73.8106 -73.8074 -73.8053 -73.8028 -73.8018 -73.7993 -73.7967
   -73.7943 -73.7897 -73.7884 -73.7870 -73.7829 -73.7419 -73.7323 -73.7294
   -38.1953 -38.1910 -38.1812 -38.1780 -38.1696 -38.1659 -38.1581 -38.1434
   -38.1401 -38.1231 -38.0870 -38.0844 -38.0785 -38.0437 -38.0416 -38.0360
   -38.0285 -38.0252 -38.0152 -38.0085 -38.0059 -38.0002 -37.9989 -37.9970
   -37.9946 -37.9920 -37.9899 -37.9859 -37.9822 -37.9768 -37.9696 -37.9657
   -37.9620 -37.9557 -37.9529 -37.9517 -37.9491 -37.9436 -37.9381 -37.9354
   -37.9300 -37.9248 -37.9199 -37.9179 -37.9054 -37.8883 -37.8770 -37.8646
   -21.5264 -15.4141 -14.3334 -14.2883 -14.1126 -13.5931 -13.3019 -13.2841
   -12.9622 -12.9385 -12.8778 -12.8579 -12.8250 -12.7995 -12.7949 -12.6642
   -12.6306 -12.5917 -12.5010 -12.4707 -12.3914 -12.3684 -12.3407 -12.3192
   -12.3085 -12.2983 -12.2618 -12.2333 -12.2287 -12.1293 -12.1192 -12.1131
   -12.0777 -12.0153  -7.9172  -7.5304  -6.1965  -6.0431  -6.0089  -5.9636
    -5.9208  -5.9030  -5.8737  -5.8315  -5.8042  -5.7460  -5.6842  -5.6189
    -5.6082  -5.5343  -5.3525  -5.2757  -5.2515  -5.2196  -5.1936  -5.1673
    -5.1443  -4.8510  -4.8348  -4.6876  -4.6407  -4.6027  -4.5455  -4.5090
    -4.4852  -4.4298  -4.3773  -4.3170  -4.2949  -4.2383  -4.2285  -4.1949
    -4.1861  -4.1635  -4.1171  -4.0929  -3.9537  -3.9430  -3.7819  -3.6603
    -3.6155  -3.5749  -3.4237  -3.3636  -3.3543  -3.3264  -3.2918  -3.2819
    -3.2788  -3.2551  -3.2396  -3.2285  -3.2164  -3.1964  -3.1708  -3.1362
    -3.0818  -3.0731  -3.0499  -3.0143  -2.9855  -2.9306  -2.8338  -2.7964
    -2.7351  -2.7135  -2.6910  -2.6364  -2.6175  -2.5430  -2.4959  -2.4508
    -2.3846  -2.3266  -2.3112  -2.2889  -2.2398  -2.1920  -2.1679  -2.1363
    -2.1131  -2.0936  -2.0711  -2.0309  -2.0063  -1.9735  -1.9581  -1.9455
    -1.9260  -1.8966  -1.8920  -1.8749  -1.8644  -1.8554  -1.8480  -1.8327
    -1.7991  -1.7861  -1.7405  -1.7220  -1.6907  -1.6804  -1.6491  -1.6295
    -1.6121  -1.5922  -1.5237  -1.5109  -1.4655  -1.4251  -1.3884  -1.3128
    -1.2750  -1.2186  -1.1519  -1.1311  -1.0910  -1.0459  -1.0104  -0.9715
    -0.8052  -0.7847  -0.6911  -0.6887  -0.6505  -0.6446  -0.5932  -0.5868
    -0.5437  -0.3940  -0.2747  -0.2609  -0.1665  -0.1160  -0.0693   0.1216
     0.1953   1.3657   1.7111

     occupation numbers 
     1.0000   1.0000   1.0000   1.0000   1.0000   1.0000   1.0000   1.0000
     1.0000   1.0000   1.0000   1.0000   1.0000   1.0000   1.0000   1.0000
     1.0000   1.0000   1.0000   1.0000   1.0000   1.0000   1.0000   1.0000
     1.0000   1.0000   1.0000   1.0000   1.0000   1.0000   1.0000   1.0000
     1.0000   1.0000   1.0000   1.0000   1.0000   1.0000   1.0000   1.0000
     1.0000   1.0000   1.0000   1.0000   1.0000   1.0000   1.0000   1.0000
     1.0000   1.0000   1.0000   1.0000   1.0000   1.0000   1.0000   1.0000
     1.0000   1.0000   1.0000   1.0000   1.0000   1.0000   1.0000   1.0000
     1.0000   1.0000   1.0000   1.0000   1.0000   1.0000   1.0000   1.0000
     1.0000   1.0000   1.0000   1.0000   1.0000   1.0000   1.0000   1.0000
     1.0000   1.0000   1.0000   1.0000   1.0000   1.0000   1.0000   1.0000
     1.0000   1.0000   1.0000   1.0000   1.0000   1.0000   1.0000   1.0000
     1.0000   1.0000   1.0000   1.0000   1.0000   1.0000   1.0000   1.0000
     1.0000   1.0000   1.0000   1.0000   1.0000   1.0000   1.0000   1.0000
     1.0000   1.0000   1.0000   1.0000   1.0000   1.0000   1.0000   1.0000
     1.0000   1.0000   1.0000   1.0000   1.0000   1.0000   1.0000   1.0000
     1.0000   1.0000   1.0000   1.0000   1.0000   1.0000   1.0000   1.0000
     1.0000   1.0000   1.0000   1.0000   1.0000   1.0000   1.0000   1.0000
     1.0000   1.0000   1.0000   1.0000   1.0000   1.0000   1.0000   1.0000
     1.0000   1.0000   1.0000   1.0000   1.0000   1.0000   1.0000   1.0000
     1.0000   1.0000   1.0000   1.0000   1.0000   1.0000   1.0000   1.0000
     1.0000   1.0000   1.0000   1.0000   1.0000   1.0000   1.0000   1.0000
     1.0000   1.0000   1.0000   1.0000   1.0000   1.0000   1.0000   1.0000
     1.0000   1.0000   1.0000   1.0000   1.0000   1.0000   1.0000   1.0000
     1.0000   1.0000   1.0000   1.0000   1.0000   1.0000   1.0000   1.0000
     1.0000   1.0000   1.0000   1.0000   1.0000   1.0000   1.0000   1.0000
     1.0000   1.0000   1.0000   1.0000   1.0000   1.0000   1.0000   1.0000
     1.0000   1.0000   1.0000   1.0000   1.0000   1.0000   1.0000   1.0000
     1.0000   1.0000   1.0000   1.0000   1.0000   1.0000   1.0000   1.0000
     1.0000   1.0000   1.0000   1.0000   1.0000   1.0000   1.0000   1.0000
     1.0000   1.0000   0.0000

     highest occupied, lowest unoccupied level (ev):     1.6167    1.6755

!    total energy              =  -16138.55547346 Ry
     total all-electron energy =   -595550.628679 Ry
     estimated scf accuracy    <          1.5E-11 Ry

     The total energy is the sum of the following terms:
     one-electron contribution =  -18312.00218203 Ry
     hartree contribution      =    9259.77525985 Ry
     xc contribution           =    -931.73755197 Ry
     ewald contribution        =    6415.39895900 Ry
     DFT-D3 Dispersion         =      -0.65557940 Ry
     one-center paw contrib.   =  -12569.33437892 Ry
      -> PAW hartree energy AE =      92.00281684 Ry
      -> PAW hartree energy PS =     -91.51076286 Ry
      -> PAW xc energy AE      =    -644.66491295 Ry
      -> PAW xc energy PS      =      38.62151364 Ry
      -> total E_H with PAW    =    9260.26731383 Ry
      -> total E_XC with PAW   =   -1537.78095129 Ry

     total magnetization       =     1.00 Bohr mag/cell
     absolute magnetization    =     1.12 Bohr mag/cell

     convergence has been achieved in  37 iterations

     negative rho (up, down):  4.797E-03 5.164E-03

     Forces acting on atoms (cartesian axes, Ry/au):

     atom    1 type  2   force =    -0.00000429   -0.00007880   -0.00014470
     atom    2 type  2   force =    -0.00019003    0.00001845    0.00012997
     atom    3 type  2   force =    -0.00025697   -0.00016546   -0.00000395
     atom    4 type  2   force =     0.00028286    0.00027778    0.00005097
     atom    5 type  2   force =    -0.00001239   -0.00022981    0.00000556
     atom    6 type  2   force =    -0.00002038    0.00005274   -0.00000197
     atom    7 type  2   force =     0.00005034   -0.00002008    0.00007967
     atom    8 type  2   force =     0.00013830    0.00007766    0.00007046
     atom    9 type  2   force =    -0.00021111   -0.00007692    0.00005671
     atom   10 type  2   force =     0.00009067    0.00010235    0.00009302
     atom   11 type  2   force =    -0.00005319    0.00021350    0.00000250
     atom   12 type  2   force =    -0.00000821    0.00006937   -0.00013255
     atom   13 type  2   force =    -0.00013457    0.00015584    0.00008077
     atom   14 type  2   force =     0.00011747    0.00001398    0.00000085
     atom   15 type  2   force =     0.00000083   -0.00016911   -0.00007148
     atom   16 type  2   force =    -0.00024330   -0.00015847   -0.00004722
     atom   17 type  1   force =    -0.00008957    0.00017408   -0.00002348
     atom   18 type  1   force =    -0.00005811   -0.00018570   -0.00006864
     atom   19 type  1   force =    -0.00010871    0.00010840   -0.00003399
     atom   20 type  1   force =     0.00012475   -0.00002051   -0.00006797
     atom   21 type  1   force =    -0.00008684    0.00000621    0.00005257
     atom   22 type  1   force =    -0.00002904    0.00000052   -0.00034396
     atom   23 type  1   force =    -0.00006080    0.00002731    0.00005842
     atom   24 type  1   force =     0.00012346    0.00000135    0.00001320
     atom   25 type  1   force =    -0.00001939   -0.00003917    0.00001733
     atom   26 type  1   force =     0.00005034   -0.00007674   -0.00008542
     atom   27 type  1   force =     0.00009452    0.00007158   -0.00001840
     atom   28 type  1   force =    -0.00027936    0.00002808   -0.00036838
     atom   29 type  1   force =    -0.00002100   -0.00012596   -0.00012870
     atom   30 type  1   force =    -0.00007499   -0.00000631    0.00008258
     atom   31 type  1   force =    -0.00020848   -0.00006384   -0.00004746
     atom   32 type  1   force =     0.00025407    0.00007913   -0.00017026
     atom   33 type  1   force =     0.00002511    0.00005135   -0.00015699
     atom   34 type  1   force =     0.00000940    0.00006371    0.00004333
     atom   35 type  1   force =     0.00002249   -0.00000077   -0.00003421
     atom   36 type  1   force =    -0.00003555   -0.00004493    0.00004684
     atom   37 type  1   force =    -0.00011251    0.00001520   -0.00012270
     atom   38 type  1   force =     0.00009009   -0.00016102    0.00001075
     atom   39 type  1   force =     0.00014699    0.00003321    0.00003539
     atom   40 type  1   force =     0.00011142   -0.00003049    0.00007201
     atom   41 type  1   force =    -0.00011689    0.00005039    0.00006669
     atom   42 type  1   force =     0.00004473    0.00005751    0.00000146
     atom   43 type  1   force =    -0.00025074    0.00000693    0.00014983
     atom   44 type  1   force =    -0.00007735    0.00009908   -0.00036805
     atom   45 type  1   force =    -0.00009869   -0.00004370    0.00005433
     atom   46 type  1   force =     0.00000908    0.00003944   -0.00015344
     atom   47 type  1   force =    -0.00004623   -0.00017275   -0.00016053
     atom   48 type  1   force =    -0.00002841    0.00004889    0.00015290
     atom   49 type  3   force =     0.00106460   -0.00001098   -0.00033929
     atom   50 type  3   force =    -0.00034341   -0.00077267    0.00058580
     atom   51 type  3   force =    -0.00032720   -0.00009783   -0.00013065
     atom   52 type  3   force =     0.00044215    0.00032466    0.00052705
     atom   53 type  3   force =    -0.00012094    0.00039595    0.00012507
     atom   54 type  4   force =     0.00184238   -0.00067509    0.00369520
     atom   55 type  5   force =     0.00281988    0.00086071   -0.00155951
     atom   56 type  6   force =     0.00057417    0.00023916   -0.00013989
     atom   57 type  6   force =    -0.00501839   -0.00027753   -0.00199083
     atom   58 type  6   force =     0.00021696   -0.00005982    0.00055341
     The non-local contrib.  to forces
     atom    1 type  2   force =    -0.00047458    0.00023911   -0.00009400
     atom    2 type  2   force =     0.00035798   -0.00015070   -0.00019674
     atom    3 type  2   force =    -0.00389817   -0.00385748    0.00603363
     atom    4 type  2   force =    -0.00236771   -0.00004678    0.00309397
     atom    5 type  2   force =    -0.00055066    0.00926455    0.00835855
     atom    6 type  2   force =     0.00405518   -0.00044369    0.01270972
     atom    7 type  2   force =     0.00360135   -0.00282011    0.00571499
     atom    8 type  2   force =     0.00048293    0.00022208    0.00051764
     atom    9 type  2   force =     0.00018462    0.00103266    0.00331680
     atom   10 type  2   force =    -0.00362875    0.00166085    0.01381752
     atom   11 type  2   force =    -0.00040693   -0.00030996    0.01551258
     atom   12 type  2   force =     0.00588988   -0.00340765    0.00757310
     atom   13 type  2   force =    -0.00013315    0.00028648   -0.00031812
     atom   14 type  2   force =     0.00074568    0.00161886    0.00307500
     atom   15 type  2   force =    -0.00071979   -0.00209769    0.00704144
     atom   16 type  2   force =    -0.00286183   -0.00023464    0.00573475
     atom   17 type  1   force =     0.00084135    0.00126780   -0.27571732
     atom   18 type  1   force =     0.00428713    0.00239865   -0.27657950
     atom   19 type  1   force =     0.00094292    0.00009390   -0.27534790
     atom   20 type  1   force =    -0.00088212   -0.00063974   -0.27641865
     atom   21 type  1   force =    -0.00027036    0.00141310   -0.27545864
     atom   22 type  1   force =     0.01183413    0.02356616   -0.15679050
     atom   23 type  1   force =    -0.00168062   -0.00215672   -0.18668072
     atom   24 type  1   force =     0.00274091   -0.00127896   -0.27539228
     atom   25 type  1   force =     0.00010721   -0.00086536   -0.27675135
     atom   26 type  1   force =     0.00288418    0.00952062   -0.25648573
     atom   27 type  1   force =     0.01819372    0.00620637   -0.22549845
     atom   28 type  1   force =     0.01934831   -0.01742593   -0.19306283
     atom   29 type  1   force =     0.00088979   -0.00184271   -0.27491946
     atom   30 type  1   force =    -0.00195873    0.00125355   -0.27605446
     atom   31 type  1   force =    -0.02392650   -0.01162082   -0.21284657
     atom   32 type  1   force =    -0.00973411   -0.00786709   -0.24421512
     atom   33 type  1   force =    -0.00022865    0.00030979    0.27622974
     atom   34 type  1   force =     0.00171849    0.00243184    0.27673645
     atom   35 type  1   force =     0.00153983   -0.00049378    0.27628471
     atom   36 type  1   force =    -0.00083347   -0.00082537    0.27581609
     atom   37 type  1   force =     0.00033153    0.00196946    0.27562028
     atom   38 type  1   force =     0.00295552    0.00258385    0.27716673
     atom   39 type  1   force =     0.00248634    0.00067108    0.27703975
     atom   40 type  1   force =     0.00205315   -0.00164126    0.27530829
     atom   41 type  1   force =     0.00021961    0.00048319    0.27665346
     atom   42 type  1   force =    -0.00264125    0.00246916    0.27560287
     atom   43 type  1   force =    -0.00192295   -0.00055642    0.27975639
     atom   44 type  1   force =     0.00088867   -0.00429718    0.27701962
     atom   45 type  1   force =    -0.00063568   -0.00172424    0.27610380
     atom   46 type  1   force =    -0.00124696   -0.00047737    0.27628228
     atom   47 type  1   force =    -0.00342080   -0.00008859    0.27526666
     atom   48 type  1   force =    -0.00234618   -0.00163622    0.27541134
     atom   49 type  3   force =    -0.18495229    0.03151308   -0.05994154
     atom   50 type  3   force =    -0.00810677   -0.13029796   -0.07508421
     atom   51 type  3   force =     0.19373284   -0.01621797   -0.09600315
     atom   52 type  3   force =     0.02023124    0.14044840   -0.09320200
     atom   53 type  3   force =     0.02034077    0.02842485    0.14862903
     atom   54 type  4   force =    -0.86288951   -0.27472135    0.93264138
     atom   55 type  5   force =     1.90443697    0.53686076   -1.50205293
     atom   56 type  6   force =    -0.00668556   -0.07206004   -0.06509618
     atom   57 type  6   force =     0.00935430   -0.01502724    0.09985141
     atom   58 type  6   force =    -0.02963833    0.08340761   -0.04091458
     The ionic contribution  to forces
     atom    1 type  2   force =    -0.93934839   -0.19548973   -8.51215171
     atom    2 type  2   force =    -0.97103733   -1.15695102   -8.87973509
     atom    3 type  2   force =     1.92243991    0.65017003   -9.43960245
     atom    4 type  2   force =     1.76665433    1.72478562   -9.24158050
     atom    5 type  2   force =    -0.76035204   -3.39400350  -10.32555338
     atom    6 type  2   force =    -3.93418158   -3.11184474  -14.38133176
     atom    7 type  2   force =    -3.78926059    1.11533625  -12.06286132
     atom    8 type  2   force =    -0.45957160    0.22248354   -8.34401695
     atom    9 type  2   force =     1.12836028   -2.55058776  -10.29925006
     atom   10 type  2   force =     1.18894452   -3.57210840  -19.43192037
     atom   11 type  2   force =    -2.00152953    2.17451493  -20.50233486
     atom   12 type  2   force =    -1.90171283    2.98569005  -10.56664479
     atom   13 type  2   force =     0.52982220    0.57654013   -8.41979897
     atom   14 type  2   force =     3.83247820   -2.05746658  -11.86153931
     atom   15 type  2   force =     3.84733278    1.90219579  -17.31847588
     atom   16 type  2   force =     0.57167557    4.70775351  -12.98751182
     atom   17 type  1   force =    -0.14017824   -0.66144339   32.26074494
     atom   18 type  1   force =    -2.24133132   -1.69642252   31.29345863
     atom   19 type  1   force =    -1.12773736    0.05266804   31.69883954
     atom   20 type  1   force =     1.01162537    0.86389852   32.41893442
     atom   21 type  1   force =     0.17393625   -1.94608077   32.03451650
     atom   22 type  1   force =    -2.23793724   -5.30497799   25.62143973
     atom   23 type  1   force =    -4.76151631    0.06295300   24.69073603
     atom   24 type  1   force =    -2.11330044    1.73108491   31.40517875
     atom   25 type  1   force =    -0.02601275    0.43238014   32.25584240
     atom   26 type  1   force =     2.91775413   -4.06831799   28.41109956
     atom   27 type  1   force =     1.27437058   -0.00846629   20.49339753
     atom   28 type  1   force =    -2.26289192    5.24412918   26.48512725
     atom   29 type  1   force =     0.01964630    1.75668025   32.08045769
     atom   30 type  1   force =     1.12886067   -0.96849998   32.14847530
     atom   31 type  1   force =     4.85905010    0.33658459   28.22792988
     atom   32 type  1   force =     3.17860457    3.98405130   28.83912235
     atom   33 type  1   force =    -0.05127942   -0.12669629  -39.08006878
     atom   34 type  1   force =    -0.56950567   -0.42786303  -39.19370945
     atom   35 type  1   force =    -0.28918219   -0.04256846  -39.24749688
     atom   36 type  1   force =     0.27303271    0.22243058  -39.08994311
     atom   37 type  1   force =    -0.01843670   -0.48728741  -39.20273838
     atom   38 type  1   force =    -0.41734567   -0.93190070  -40.31573812
     atom   39 type  1   force =    -0.91003708   -0.05707806  -40.68653368
     atom   40 type  1   force =    -0.52227076    0.40398811  -39.34397481
     atom   41 type  1   force =     0.05823878    0.12834897  -39.16754372
     atom   42 type  1   force =     0.64044427   -0.72205164  -40.20945702
     atom   43 type  1   force =     0.29417485    0.05133014  -41.17802420
     atom   44 type  1   force =    -0.25867040    0.97341825  -40.32986598
     atom   45 type  1   force =     0.01554496    0.50327307  -39.10191144
     atom   46 type  1   force =     0.32791737   -0.23269996  -39.01139307
     atom   47 type  1   force =     0.88000771   -0.02484632  -39.93818497
     atom   48 type  1   force =     0.55136100    0.76664223  -40.07740835
     atom   49 type  3   force =   -21.27662292    3.68353723   58.89115191
     atom   50 type  3   force =    -1.57962908  -20.68601374   58.08156707
     atom   51 type  3   force =    21.71913118   -2.58729881   61.19656783
     atom   52 type  3   force =     2.76351630   20.98170962   58.84190715
     atom   53 type  3   force =     7.93195125    2.07192792   63.36560156
     atom   54 type  4   force =     4.42583789    0.01990181   20.59130412
     atom   55 type  5   force =   -13.40376650   -2.91639547   24.87141693
     atom   56 type  6   force =     0.54200671    2.65516499    5.38898766
     atom   57 type  6   force =    -2.19119736    0.17333911    1.33468461
     atom   58 type  6   force =     1.38112254   -3.22355129    4.81981181
     The local contribution  to forces
     atom    1 type  2   force =     0.93941770    0.19563110    8.51207936
     atom    2 type  2   force =     0.97053390    1.15659441    8.87981227
     atom    3 type  2   force =    -1.91913679   -0.64711912    9.43432821
     atom    4 type  2   force =    -1.76440194   -1.72433803    9.23885149
     atom    5 type  2   force =     0.76049379    3.38456889   10.31682488
     atom    6 type  2   force =     3.92937426    3.11086355   14.36623043
     atom    7 type  2   force =     3.78436255   -1.11220850   12.05551916
     atom    8 type  2   force =     0.45917645   -0.22272475    8.34396379
     atom    9 type  2   force =    -1.12850741    2.54898886   10.29548075
     atom   10 type  2   force =    -1.18509904    3.57097206   19.41520292
     atom   11 type  2   force =     2.00262810   -2.17380644   20.48193073
     atom   12 type  2   force =     1.89602700   -2.98206977   10.55868487
     atom   13 type  2   force =    -0.52959635   -0.57638430    8.41992957
     atom   14 type  2   force =    -3.83158678    2.05562214   11.85634673
     atom   15 type  2   force =    -3.84604575   -1.90006282   17.30681704
     atom   16 type  2   force =    -0.56916482   -4.70604623   12.97944331
     atom   17 type  1   force =     0.13921607    0.66011218  -31.98643678
     atom   18 type  1   force =     2.23634358    1.69333888  -31.01878386
     atom   19 type  1   force =     1.12639349   -0.05259064  -31.42515440
     atom   20 type  1   force =    -1.01025590   -0.86297384  -32.14398595
     atom   21 type  1   force =    -0.17364859    1.94406144  -31.76047007
     atom   22 type  1   force =     2.22599973    5.28067774  -25.46449888
     atom   23 type  1   force =     4.76174521   -0.06082635  -24.50367841
     atom   24 type  1   force =     2.10998501   -1.72924403  -31.13156512
     atom   25 type  1   force =     0.02577876   -0.43141420  -31.98046363
     atom   26 type  1   force =    -2.92075932    4.05920663  -28.15464573
     atom   27 type  1   force =    -1.29110550    0.00196283  -20.26628761
     atom   28 type  1   force =     2.24378560   -5.22605241  -26.29229625
     atom   29 type  1   force =    -0.02048585   -1.75445003  -31.80709944
     atom   30 type  1   force =    -1.12662120    0.96695353  -31.87380121
     atom   31 type  1   force =    -4.83539355   -0.32546088  -28.01464247
     atom   32 type  1   force =    -3.16938164   -3.97572671  -28.59526888
     atom   33 type  1   force =     0.05150008    0.12642707   38.80465844
     atom   34 type  1   force =     0.56780008    0.42554604   38.91801968
     atom   35 type  1   force =     0.28767233    0.04302467   38.97214450
     atom   36 type  1   force =    -0.27226452   -0.22168410   38.81515293
     atom   37 type  1   force =     0.01800471    0.48541371   38.92795700
     atom   38 type  1   force =     0.41446647    0.92913452   40.03935819
     atom   39 type  1   force =     0.90764614    0.05642870   40.41030206
     atom   40 type  1   force =     0.52042264   -0.40240046   39.06968536
     atom   41 type  1   force =    -0.05853548   -0.12875170   38.89194697
     atom   42 type  1   force =    -0.63772584    0.71964798   39.93466586
     atom   43 type  1   force =    -0.29251508   -0.05076427   40.89919364
     atom   44 type  1   force =     0.25771319   -0.96901582   40.05327830
     atom   45 type  1   force =    -0.01502578   -0.50160119   38.82685212
     atom   46 type  1   force =    -0.32670043    0.23319319   38.73596323
     atom   47 type  1   force =    -0.87666991    0.02472742   39.66355194
     atom   48 type  1   force =    -0.54903820   -0.76493788   39.80292756
     atom   49 type  3   force =    21.45924102   -3.71384471  -58.82059400
     atom   50 type  3   force =     1.59125235   20.81524109  -57.99670537
     atom   51 type  3   force =   -21.90994063    2.60198324  -61.09358719
     atom   52 type  3   force =    -2.78057709  -21.11966453  -58.73982576
     atom   53 type  3   force =    -7.95086158   -2.09899237  -63.50851296
     atom   54 type  4   force =    -3.57900610    0.24952021  -21.50719993
     atom   55 type  5   force =    11.52106016    2.38509441  -23.38166137
     atom   56 type  6   force =    -0.53480402   -2.58299719   -5.32424293
     atom   57 type  6   force =     2.17702988   -0.15845051   -1.43660302
     atom   58 type  6   force =    -1.35138459    3.14030650   -4.77848444
     The core correction contribution to forces
     atom    1 type  2   force =     0.00025955   -0.00048967   -0.00037524
     atom    2 type  2   force =    -0.00015564    0.00035602   -0.00024305
     atom    3 type  2   force =     0.00079734    0.00078258   -0.00149985
     atom    4 type  2   force =     0.00075023    0.00026063   -0.00095129
     atom    5 type  2   force =     0.00021005   -0.00077903   -0.00060695
     atom    6 type  2   force =    -0.00028712    0.00077032   -0.00009489
     atom    7 type  2   force =     0.00051048   -0.00013717    0.00031923
     atom    8 type  2   force =    -0.00002364    0.00012204   -0.00061768
     atom    9 type  2   force =     0.00000870   -0.00005590   -0.00027196
     atom   10 type  2   force =    -0.00007222   -0.00142547    0.00039481
     atom   11 type  2   force =    -0.00121397    0.00051016    0.00110274
     atom   12 type  2   force =    -0.00068050    0.00050174   -0.00079346
     atom   13 type  2   force =    -0.00018213   -0.00017960   -0.00006078
     atom   14 type  2   force =    -0.00063551   -0.00026369    0.00047230
     atom   15 type  2   force =     0.00047356    0.00032366    0.00113473
     atom   16 type  2   force =     0.00025947   -0.00056081    0.00045795
     atom   17 type  1   force =    -0.00005247   -0.00000713    0.00196474
     atom   18 type  1   force =    -0.00015882   -0.00008365    0.00203952
     atom   19 type  1   force =    -0.00004804   -0.00005475    0.00197254
     atom   20 type  1   force =    -0.00000397    0.00000147    0.00199040
     atom   21 type  1   force =    -0.00003852   -0.00003559    0.00197250
     atom   22 type  1   force =    -0.00009331   -0.00041909   -0.00040061
     atom   23 type  1   force =     0.00004698    0.00006972   -0.00004232
     atom   24 type  1   force =    -0.00006719    0.00004241    0.00198169
     atom   25 type  1   force =     0.00005176    0.00002258    0.00198630
     atom   26 type  1   force =    -0.00002205   -0.00024198    0.00142928
     atom   27 type  1   force =    -0.00046057   -0.00005948    0.00111571
     atom   28 type  1   force =    -0.00030209    0.00037768    0.00019963
     atom   29 type  1   force =    -0.00002117    0.00009988    0.00197935
     atom   30 type  1   force =     0.00007971   -0.00003687    0.00200963
     atom   31 type  1   force =     0.00052037    0.00026229    0.00063885
     atom   32 type  1   force =     0.00016304    0.00019620    0.00123024
     atom   33 type  1   force =     0.00001672   -0.00000372   -0.00193207
     atom   34 type  1   force =    -0.00003149   -0.00005379   -0.00198913
     atom   35 type  1   force =     0.00000262    0.00003604   -0.00193392
     atom   36 type  1   force =     0.00001932    0.00002511   -0.00191730
     atom   37 type  1   force =     0.00000514   -0.00004332   -0.00192645
     atom   38 type  1   force =     0.00001033    0.00001102   -0.00197476
     atom   39 type  1   force =     0.00002947    0.00002693   -0.00198073
     atom   40 type  1   force =    -0.00005813    0.00000897   -0.00192230
     atom   41 type  1   force =    -0.00003619   -0.00001292   -0.00194789
     atom   42 type  1   force =    -0.00002448   -0.00003872   -0.00193347
     atom   43 type  1   force =     0.00000260   -0.00001126   -0.00220902
     atom   44 type  1   force =    -0.00002584    0.00001940   -0.00198811
     atom   45 type  1   force =     0.00001193    0.00001599   -0.00195964
     atom   46 type  1   force =     0.00003334    0.00000917   -0.00196700
     atom   47 type  1   force =     0.00004967    0.00003143   -0.00190579
     atom   48 type  1   force =     0.00002346    0.00000560   -0.00189419
     atom   49 type  3   force =     0.00426155   -0.00133463   -0.00310102
     atom   50 type  3   force =    -0.00144976    0.00370097   -0.00371132
     atom   51 type  3   force =    -0.00464188    0.00092632   -0.00153708
     atom   52 type  3   force =    -0.00175289   -0.00488946   -0.00188294
     atom   53 type  3   force =    -0.00272646   -0.00114721   -0.00363171
     atom   54 type  4   force =     0.01779971    0.00454780   -0.01230507
     atom   55 type  5   force =    -0.01860830   -0.00475584    0.01172338
     atom   56 type  6   force =     0.00000000    0.00000000    0.00000000
     atom   57 type  6   force =     0.00000000    0.00000000    0.00000000
     atom   58 type  6   force =     0.00000000    0.00000000    0.00000000
     The Hubbard contrib.    to forces
     atom    1 type  2   force =     0.00000000    0.00000000    0.00000000
     atom    2 type  2   force =     0.00000000    0.00000000    0.00000000
     atom    3 type  2   force =     0.00000000    0.00000000    0.00000000
     atom    4 type  2   force =     0.00000000    0.00000000    0.00000000
     atom    5 type  2   force =     0.00000000    0.00000000    0.00000000
     atom    6 type  2   force =     0.00000000    0.00000000    0.00000000
     atom    7 type  2   force =     0.00000000    0.00000000    0.00000000
     atom    8 type  2   force =     0.00000000    0.00000000    0.00000000
     atom    9 type  2   force =     0.00000000    0.00000000    0.00000000
     atom   10 type  2   force =     0.00000000    0.00000000    0.00000000
     atom   11 type  2   force =     0.00000000    0.00000000    0.00000000
     atom   12 type  2   force =     0.00000000    0.00000000    0.00000000
     atom   13 type  2   force =     0.00000000    0.00000000    0.00000000
     atom   14 type  2   force =     0.00000000    0.00000000    0.00000000
     atom   15 type  2   force =     0.00000000    0.00000000    0.00000000
     atom   16 type  2   force =     0.00000000    0.00000000    0.00000000
     atom   17 type  1   force =     0.00000000    0.00000000    0.00000000
     atom   18 type  1   force =     0.00000000    0.00000000    0.00000000
     atom   19 type  1   force =     0.00000000    0.00000000    0.00000000
     atom   20 type  1   force =     0.00000000    0.00000000    0.00000000
     atom   21 type  1   force =     0.00000000    0.00000000    0.00000000
     atom   22 type  1   force =     0.00000000    0.00000000    0.00000000
     atom   23 type  1   force =     0.00000000    0.00000000    0.00000000
     atom   24 type  1   force =     0.00000000    0.00000000    0.00000000
     atom   25 type  1   force =     0.00000000    0.00000000    0.00000000
     atom   26 type  1   force =     0.00000000    0.00000000    0.00000000
     atom   27 type  1   force =     0.00000000    0.00000000    0.00000000
     atom   28 type  1   force =     0.00000000    0.00000000    0.00000000
     atom   29 type  1   force =     0.00000000    0.00000000    0.00000000
     atom   30 type  1   force =     0.00000000    0.00000000    0.00000000
     atom   31 type  1   force =     0.00000000    0.00000000    0.00000000
     atom   32 type  1   force =     0.00000000    0.00000000    0.00000000
     atom   33 type  1   force =     0.00000000    0.00000000    0.00000000
     atom   34 type  1   force =     0.00000000    0.00000000    0.00000000
     atom   35 type  1   force =     0.00000000    0.00000000    0.00000000
     atom   36 type  1   force =     0.00000000    0.00000000    0.00000000
     atom   37 type  1   force =     0.00000000    0.00000000    0.00000000
     atom   38 type  1   force =     0.00000000    0.00000000    0.00000000
     atom   39 type  1   force =     0.00000000    0.00000000    0.00000000
     atom   40 type  1   force =     0.00000000    0.00000000    0.00000000
     atom   41 type  1   force =     0.00000000    0.00000000    0.00000000
     atom   42 type  1   force =     0.00000000    0.00000000    0.00000000
     atom   43 type  1   force =     0.00000000    0.00000000    0.00000000
     atom   44 type  1   force =     0.00000000    0.00000000    0.00000000
     atom   45 type  1   force =     0.00000000    0.00000000    0.00000000
     atom   46 type  1   force =     0.00000000    0.00000000    0.00000000
     atom   47 type  1   force =     0.00000000    0.00000000    0.00000000
     atom   48 type  1   force =     0.00000000    0.00000000    0.00000000
     atom   49 type  3   force =     0.00000000    0.00000000    0.00000000
     atom   50 type  3   force =     0.00000000    0.00000000    0.00000000
     atom   51 type  3   force =     0.00000000    0.00000000    0.00000000
     atom   52 type  3   force =     0.00000000    0.00000000    0.00000000
     atom   53 type  3   force =     0.00000000    0.00000000    0.00000000
     atom   54 type  4   force =     0.00000000    0.00000000    0.00000000
     atom   55 type  5   force =     0.00000000    0.00000000    0.00000000
     atom   56 type  6   force =     0.00000000    0.00000000    0.00000000
     atom   57 type  6   force =     0.00000000    0.00000000    0.00000000
     atom   58 type  6   force =     0.00000000    0.00000000    0.00000000
     The SCF correction term to forces
     atom    1 type  2   force =     0.00000095   -0.00000012   -0.00000019
     atom    2 type  2   force =    -0.00000172    0.00000114   -0.00000035
     atom    3 type  2   force =    -0.00000168   -0.00000017    0.00000004
     atom    4 type  2   force =     0.00000076   -0.00000167    0.00000014
     atom    5 type  2   force =     0.00000173    0.00000101   -0.00000018
     atom    6 type  2   force =     0.00000233    0.00000014   -0.00000025
     atom    7 type  2   force =    -0.00000066    0.00000028   -0.00000031
     atom    8 type  2   force =    -0.00000054    0.00000039   -0.00000026
     atom    9 type  2   force =    -0.00000095    0.00000186   -0.00000029
     atom   10 type  2   force =     0.00000114    0.00000049   -0.00000007
     atom   11 type  2   force =     0.00000210   -0.00000158    0.00000005
     atom   12 type  2   force =    -0.00000090    0.00000035   -0.00000012
     atom   13 type  2   force =    -0.00000194    0.00000133   -0.00000002
     atom   14 type  2   force =    -0.00000191    0.00000085   -0.00000011
     atom   15 type  2   force =     0.00000012   -0.00000176    0.00000012
     atom   16 type  2   force =     0.00000076   -0.00000222    0.00000007
     atom   17 type  1   force =     0.00000074   -0.00000036    0.00000157
     atom   18 type  1   force =     0.00000043    0.00000058    0.00000148
     atom   19 type  1   force =    -0.00000056    0.00000022    0.00000125
     atom   20 type  1   force =    -0.00000021   -0.00000021    0.00000110
     atom   21 type  1   force =     0.00000013    0.00000038    0.00000096
     atom   22 type  1   force =     0.00000085    0.00000047    0.00000063
     atom   23 type  1   force =     0.00000051   -0.00000029    0.00000111
     atom   24 type  1   force =    -0.00000028    0.00000016    0.00000130
     atom   25 type  1   force =    -0.00000065    0.00000039    0.00000116
     atom   26 type  1   force =    -0.00000027    0.00000067    0.00000024
     atom   27 type  1   force =     0.00000081   -0.00000052    0.00000037
     atom   28 type  1   force =     0.00000033   -0.00000044    0.00000123
     atom   29 type  1   force =    -0.00000025   -0.00000039    0.00000173
     atom   30 type  1   force =    -0.00000098    0.00000065    0.00000098
     atom   31 type  1   force =    -0.00000071   -0.00000023    0.00000047
     atom   32 type  1   force =     0.00000021   -0.00000107    0.00000078
     atom   33 type  1   force =     0.00000077   -0.00000028   -0.00000158
     atom   34 type  1   force =     0.00000041    0.00000059   -0.00000158
     atom   35 type  1   force =    -0.00000047    0.00000021   -0.00000129
     atom   36 type  1   force =    -0.00000008   -0.00000018   -0.00000109
     atom   37 type  1   force =     0.00000014    0.00000033   -0.00000100
     atom   38 type  1   force =     0.00000074    0.00000039   -0.00000055
     atom   39 type  1   force =     0.00000035   -0.00000035   -0.00000117
     atom   40 type  1   force =    -0.00000035    0.00000015   -0.00000148
     atom   41 type  1   force =    -0.00000070    0.00000036   -0.00000120
     atom   42 type  1   force =    -0.00000025    0.00000049   -0.00000006
     atom   43 type  1   force =     0.00000066   -0.00000049   -0.00000009
     atom   44 type  1   force =     0.00000020   -0.00000036   -0.00000129
     atom   45 type  1   force =    -0.00000020   -0.00000030   -0.00000173
     atom   46 type  1   force =    -0.00000089    0.00000065   -0.00000093
     atom   47 type  1   force =    -0.00000056   -0.00000021   -0.00000020
     atom   48 type  1   force =     0.00000022   -0.00000096   -0.00000072
     atom   49 type  3   force =     0.00000073   -0.00000040    0.00000056
     atom   50 type  3   force =     0.00000069   -0.00000005    0.00000016
     atom   51 type  3   force =     0.00000032   -0.00000038    0.00000015
     atom   52 type  3   force =     0.00000063   -0.00000092    0.00000045
     atom   53 type  3   force =     0.00000041   -0.00000020   -0.00000033
     atom   54 type  4   force =    -0.00000008   -0.00000003   -0.00000011
     atom   55 type  5   force =     0.00000009   -0.00000004    0.00000002
     atom   56 type  6   force =    -0.00000000    0.00000001   -0.00000000
     atom   57 type  6   force =     0.00000003   -0.00000002    0.00000006
     atom   58 type  6   force =    -0.00000000   -0.00000002   -0.00000001

     DFT-D3 dispersion contribution to forces:
     atom    1 type  2   force =     0.00014031    0.00003168    0.00039725
     atom    2 type  2   force =     0.00011260    0.00016976    0.00049311
     atom    3 type  2   force =    -0.00045775   -0.00014014    0.00073665
     atom    4 type  2   force =    -0.00035298   -0.00038083    0.00063736
     atom    5 type  2   force =     0.00018456    0.00071943    0.00098283
     atom    6 type  2   force =     0.00101636    0.00070834    0.00248498
     atom    7 type  2   force =     0.00083703   -0.00018965    0.00138811
     atom    8 type  2   force =     0.00007452   -0.00002447    0.00022410
     atom    9 type  2   force =    -0.00025652    0.00054452    0.00078166
     atom   10 type  2   force =    -0.00005515    0.00100398    0.00259840
     atom   11 type  2   force =     0.00046687   -0.00069245    0.00379146
     atom   12 type  2   force =     0.00046897   -0.00064419    0.00104803
     atom   13 type  2   force =    -0.00004338   -0.00010704    0.00032927
     atom   14 type  2   force =    -0.00088238    0.00050356    0.00164642
     atom   15 type  2   force =    -0.00104027   -0.00052511    0.00341126
     atom   16 type  2   force =    -0.00015261   -0.00106692    0.00182870
     atom   17 type  1   force =     0.00008280    0.00024614   -0.00058045
     atom   18 type  1   force =     0.00080073    0.00058353   -0.00020472
     atom   19 type  1   force =     0.00034067   -0.00000720   -0.00034484
     atom   20 type  1   force =    -0.00035860   -0.00030555   -0.00058911
     atom   21 type  1   force =    -0.00006592    0.00064882   -0.00050850
     atom   22 type  1   force =     0.00016662    0.00115440   -0.00009414
     atom   23 type  1   force =     0.00134324   -0.00001088   -0.00027709
     atom   24 type  1   force =     0.00076529   -0.00060196   -0.00019094
     atom   25 type  1   force =     0.00005611   -0.00016156   -0.00059738
     atom   26 type  1   force =     0.00019349   -0.00024352   -0.00148285
     atom   27 type  1   force =    -0.00090469    0.00042983   -0.00274576
     atom   28 type  1   force =    -0.00021975   -0.00099884   -0.00033722
     atom   29 type  1   force =    -0.00005000   -0.00061179   -0.00054837
     atom   30 type  1   force =    -0.00043463    0.00032398   -0.00054747
     atom   31 type  1   force =    -0.00045837    0.00017238   -0.00112744
     atom   32 type  1   force =     0.00060184   -0.00057234   -0.00103945
     atom   33 type  1   force =     0.00001543    0.00001595    0.00095744
     atom   34 type  1   force =     0.00002742    0.00000324    0.00098754
     atom   35 type  1   force =    -0.00000980    0.00000172    0.00096885
     atom   36 type  1   force =     0.00001033    0.00001019    0.00093951
     atom   37 type  1   force =    -0.00001751   -0.00003640    0.00096603
     atom   38 type  1   force =     0.00000253    0.00001107    0.00119946
     atom   39 type  1   force =     0.00002160   -0.00001393    0.00120935
     atom   40 type  1   force =    -0.00003531    0.00001516    0.00097713
     atom   41 type  1   force =    -0.00000308   -0.00001634    0.00095927
     atom   42 type  1   force =    -0.00000790    0.00003142    0.00112347
     atom   43 type  1   force =     0.00000900    0.00001039    0.00143329
     atom   44 type  1   force =     0.00001666   -0.00002404    0.00118960
     atom   45 type  1   force =     0.00000591   -0.00000586    0.00097140
     atom   46 type  1   force =     0.00000648    0.00001492    0.00096223
     atom   47 type  1   force =    -0.00001251    0.00000469    0.00111201
     atom   48 type  1   force =    -0.00002887   -0.00002272    0.00111744
     atom   49 type  3   force =    -0.00086367    0.00011962   -0.00785500
     atom   50 type  3   force =    -0.00241100   -0.00340181   -0.00548034
     atom   51 type  3   force =     0.00139080    0.00051092   -0.00557103
     atom   52 type  3   force =    -0.00097622    0.00272272   -0.00646966
     atom   53 type  3   force =     0.00117450    0.00018413   -0.00196033
     atom   54 type  4   force =     0.00010029    0.00007763   -0.00074500
     atom   55 type  5   force =    -0.00030271    0.00005805   -0.00098535
     atom   56 type  6   force =     0.00005686    0.00013256    0.00021174
     atom   57 type  6   force =    -0.00020541   -0.00013772    0.00007629
     atom   58 type  6   force =     0.00011718   -0.00022146    0.00014081

     Total force =     0.007990     Total SCF correction =     0.000011

     DFT-D3 dispersion Force =     0.017430


     Computing stress (Cartesian axis) and pressure


     negative rho (up, down):  4.797E-03 5.164E-03
          total   stress  (Ry/bohr**3)                   (kbar)     P=       -1.46
  -0.00001002  -0.00000094   0.00000112           -1.47       -0.14        0.16
  -0.00000094  -0.00000944   0.00000010           -0.14       -1.39        0.01
   0.00000112   0.00000010  -0.00001027            0.16        0.01       -1.51

     kinetic stress (kbar)   7256.44     -1.18     -9.10
                               -1.18   7272.96     -0.30
                               -9.10     -0.30   7301.46

     local   stress (kbar)-135460.85    -63.94    519.74
                              -63.94-134008.03    220.13
                              519.74    220.13 134097.97

     nonloc. stress (kbar)  -1419.18     -0.12      0.33
                               -0.12  -1420.41      0.32
                                0.33      0.32  -1427.28

     hartree stress (kbar)  68217.03     29.49   -249.27
                               29.49  67561.32   -102.90
                             -249.27   -102.90 -63300.19

     exc-cor stress (kbar)   2000.76      0.01     -0.00
                                0.01   2000.33     -0.04
                               -0.00     -0.04   2000.29

     corecor stress (kbar)  -3626.55      0.04      0.05
                                0.04  -3626.83      0.01
                                0.05      0.01  -3627.24

     ewald   stress (kbar)  63035.14     35.54   -261.55
                               35.54  62223.48   -117.20
                             -261.55   -117.20 -75043.98

     hubbard stress (kbar)      0.00      0.00      0.00
                                0.00      0.00      0.00
                                0.00      0.00      0.00

     DFT-D   stress (kbar)     -4.26      0.02     -0.04
                                0.02     -4.22      0.01
                               -0.04      0.01     -2.55

     XDM     stress (kbar)      0.00      0.00      0.00
                                0.00      0.00      0.00
                                0.00      0.00      0.00

     dft-nl  stress (kbar)      0.00      0.00      0.00
                                0.00      0.00      0.00
                                0.00      0.00      0.00

     TS-vdW  stress (kbar)      0.00      0.00      0.00
                                0.00      0.00      0.00
                                0.00      0.00      0.00

     MDB     stress (kbar)      0.00      0.00      0.00
                                0.00      0.00      0.00
                                0.00      0.00      0.00

     3D-RISM stress (kbar)      0.00      0.00      0.00
                                0.00      0.00      0.00
                                0.00      0.00      0.00


     Writing all to output data dir ./Ag-WS2-H2NOH.save/ :
     XML data file, charge density, pseudopotentials, collected wavefunctions

     init_run     :    161.64s CPU    165.13s WALL (       1 calls)
     electrons    :  12428.72s CPU  12660.40s WALL (       1 calls)
     forces       :     43.83s CPU     45.37s WALL (       1 calls)
     force_dftd3  :      0.13s CPU      0.15s WALL (       1 calls)
     stress       :    152.13s CPU    156.54s WALL (       1 calls)
     stres_dftd3  :      0.13s CPU      0.15s WALL (       1 calls)

     Called by init_run:
     wfcinit      :    153.83s CPU    156.72s WALL (       1 calls)
     wfcinit:atom :      0.65s CPU      0.67s WALL (      26 calls)
     wfcinit:wfcr :    149.63s CPU    152.39s WALL (      26 calls)
     potinit      :      2.70s CPU      2.81s WALL (       1 calls)
     hinit0       :      1.46s CPU      1.55s WALL (       1 calls)

     Called by electrons:
     c_bands      :  10745.32s CPU  10926.05s WALL (      38 calls)
     sum_band     :   1558.60s CPU   1595.74s WALL (      38 calls)
     v_of_rho     :     20.64s CPU     21.61s WALL (      38 calls)
     v_h          :      1.04s CPU      1.13s WALL (      38 calls)
     v_xc         :     20.64s CPU     21.56s WALL (      40 calls)
     newd         :     59.64s CPU     71.43s WALL (      38 calls)
     PAW_pot      :     39.25s CPU     39.69s WALL (      38 calls)
     mix_rho      :      5.43s CPU      5.70s WALL (      38 calls)
     energy_dftd3 :      0.05s CPU      0.05s WALL (       1 calls)

     Called by c_bands:
     init_us_2    :    135.99s CPU    139.70s WALL (    2054 calls)
     cegterg      :  10570.16s CPU  10747.22s WALL (     988 calls)

     Called by sum_band:
     sum_band:wei :      0.01s CPU      0.01s WALL (      38 calls)
     sum_band:loo :   1446.54s CPU   1469.39s WALL (      38 calls)
     sum_band:buf :     12.00s CPU     12.28s WALL (     988 calls)
     sum_band:ini :     64.90s CPU     66.62s WALL (     988 calls)
     sum_band:cal :    310.49s CPU    319.16s WALL (     988 calls)
     sum_band:bec :      4.13s CPU      4.21s WALL (     988 calls)
     addusdens    :    108.97s CPU    123.07s WALL (      38 calls)
                                        0.00s GPU  (      38 calls)
     addusd:skk   :      1.67s CPU      1.72s WALL (     228 calls)
                                        0.00s GPU  (     228 calls)

     Called by *egterg:
     cdiaghg      :    543.30s CPU    562.57s WALL (    6693 calls)
     cegterg:over :    552.03s CPU    566.33s WALL (    5731 calls)
     cegterg:upda :    267.14s CPU    271.66s WALL (    5731 calls)
     cegterg:last :    537.17s CPU    547.36s WALL (    2135 calls)
     cdiaghg:chol :     45.39s CPU     45.81s WALL (    6693 calls)
     cdiaghg:inve :      8.12s CPU      8.21s WALL (    6693 calls)
     cdiaghg:para :    152.73s CPU    164.07s WALL (   13386 calls)
     h_psi        :   7897.68s CPU   8013.77s WALL (    6745 calls)
     s_psi        :    734.61s CPU    742.92s WALL (    6745 calls)
     g_psi        :     11.03s CPU     11.42s WALL (    5731 calls)

     Called by h_psi:
     h_psi:calbec :    974.93s CPU   1001.24s WALL (    6745 calls)
     vloc_psi     :   6121.68s CPU   6201.59s WALL (    6745 calls)
     add_vuspsi   :    769.29s CPU    778.41s WALL (    6745 calls)

     General routines
     calbec       :   1423.82s CPU   1462.84s WALL (    8175 calls)
     fft          :     20.87s CPU     22.19s WALL (     990 calls)
     ffts         :      1.76s CPU      1.90s WALL (     152 calls)
     fftw         :   6552.52s CPU   6627.86s WALL ( 1471442 calls)
     interpolate  :      2.90s CPU      3.08s WALL (      76 calls)

     Parallel routines

     PAW routines
     PAW_pot      :     39.25s CPU     39.69s WALL (      38 calls)

     PWSCF        :  12796.07s CPU  13074.36s WALL


   This run was terminated on:  19:44:58   1Aug2026            

=------------------------------------------------------------------------------=
   JOB DONE.
=------------------------------------------------------------------------------=
