
     Program PWSCF v.7.4.1 starts on 31Jul2026 at 23:14:44 

     This program is part of the open-source Quantum ESPRESSO suite
     for quantum simulation of materials; please cite
         "P. Giannozzi et al., J. Phys.:Condens. Matter 21 395502 (2009);
         "P. Giannozzi et al., J. Phys.:Condens. Matter 29 465901 (2017);
         "P. Giannozzi et al., J. Chem. Phys. 152 154105 (2020);
          URL http://www.quantum-espresso.org", 
     in publications or presentations arising from this work. More details at
     http://www.quantum-espresso.org/quote

     Parallel version (MPI & OpenMP), running on      64 processor cores
     Number of MPI processes:                64
     Threads/MPI process:                     1

     MPI processes distributed on     1 nodes
     96660 MiB available memory on the printing compute node when the environment starts

     Reading input from disp_007_atom55_+1x.in

     Current dimensions of program PWSCF are:
     Max number of different atomic species (ntypx) = 10
     Max number of k-points (npk) =  40000
     Max angular momentum in pseudopotentials (lmaxx) =  4
     file S.pbe-n-kjpaw_psl.1.0.0.UPF: wavefunction(s)  3S 3P renormalized
     file W.pbe-spn-kjpaw_psl.1.0.0.UPF: wavefunction(s)  6S 5P 5D renormalized
     file Ag.pbe-n-kjpaw_psl.1.0.0.UPF: wavefunction(s)  5S 5P renormalized
     file N.pbe-n-kjpaw_psl.1.0.0.UPF: wavefunction(s)  2S renormalized
     file O.pbe-n-kjpaw_psl.1.0.0.UPF: wavefunction(s)  2S 2P renormalized
     file H.pbe-kjpaw_psl.1.0.0.UPF: wavefunction(s)  1S renormalized
     Message from routine setup:
     the system is metallic, specify occupations

     R & G space division:  proc/nbgrp/npool/nimage =      64
     Subspace diagonalization in iterative solution of the eigenvalue problem:
     one sub-group per band group will be used
     ELPA distributed-memory algorithm (size of sub-group:  2*  2 procs)


     Parallelization info
     --------------------
     sticks:   dense  smooth     PW     G-vecs:    dense   smooth      PW
     Min         247     123     32                39673    14017    1874
     Max         248     124     33                39680    14030    1885
     Sum       15841    7909   2065              2539249   897387  120111

     Using Slab Decomposition



     bravais-lattice index     =            0
     lattice parameter (alat)  =      23.9624  a.u.
     unit-cell volume          =   18794.0729 (a.u.)^3
     number of atoms/cell      =           58
     number of atomic types    =            6
     number of electrons       =       485.00 (up: 243.00, down: 242.00)
     number of Kohn-Sham states=          243
     kinetic-energy cutoff     =      50.0000  Ry
     charge density cutoff     =     400.0000  Ry
     scf convergence threshold =      1.0E-10
     mixing beta               =       0.4000
     number of iterations used =            8  plain     mixing
     Exchange-correlation= SLA  PW   PBX  PBC
                           (   1   4   3   4   0   0   0)

     celldm(1)=  23.962422  celldm(2)=   0.000000  celldm(3)=   0.000000
     celldm(4)=   0.000000  celldm(5)=   0.000000  celldm(6)=   0.000000

     crystal axes: (cart. coord. in units of alat)
               a(1) = (   1.000000   0.000000   0.000000 )  
               a(2) = (  -0.500000   0.866025   0.000000 )  
               a(3) = (   0.000000   0.000000   1.577241 )  

     reciprocal axes: (cart. coord. in units 2 pi/alat)
               b(1) = (  1.000000  0.577350 -0.000000 )  
               b(2) = (  0.000000  1.154701  0.000000 )  
               b(3) = (  0.000000 -0.000000  0.634018 )  


     PseudoPot. # 1 for S  read from file:
     /share/work_r640/fmigm008/pseudo/S.pbe-n-kjpaw_psl.1.0.0.UPF
     MD5 check sum: fb45dfebcf3e72a4e1bd4a866ec2e262
     Pseudo is Projector augmented-wave + core cor, Zval =  6.0
     Generated using &quot;atomic&quot; code by A. Dal Corso  v.6.3
     Shape of augmentation charge: PSQ
     Using radial grid of 1151 points,  6 beta functions with: 
                l(1) =   0
                l(2) =   0
                l(3) =   1
                l(4) =   1
                l(5) =   2
                l(6) =   2
     Q(r) pseudized with 0 coefficients 


     PseudoPot. # 2 for W  read from file:
     /share/work_r640/fmigm008/pseudo/W.pbe-spn-kjpaw_psl.1.0.0.UPF
     MD5 check sum: 03c3df5b60893f488392c7401945500a
     Pseudo is Projector augmented-wave + core cor, Zval = 14.0
     Generated using &quot;atomic&quot; code by A. Dal Corso  v.6.2.2
     Shape of augmentation charge: PSQ
     Using radial grid of 1273 points,  6 beta functions with: 
                l(1) =   0
                l(2) =   0
                l(3) =   1
                l(4) =   1
                l(5) =   2
                l(6) =   2
     Q(r) pseudized with 0 coefficients 


     PseudoPot. # 3 for Ag read from file:
     /share/work_r640/fmigm008/pseudo/Ag.pbe-n-kjpaw_psl.1.0.0.UPF
     MD5 check sum: 51099775af2a3182a6a1caffb86952a3
     Pseudo is Projector augmented-wave + core cor, Zval = 11.0
     Generated using &quot;atomic&quot; code by A. Dal Corso  v.6.2.2
     Shape of augmentation charge: PSQ
     Using radial grid of 1237 points,  6 beta functions with: 
                l(1) =   0
                l(2) =   0
                l(3) =   1
                l(4) =   1
                l(5) =   2
                l(6) =   2
     Q(r) pseudized with 0 coefficients 


     PseudoPot. # 4 for N  read from file:
     /share/work_r640/fmigm008/pseudo/N.pbe-n-kjpaw_psl.1.0.0.UPF
     MD5 check sum: 14c48229446f9f2d411169a3abcbc3fa
     Pseudo is Projector augmented-wave + core cor, Zval =  5.0
     Generated using &quot;atomic&quot; code by A. Dal Corso  v.6.3
     Shape of augmentation charge: PSQ
     Using radial grid of 1085 points,  4 beta functions with: 
                l(1) =   0
                l(2) =   0
                l(3) =   1
                l(4) =   1
     Q(r) pseudized with 0 coefficients 


     PseudoPot. # 5 for O  read from file:
     /share/work_r640/fmigm008/pseudo/O.pbe-n-kjpaw_psl.1.0.0.UPF
     MD5 check sum: e99d9cef9b487d1ca56f5b95ecd0fd7a
     Pseudo is Projector augmented-wave + core cor, Zval =  6.0
     Generated using &quot;atomic&quot; code by A. Dal Corso  v.6.3
     Shape of augmentation charge: PSQ
     Using radial grid of 1095 points,  4 beta functions with: 
                l(1) =   0
                l(2) =   0
                l(3) =   1
                l(4) =   1
     Q(r) pseudized with 0 coefficients 


     PseudoPot. # 6 for H  read from file:
     /share/work_r640/fmigm008/pseudo/H.pbe-kjpaw_psl.1.0.0.UPF
     MD5 check sum: d81a744832360e4a8af0b0b5b123bc2a
     Pseudo is Projector augmented-wave, Zval =  1.0
     Generated using &quot;atomic&quot; code by A. Dal Corso  v.6.3MaX
     Shape of augmentation charge: PSQ
     Using radial grid of  929 points,  2 beta functions with: 
                l(1) =   0
                l(2) =   0
     Q(r) pseudized with 0 coefficients 


     atomic species   valence    mass     pseudopotential
     S                 6.00    32.06500     S ( 1.00)
     W                14.00   183.84000     W ( 1.00)
     Ag               11.00   107.87000     Ag( 1.00)
     N                 5.00    14.00700     N ( 1.00)
     O                 6.00    15.99900     O ( 1.00)
     H                 1.00     1.00800     H ( 1.00)

     Starting magnetic structure 
     atomic species   magnetization
     S               0.000
     W               0.000
     Ag              0.000
     N               0.000
     O               0.000
     H               0.000

     No symmetry found


                                    s                        frac. trans.

      isym =  1     identity                                     

 cryst.   s( 1) = (     1          0          0      )
                  (     0          1          0      )
                  (     0          0          1      )

 cart.    s( 1) = (  1.0000000  0.0000000  0.0000000 )
                  (  0.0000000  1.0000000  0.0000000 )
                  (  0.0000000  0.0000000  1.0000000 )


   Cartesian axes

     site n.     atom                  positions (alat units)
         1        W      tau(   1) = (  -0.0028587   0.1395947   0.2444812  )
         2        W      tau(   2) = (  -0.1282026   0.3564836   0.2443568  )
         3        W      tau(   3) = (  -0.2537731   0.5727289   0.2442261  )
         4        W      tau(   4) = (  -0.3783723   0.7888166   0.2441498  )
         5        W      tau(   5) = (   0.2469096   0.1395426   0.2440120  )
         6        W      tau(   6) = (   0.1225026   0.3570726   0.2432304  )
         7        W      tau(   7) = (  -0.0034888   0.5727502   0.2429844  )
         8        W      tau(   8) = (  -0.1283671   0.7891505   0.2439766  )
         9        W      tau(   9) = (   0.4969194   0.1397378   0.2430413  )
        10        W      tau(  10) = (   0.3721499   0.3552416   0.2405337  )
        11        W      tau(  11) = (   0.2452295   0.5727639   0.2402480  )
        12        W      tau(  12) = (   0.1220165   0.7890246   0.2436243  )
        13        W      tau(  13) = (   0.7467445   0.1394449   0.2440642  )
        14        W      tau(  14) = (   0.6211264   0.3563823   0.2436826  )
        15        W      tau(  15) = (   0.4971469   0.5732720   0.2421413  )
        16        W      tau(  16) = (   0.3721785   0.7886524   0.2428338  )
        17        S      tau(  17) = (   0.1219502   0.0672380   0.3684592  )
        18        S      tau(  18) = (  -0.0024014   0.2846735   0.3681910  )
        19        S      tau(  19) = (  -0.1281525   0.5008469   0.3682441  )
        20        S      tau(  20) = (  -0.2533258   0.7170167   0.3685687  )
        21        S      tau(  21) = (   0.3722606   0.0676427   0.3679766  )
        22        S      tau(  22) = (   0.2484890   0.2849851   0.3676532  )
        23        S      tau(  23) = (   0.1218721   0.5017515   0.3660861  )
        24        S      tau(  24) = (  -0.0030403   0.7167922   0.3679041  )
        25        S      tau(  25) = (   0.6215745   0.0674060   0.3678624  )
        26        S      tau(  26) = (   0.4959803   0.2843589   0.3667029  )
        27        S      tau(  27) = (   0.3710177   0.5007270   0.3638206  )
        28        S      tau(  28) = (   0.2481984   0.7153351   0.3669892  )
        29        S      tau(  29) = (   0.8717811   0.0668114   0.3679626  )
        30        S      tau(  30) = (   0.7463862   0.2840842   0.3681041  )
        31        S      tau(  31) = (   0.6195449   0.5004430   0.3687043  )
        32        S      tau(  32) = (   0.4956231   0.7159829   0.3681683  )
        33        S      tau(  33) = (   0.1218639   0.0672424   0.1203644  )
        34        S      tau(  34) = (  -0.0031686   0.2839920   0.1203246  )
        35        S      tau(  35) = (  -0.1290559   0.5005458   0.1199474  )
        36        S      tau(  36) = (  -0.2533637   0.7168463   0.1201865  )
        37        S      tau(  37) = (   0.3715067   0.0672515   0.1197328  )
        38        S      tau(  38) = (   0.2459712   0.2831895   0.1185177  )
        39        S      tau(  39) = (   0.1200987   0.4999851   0.1172124  )
        40        S      tau(  40) = (  -0.0034124   0.7174366   0.1195727  )
        41        S      tau(  41) = (   0.6220409   0.0671938   0.1195919  )
        42        S      tau(  42) = (   0.4978914   0.2834015   0.1177695  )
        43        S      tau(  43) = (   0.3720771   0.5008174   0.1169455  )
        44        S      tau(  44) = (   0.2466393   0.7180153   0.1180007  )
        45        S      tau(  45) = (   0.8722199   0.0680125   0.1199081  )
        46        S      tau(  46) = (   0.7469729   0.2840633   0.1202901  )
        47        S      tau(  47) = (   0.6222799   0.5003741   0.1191499  )
        48        S      tau(  48) = (   0.4972527   0.7176301   0.1185580  )
        49        Ag     tau(  49) = (   0.1547683   0.5150674   0.5753024  )
        50        Ag     tau(  50) = (   0.3069329   0.3595674   0.5464056  )
        51        Ag     tau(  51) = (   0.5024756   0.4743393   0.5615070  )
        52        Ag     tau(  52) = (   0.3399570   0.6321033   0.5430870  )
        53        Ag     tau(  53) = (   0.3428646   0.4953663   0.7084671  )
        54        N      tau(  54) = (   0.2596825   0.4648737   0.8674395  )
        55        O      tau(  55) = (   0.1493157   0.4509631   0.8500100  )
        56        H      tau(  56) = (   0.2650389   0.5234661   0.9229976  )
        57        H      tau(  57) = (   0.1408570   0.4629232   0.7729758  )
        58        H      tau(  58) = (   0.2837088   0.3964009   0.9032094  )

     --------------------------------------------
     DFT-D3 Dispersion Correction (3-body terms):
     --------------------------------------------
       Reference C6 values for interpolation: 

         atom   Coordination number   C6
         H          0.912             6.05
         H          0.000            15.18
         N          0.000            50.54
         N          0.994            44.25
         N          2.014            39.35
         N          2.990            31.16
         O          0.000            31.01
         O          0.993            25.63
         O          1.989            20.74
         S          0.000           268.01
         S          0.995           261.99
         S          1.990           251.62
         Ag         0.000           853.49
         Ag         0.968           537.23
         W          0.000          1628.72
         W          1.929          1086.81
         W         10.915           796.19

       Values used:

         atom   Coordination number  R0_AB[au]  C6      C8
         W          9.805            3.766    796.19 128250.55
         W          9.806            3.766    796.19 128250.55
         W          9.854            3.766    796.19 128250.55
         W          9.866            3.766    796.19 128250.55
         W          9.842            3.766    796.19 128250.55
         W          9.851            3.766    796.19 128250.55
         W          9.870            3.766    796.19 128250.55
         W          9.833            3.766    796.19 128250.55
         W          9.854            3.766    796.19 128250.55
         W          9.880            3.766    796.19 128250.55
         W          9.879            3.766    796.19 128250.55
         W          9.846            3.766    796.19 128250.55
         W          9.811            3.766    796.19 128250.55
         W          9.849            3.766    796.19 128250.55
         W          9.870            3.766    796.19 128250.55
         W          9.855            3.766    796.19 128250.55
         S          3.670            3.128    251.62  12327.25
         S          3.672            3.128    251.62  12327.25
         S          3.679            3.128    251.62  12327.25
         S          3.675            3.128    251.62  12327.25
         S          3.690            3.128    251.62  12327.25
         S          4.579            3.128    251.62  12327.25
         S          4.512            3.128    251.62  12327.25
         S          3.693            3.128    251.62  12327.25
         S          3.676            3.128    251.62  12327.25
         S          3.843            3.128    251.62  12327.25
         S          4.976            3.128    251.62  12327.25
         S          4.443            3.128    251.62  12327.25
         S          3.677            3.128    251.62  12327.25
         S          3.672            3.128    251.62  12327.25
         S          4.198            3.128    251.62  12327.25
         S          3.918            3.128    251.62  12327.25
         S          3.700            3.128    251.62  12327.25
         S          3.699            3.128    251.62  12327.25
         S          3.697            3.128    251.62  12327.25
         S          3.697            3.128    251.62  12327.25
         S          3.689            3.128    251.62  12327.25
         S          3.673            3.128    251.62  12327.25
         S          3.669            3.128    251.62  12327.25
         S          3.689            3.128    251.62  12327.25
         S          3.693            3.128    251.62  12327.25
         S          3.672            3.128    251.62  12327.25
         S          3.662            3.128    251.62  12327.25
         S          3.672            3.128    251.62  12327.25
         S          3.693            3.128    251.62  12327.25
         S          3.697            3.128    251.62  12327.25
         S          3.686            3.128    251.62  12327.25
         S          3.680            3.128    251.62  12327.25
         Ag         3.221            3.147    537.23  47741.54
         Ag         3.973            3.147    537.23  47741.54
         Ag         3.317            3.147    537.23  47741.54
         Ag         4.158            3.147    537.23  47741.54
         Ag         4.124            3.147    537.23  47741.54
         N          3.757            2.478     31.16    687.50
         O          2.007            2.345     20.81    420.04
         H          1.006            2.062      6.18     74.66
         H          1.030            2.062      6.16     74.42
         H          1.007            2.062      6.17     74.65

         Molecular C6 ( Ry / a.u.^6 ) =   1190030.51


   Crystallographic axes

     site n.     atom                  positions (cryst. coord.)
         1        W      tau(   1) = (  0.0777364  0.1611901  0.1550056  )
         2        W      tau(   2) = (  0.0776133  0.4116318  0.1549267  )
         3        W      tau(   3) = (  0.0768921  0.6613303  0.1548438  )
         4        W      tau(   4) = (  0.0770512  0.9108469  0.1547955  )
         5        W      tau(   5) = (  0.3274746  0.1611299  0.1547081  )
         6        W      tau(   6) = (  0.3286586  0.4123119  0.1542125  )
         7        W      tau(   7) = (  0.3271886  0.6613549  0.1540566  )
         8        W      tau(   8) = (  0.3272492  0.9112326  0.1546856  )
         9        W      tau(   9) = (  0.5775970  0.1613553  0.1540926  )
        10        W      tau(  10) = (  0.5772488  0.4101977  0.1525028  )
        11        W      tau(  11) = (  0.5759149  0.6613708  0.1523217  )
        12        W      tau(  12) = (  0.5775601  0.9110871  0.1544623  )
        13        W      tau(  13) = (  0.8272530  0.1610171  0.1547412  )
        14        W      tau(  14) = (  0.8268839  0.4115149  0.1544993  )
        15        W      tau(  15) = (  0.8281256  0.6619575  0.1535220  )
        16        W      tau(  16) = (  0.8275072  0.9106573  0.1539611  )
        17        S      tau(  17) = (  0.1607701  0.0776397  0.2336099  )
        18        S      tau(  18) = (  0.1619549  0.3287126  0.2334399  )
        19        S      tau(  19) = (  0.1610116  0.5783281  0.2334735  )
        20        S      tau(  20) = (  0.1606439  0.8279395  0.2336794  )
        21        S      tau(  21) = (  0.4113141  0.0781070  0.2333040  )
        22        S      tau(  22) = (  0.4130252  0.3290725  0.2330989  )
        23        S      tau(  23) = (  0.4115585  0.5793727  0.2321053  )
        24        S      tau(  24) = (  0.4107998  0.8276803  0.2332579  )
        25        S      tau(  25) = (  0.6604913  0.0778337  0.2332315  )
        26        S      tau(  26) = (  0.6601550  0.3283494  0.2324963  )
        27        S      tau(  27) = (  0.6601125  0.5781897  0.2306689  )
        28        S      tau(  28) = (  0.6611973  0.8259978  0.2326779  )
        29        S      tau(  29) = (  0.9103547  0.0771472  0.2332950  )
        30        S      tau(  30) = (  0.9104023  0.3280322  0.2333848  )
        31        S      tau(  31) = (  0.9084758  0.5778618  0.2337653  )
        32        S      tau(  32) = (  0.9089960  0.8267459  0.2334255  )
        33        S      tau(  33) = (  0.1606863  0.0776448  0.0763132  )
        34        S      tau(  34) = (  0.1607942  0.3279257  0.0762880  )
        35        S      tau(  35) = (  0.1599344  0.5779805  0.0760488  )
        36        S      tau(  36) = (  0.1605077  0.8277428  0.0762004  )
        37        S      tau(  37) = (  0.4103343  0.0776554  0.0759128  )
        38        S      tau(  38) = (  0.4094707  0.3269991  0.0751424  )
        39        S      tau(  39) = (  0.4087652  0.5773330  0.0743148  )
        40        S      tau(  40) = (  0.4107999  0.8284245  0.0758113  )
        41        S      tau(  41) = (  0.6608352  0.0775887  0.0758235  )
        42        S      tau(  42) = (  0.6615133  0.3272438  0.0746680  )
        43        S      tau(  43) = (  0.6612241  0.5782941  0.0741456  )
        44        S      tau(  44) = (  0.6611856  0.8290927  0.0748146  )
        45        S      tau(  45) = (  0.9114869  0.0785340  0.0760239  )
        46        S      tau(  46) = (  0.9109769  0.3280081  0.0762661  )
        47        S      tau(  47) = (  0.9111710  0.5777822  0.0755432  )
        48        S      tau(  48) = (  0.9115766  0.8286478  0.0751680  )
        49        Ag     tau(  49) = (  0.4521427  0.5947486  0.3647523  )
        50        Ag     tau(  50) = (  0.5145293  0.4151927  0.3464312  )
        51        Ag     tau(  51) = (  0.7763355  0.5477198  0.3560058  )
        52        Ag     tau(  52) = (  0.7049020  0.7298900  0.3443271  )
        53        Ag     tau(  53) = (  0.6288645  0.5719998  0.4491812  )
        54        N      tau(  54) = (  0.5280775  0.5367899  0.5499726  )
        55        O      tau(  55) = (  0.4096794  0.5207274  0.5389220  )
        56        H      tau(  56) = (  0.5672622  0.6044466  0.5851974  )
        57        H      tau(  57) = (  0.4081259  0.5345377  0.4900809  )
        58        H      tau(  58) = (  0.5125710  0.4577243  0.5726514  )

     number of k points=    13
                       cart. coord. in units 2pi/alat
        k(    1) = (   0.0000000   0.0000000   0.0000000), wk =   0.0400000
        k(    2) = (   0.0000000   0.2309401   0.0000000), wk =   0.0800000
        k(    3) = (   0.0000000   0.4618802   0.0000000), wk =   0.0800000
        k(    4) = (   0.2000000   0.3464102   0.0000000), wk =   0.0800000
        k(    5) = (   0.2000000   0.5773503   0.0000000), wk =   0.0800000
        k(    6) = (  -0.2000000   0.1154701   0.0000000), wk =   0.0800000
        k(    7) = (   0.2000000   0.1154701   0.0000000), wk =   0.0800000
        k(    8) = (  -0.4000000   0.2309401   0.0000000), wk =   0.0800000
        k(    9) = (   0.4000000   0.2309401   0.0000000), wk =   0.0800000
        k(   10) = (  -0.2000000   0.3464102   0.0000000), wk =   0.0800000
        k(   11) = (   0.4000000  -0.0000000   0.0000000), wk =   0.0800000
        k(   12) = (  -0.4000000   0.4618802   0.0000000), wk =   0.0800000
        k(   13) = (   0.6000000   0.1154701   0.0000000), wk =   0.0800000

                       cryst. coord.
        k(    1) = (   0.0000000   0.0000000   0.0000000), wk =   0.0400000
        k(    2) = (   0.0000000   0.2000000   0.0000000), wk =   0.0800000
        k(    3) = (   0.0000000   0.4000000   0.0000000), wk =   0.0800000
        k(    4) = (   0.2000000   0.2000000   0.0000000), wk =   0.0800000
        k(    5) = (   0.2000000   0.4000000   0.0000000), wk =   0.0800000
        k(    6) = (  -0.2000000   0.2000000   0.0000000), wk =   0.0800000
        k(    7) = (   0.2000000   0.0000000   0.0000000), wk =   0.0800000
        k(    8) = (  -0.4000000   0.4000000   0.0000000), wk =   0.0800000
        k(    9) = (   0.4000000   0.0000000   0.0000000), wk =   0.0800000
        k(   10) = (  -0.2000000   0.4000000   0.0000000), wk =   0.0800000
        k(   11) = (   0.4000000  -0.2000000   0.0000000), wk =   0.0800000
        k(   12) = (  -0.4000000   0.6000000   0.0000000), wk =   0.0800000
        k(   13) = (   0.6000000  -0.2000000   0.0000000), wk =   0.0800000

     Dense  grid:  2539249 G-vectors     FFT dimensions: ( 160, 160, 243)

     Smooth grid:   897387 G-vectors     FFT dimensions: ( 108, 108, 180)

     Dynamical RAM for                 wfc:       6.50 MB

     Dynamical RAM for     wfc (w. buffer):     175.50 MB

     Dynamical RAM for           str. fact:       3.63 MB

     Dynamical RAM for           local pot:       0.00 MB

     Dynamical RAM for          nlocal pot:      26.11 MB

     Dynamical RAM for                qrad:       9.63 MB

     Dynamical RAM for          rho,v,vnew:       8.32 MB

     Dynamical RAM for               rhoin:       2.77 MB

     Dynamical RAM for            rho*nmix:      19.38 MB

     Dynamical RAM for           G-vectors:       2.38 MB

     Dynamical RAM for          h,s,v(r/c):       2.70 MB

     Dynamical RAM for          <psi|beta>:       3.62 MB

     Dynamical RAM for                 psi:      13.00 MB

     Dynamical RAM for                hpsi:      13.00 MB

     Dynamical RAM for                spsi:      13.00 MB

     Dynamical RAM for      wfcinit/wfcrot:      14.35 MB

     Dynamical RAM for           addusdens:     132.60 MB

     Dynamical RAM for          addusforce:     170.39 MB

     Dynamical RAM for         addusstress:     122.61 MB

     Estimated static dynamical RAM per process >     237.27 MB

     Estimated max dynamical RAM per process >     427.03 MB

     Estimated total dynamical RAM >      26.69 GB
     Generating pointlists ...
     new r_m :   0.0782 (alat units)  1.8731 (a.u.) for type    1
     new r_m :   0.0782 (alat units)  1.8731 (a.u.) for type    2
     new r_m :   0.0751 (alat units)  1.7989 (a.u.) for type    3
     new r_m :   0.0334 (alat units)  0.7997 (a.u.) for type    4
     new r_m :   0.0323 (alat units)  0.7751 (a.u.) for type    5
     new r_m :   0.0323 (alat units)  0.7751 (a.u.) for type    6

     Initial potential from superposition of free atoms

     starting charge     484.9880, renormalised to     485.0000

     negative rho (up, down):  1.010E-03 1.010E-03
     Starting wfcs are  392 randomized atomic wfcs
     Checking if some PAW data can be deallocated... 
       PAW data deallocated on   32 nodes for type:  1
       PAW data deallocated on   42 nodes for type:  2
       PAW data deallocated on   59 nodes for type:  3
       PAW data deallocated on   63 nodes for type:  4
       PAW data deallocated on   63 nodes for type:  5
       PAW data deallocated on   61 nodes for type:  6

     total cpu time spent up to now is      184.8 secs

     per-process dynamical memory:   308.7 Mb

     Self-consistent Calculation

     iteration #  1     ecut=    50.00 Ry     beta= 0.40
     Davidson diagonalization with overlap

---- Real-time Memory Report at c_bands before calling an iterative solver
           367 MiB given to the printing process from OS
           301 MiB allocation reported by mallinfo(arena+hblkhd)
         78659 MiB available memory on the node where the printing process lives
------------------
     ethr =  1.00E-02,  avg # of iterations =  2.0

     Threshold (ethr) on eigenvalues was too large:
     Diagonalizing with lowered threshold

     Davidson diagonalization with overlap

---- Real-time Memory Report at c_bands before calling an iterative solver
           473 MiB given to the printing process from OS
           305 MiB allocation reported by mallinfo(arena+hblkhd)
         77250 MiB available memory on the node where the printing process lives
------------------
     ethr =  4.35E-04,  avg # of iterations =  4.8

     negative rho (up, down):  1.026E-02 6.713E-03

     total cpu time spent up to now is      919.7 secs

     total energy              =  -16138.22299866 Ry
     estimated scf accuracy    <       2.44657247 Ry

     total magnetization       =     1.00 Bohr mag/cell
     absolute magnetization    =     4.14 Bohr mag/cell

     iteration #  2     ecut=    50.00 Ry     beta= 0.40
     Davidson diagonalization with overlap

---- Real-time Memory Report at c_bands before calling an iterative solver
           480 MiB given to the printing process from OS
           311 MiB allocation reported by mallinfo(arena+hblkhd)
         75091 MiB available memory on the node where the printing process lives
------------------
     ethr =  5.04E-04,  avg # of iterations =  7.4

     negative rho (up, down):  3.195E-02 2.284E-02

     total cpu time spent up to now is     1309.9 secs

     total energy              =  -16138.44528989 Ry
     estimated scf accuracy    <       0.41565783 Ry

     total magnetization       =     1.00 Bohr mag/cell
     absolute magnetization    =     3.05 Bohr mag/cell

     iteration #  3     ecut=    50.00 Ry     beta= 0.40
     Davidson diagonalization with overlap

---- Real-time Memory Report at c_bands before calling an iterative solver
           481 MiB given to the printing process from OS
           313 MiB allocation reported by mallinfo(arena+hblkhd)
         75157 MiB available memory on the node where the printing process lives
------------------
     ethr =  8.57E-05,  avg # of iterations =  8.4

     negative rho (up, down):  3.690E-02 2.759E-02

     total cpu time spent up to now is     1719.2 secs

     total energy              =  -16138.51285031 Ry
     estimated scf accuracy    <       0.22959296 Ry

     total magnetization       =     1.00 Bohr mag/cell
     absolute magnetization    =     2.37 Bohr mag/cell

     iteration #  4     ecut=    50.00 Ry     beta= 0.40
     Davidson diagonalization with overlap

---- Real-time Memory Report at c_bands before calling an iterative solver
           483 MiB given to the printing process from OS
           314 MiB allocation reported by mallinfo(arena+hblkhd)
         75056 MiB available memory on the node where the printing process lives
------------------
     ethr =  4.73E-05,  avg # of iterations =  9.8

     negative rho (up, down):  3.092E-02 2.406E-02

     total cpu time spent up to now is     2088.5 secs

     total energy              =  -16138.54451991 Ry
     estimated scf accuracy    <       0.05182252 Ry

     total magnetization       =     1.00 Bohr mag/cell
     absolute magnetization    =     1.99 Bohr mag/cell

     iteration #  5     ecut=    50.00 Ry     beta= 0.40
     Davidson diagonalization with overlap

---- Real-time Memory Report at c_bands before calling an iterative solver
           511 MiB given to the printing process from OS
           346 MiB allocation reported by mallinfo(arena+hblkhd)
         74469 MiB available memory on the node where the printing process lives
------------------
     ethr =  1.07E-05,  avg # of iterations =  7.3

     negative rho (up, down):  2.154E-02 1.716E-02

     total cpu time spent up to now is     2476.4 secs

     total energy              =  -16138.54955675 Ry
     estimated scf accuracy    <       0.03211685 Ry

     total magnetization       =     1.00 Bohr mag/cell
     absolute magnetization    =     1.71 Bohr mag/cell

     iteration #  6     ecut=    50.00 Ry     beta= 0.40
     Davidson diagonalization with overlap

---- Real-time Memory Report at c_bands before calling an iterative solver
           517 MiB given to the printing process from OS
           348 MiB allocation reported by mallinfo(arena+hblkhd)
         74014 MiB available memory on the node where the printing process lives
------------------
     ethr =  6.62E-06,  avg # of iterations =  7.3

     negative rho (up, down):  1.392E-02 1.146E-02

     total cpu time spent up to now is     2828.5 secs

     total energy              =  -16138.55282224 Ry
     estimated scf accuracy    <       0.01708724 Ry

     total magnetization       =     1.00 Bohr mag/cell
     absolute magnetization    =     1.49 Bohr mag/cell

     iteration #  7     ecut=    50.00 Ry     beta= 0.40
     Davidson diagonalization with overlap

---- Real-time Memory Report at c_bands before calling an iterative solver
           517 MiB given to the printing process from OS
           349 MiB allocation reported by mallinfo(arena+hblkhd)
         73826 MiB available memory on the node where the printing process lives
------------------
     ethr =  3.52E-06,  avg # of iterations =  5.4

     negative rho (up, down):  2.005E-02 2.060E-02

     total cpu time spent up to now is     3157.7 secs

     total energy              =  -16138.55145734 Ry
     estimated scf accuracy    <       0.00842399 Ry

     total magnetization       =     1.00 Bohr mag/cell
     absolute magnetization    =     1.34 Bohr mag/cell

     iteration #  8     ecut=    50.00 Ry     beta= 0.40
     Davidson diagonalization with overlap

---- Real-time Memory Report at c_bands before calling an iterative solver
           518 MiB given to the printing process from OS
           350 MiB allocation reported by mallinfo(arena+hblkhd)
         73074 MiB available memory on the node where the printing process lives
------------------
     ethr =  1.74E-06,  avg # of iterations =  8.0

     negative rho (up, down):  2.102E-02 2.216E-02

     total cpu time spent up to now is     3499.5 secs

     total energy              =  -16138.55112107 Ry
     estimated scf accuracy    <       0.00249921 Ry

     total magnetization       =     1.00 Bohr mag/cell
     absolute magnetization    =     1.22 Bohr mag/cell

     iteration #  9     ecut=    50.00 Ry     beta= 0.40
     Davidson diagonalization with overlap

---- Real-time Memory Report at c_bands before calling an iterative solver
           519 MiB given to the printing process from OS
           351 MiB allocation reported by mallinfo(arena+hblkhd)
         73845 MiB available memory on the node where the printing process lives
------------------
     ethr =  5.15E-07,  avg # of iterations =  8.0

     negative rho (up, down):  1.528E-02 1.621E-02

     total cpu time spent up to now is     3887.5 secs

     total energy              =  -16138.55304506 Ry
     estimated scf accuracy    <       0.00051111 Ry

     total magnetization       =     1.00 Bohr mag/cell
     absolute magnetization    =     1.17 Bohr mag/cell

     iteration # 10     ecut=    50.00 Ry     beta= 0.40
     Davidson diagonalization with overlap

---- Real-time Memory Report at c_bands before calling an iterative solver
           520 MiB given to the printing process from OS
           352 MiB allocation reported by mallinfo(arena+hblkhd)
         73890 MiB available memory on the node where the printing process lives
------------------
     ethr =  1.05E-07,  avg # of iterations =  7.0

     negative rho (up, down):  1.094E-02 1.169E-02

     total cpu time spent up to now is     4302.4 secs

     total energy              =  -16138.55415126 Ry
     estimated scf accuracy    <       0.00017679 Ry

     total magnetization       =     1.00 Bohr mag/cell
     absolute magnetization    =     1.15 Bohr mag/cell

     iteration # 11     ecut=    50.00 Ry     beta= 0.40
     Davidson diagonalization with overlap

---- Real-time Memory Report at c_bands before calling an iterative solver
           523 MiB given to the printing process from OS
           354 MiB allocation reported by mallinfo(arena+hblkhd)
         73851 MiB available memory on the node where the printing process lives
------------------
     ethr =  3.65E-08,  avg # of iterations =  7.7

     negative rho (up, down):  7.997E-03 8.615E-03

     total cpu time spent up to now is     4733.0 secs

     total energy              =  -16138.55472405 Ry
     estimated scf accuracy    <       0.00012683 Ry

     total magnetization       =     1.00 Bohr mag/cell
     absolute magnetization    =     1.14 Bohr mag/cell

     iteration # 12     ecut=    50.00 Ry     beta= 0.40
     Davidson diagonalization with overlap

---- Real-time Memory Report at c_bands before calling an iterative solver
           523 MiB given to the printing process from OS
           354 MiB allocation reported by mallinfo(arena+hblkhd)
         73945 MiB available memory on the node where the printing process lives
------------------
     ethr =  2.62E-08,  avg # of iterations =  6.7

     negative rho (up, down):  6.085E-03 6.554E-03

     total cpu time spent up to now is     5121.4 secs

     total energy              =  -16138.55500180 Ry
     estimated scf accuracy    <       0.00003361 Ry

     total magnetization       =     1.00 Bohr mag/cell
     absolute magnetization    =     1.13 Bohr mag/cell

     iteration # 13     ecut=    50.00 Ry     beta= 0.40
     Davidson diagonalization with overlap

---- Real-time Memory Report at c_bands before calling an iterative solver
           523 MiB given to the printing process from OS
           354 MiB allocation reported by mallinfo(arena+hblkhd)
         73889 MiB available memory on the node where the printing process lives
------------------
     ethr =  6.93E-09,  avg # of iterations =  7.0

     negative rho (up, down):  5.194E-03 5.598E-03

     total cpu time spent up to now is     5545.1 secs

     total energy              =  -16138.55510500 Ry
     estimated scf accuracy    <       0.00001918 Ry

     total magnetization       =     1.00 Bohr mag/cell
     absolute magnetization    =     1.12 Bohr mag/cell

     iteration # 14     ecut=    50.00 Ry     beta= 0.40
     Davidson diagonalization with overlap

---- Real-time Memory Report at c_bands before calling an iterative solver
           523 MiB given to the printing process from OS
           354 MiB allocation reported by mallinfo(arena+hblkhd)
         73889 MiB available memory on the node where the printing process lives
------------------
     ethr =  3.96E-09,  avg # of iterations =  2.0

     negative rho (up, down):  4.863E-03 5.241E-03

     total cpu time spent up to now is     5848.6 secs

     total energy              =  -16138.55514230 Ry
     estimated scf accuracy    <       0.00001320 Ry

     total magnetization       =     1.00 Bohr mag/cell
     absolute magnetization    =     1.12 Bohr mag/cell

     iteration # 15     ecut=    50.00 Ry     beta= 0.40
     Davidson diagonalization with overlap

---- Real-time Memory Report at c_bands before calling an iterative solver
           523 MiB given to the printing process from OS
           354 MiB allocation reported by mallinfo(arena+hblkhd)
         73661 MiB available memory on the node where the printing process lives
------------------
     ethr =  2.72E-09,  avg # of iterations =  2.0

     negative rho (up, down):  4.854E-03 5.226E-03

     total cpu time spent up to now is     6139.4 secs

     total energy              =  -16138.55514444 Ry
     estimated scf accuracy    <       0.00001119 Ry

     total magnetization       =     1.00 Bohr mag/cell
     absolute magnetization    =     1.12 Bohr mag/cell

     iteration # 16     ecut=    50.00 Ry     beta= 0.40
     Davidson diagonalization with overlap

---- Real-time Memory Report at c_bands before calling an iterative solver
           523 MiB given to the printing process from OS
           354 MiB allocation reported by mallinfo(arena+hblkhd)
         73715 MiB available memory on the node where the printing process lives
------------------
     ethr =  2.31E-09,  avg # of iterations =  1.8

     negative rho (up, down):  5.001E-03 5.367E-03

     total cpu time spent up to now is     6428.7 secs

     total energy              =  -16138.55512780 Ry
     estimated scf accuracy    <       0.00001174 Ry

     total magnetization       =     1.00 Bohr mag/cell
     absolute magnetization    =     1.12 Bohr mag/cell

     iteration # 17     ecut=    50.00 Ry     beta= 0.40
     Davidson diagonalization with overlap

---- Real-time Memory Report at c_bands before calling an iterative solver
           523 MiB given to the printing process from OS
           354 MiB allocation reported by mallinfo(arena+hblkhd)
         73668 MiB available memory on the node where the printing process lives
------------------
     ethr =  2.31E-09,  avg # of iterations =  7.8

     negative rho (up, down):  5.666E-03 6.055E-03

     total cpu time spent up to now is     6872.7 secs

     total energy              =  -16138.55506579 Ry
     estimated scf accuracy    <       0.00002683 Ry

     total magnetization       =     1.00 Bohr mag/cell
     absolute magnetization    =     1.12 Bohr mag/cell

     iteration # 18     ecut=    50.00 Ry     beta= 0.40
     Davidson diagonalization with overlap

---- Real-time Memory Report at c_bands before calling an iterative solver
           524 MiB given to the printing process from OS
           355 MiB allocation reported by mallinfo(arena+hblkhd)
         73582 MiB available memory on the node where the printing process lives
------------------
     ethr =  2.31E-09,  avg # of iterations =  2.0

     negative rho (up, down):  5.554E-03 5.941E-03

     total cpu time spent up to now is     7171.3 secs

     total energy              =  -16138.55507696 Ry
     estimated scf accuracy    <       0.00003111 Ry

     total magnetization       =     1.00 Bohr mag/cell
     absolute magnetization    =     1.12 Bohr mag/cell

     iteration # 19     ecut=    50.00 Ry     beta= 0.40
     Davidson diagonalization with overlap

---- Real-time Memory Report at c_bands before calling an iterative solver
           524 MiB given to the printing process from OS
           355 MiB allocation reported by mallinfo(arena+hblkhd)
         67219 MiB available memory on the node where the printing process lives
------------------
     ethr =  2.31E-09,  avg # of iterations =  1.0

     negative rho (up, down):  5.668E-03 6.060E-03

     total cpu time spent up to now is     7448.9 secs

     total energy              =  -16138.55506325 Ry
     estimated scf accuracy    <       0.00002474 Ry

     total magnetization       =     1.00 Bohr mag/cell
     absolute magnetization    =     1.12 Bohr mag/cell

     iteration # 20     ecut=    50.00 Ry     beta= 0.40
     Davidson diagonalization with overlap

---- Real-time Memory Report at c_bands before calling an iterative solver
           524 MiB given to the printing process from OS
           355 MiB allocation reported by mallinfo(arena+hblkhd)
         73672 MiB available memory on the node where the printing process lives
------------------
     ethr =  2.31E-09,  avg # of iterations =  9.0

     negative rho (up, down):  5.549E-03 5.939E-03

     total cpu time spent up to now is     7780.7 secs

     total energy              =  -16138.55507533 Ry
     estimated scf accuracy    <       0.00001709 Ry

     total magnetization       =     1.00 Bohr mag/cell
     absolute magnetization    =     1.12 Bohr mag/cell

     iteration # 21     ecut=    50.00 Ry     beta= 0.40
     Davidson diagonalization with overlap

---- Real-time Memory Report at c_bands before calling an iterative solver
           524 MiB given to the printing process from OS
           355 MiB allocation reported by mallinfo(arena+hblkhd)
         73548 MiB available memory on the node where the printing process lives
------------------
     ethr =  2.31E-09,  avg # of iterations =  1.0

     negative rho (up, down):  5.149E-03 5.530E-03

     total cpu time spent up to now is     8057.6 secs

     total energy              =  -16138.55511301 Ry
     estimated scf accuracy    <       0.00001284 Ry

     total magnetization       =     1.00 Bohr mag/cell
     absolute magnetization    =     1.12 Bohr mag/cell

     iteration # 22     ecut=    50.00 Ry     beta= 0.40
     Davidson diagonalization with overlap

---- Real-time Memory Report at c_bands before calling an iterative solver
           524 MiB given to the printing process from OS
           355 MiB allocation reported by mallinfo(arena+hblkhd)
         73555 MiB available memory on the node where the printing process lives
------------------
     ethr =  2.31E-09,  avg # of iterations =  2.0

     negative rho (up, down):  5.020E-03 5.397E-03

     total cpu time spent up to now is     8347.5 secs

     total energy              =  -16138.55512491 Ry
     estimated scf accuracy    <       0.00000455 Ry

     total magnetization       =     1.00 Bohr mag/cell
     absolute magnetization    =     1.12 Bohr mag/cell

     iteration # 23     ecut=    50.00 Ry     beta= 0.40
     Davidson diagonalization with overlap

---- Real-time Memory Report at c_bands before calling an iterative solver
           524 MiB given to the printing process from OS
           355 MiB allocation reported by mallinfo(arena+hblkhd)
         72321 MiB available memory on the node where the printing process lives
------------------
     ethr =  9.39E-10,  avg # of iterations =  9.7

     negative rho (up, down):  5.052E-03 5.427E-03

     total cpu time spent up to now is     8819.4 secs

     total energy              =  -16138.55512365 Ry
     estimated scf accuracy    <       0.00001252 Ry

     total magnetization       =     1.00 Bohr mag/cell
     absolute magnetization    =     1.12 Bohr mag/cell

     iteration # 24     ecut=    50.00 Ry     beta= 0.40
     Davidson diagonalization with overlap

---- Real-time Memory Report at c_bands before calling an iterative solver
           524 MiB given to the printing process from OS
           355 MiB allocation reported by mallinfo(arena+hblkhd)
         73666 MiB available memory on the node where the printing process lives
------------------
     ethr =  9.39E-10,  avg # of iterations =  1.9

     negative rho (up, down):  4.807E-03 5.172E-03

     total cpu time spent up to now is     9108.6 secs

     total energy              =  -16138.55514923 Ry
     estimated scf accuracy    <       0.00001090 Ry

     total magnetization       =     1.00 Bohr mag/cell
     absolute magnetization    =     1.12 Bohr mag/cell

     iteration # 25     ecut=    50.00 Ry     beta= 0.40
     Davidson diagonalization with overlap

---- Real-time Memory Report at c_bands before calling an iterative solver
           524 MiB given to the printing process from OS
           355 MiB allocation reported by mallinfo(arena+hblkhd)
         73515 MiB available memory on the node where the printing process lives
------------------
     ethr =  9.39E-10,  avg # of iterations =  6.7

     negative rho (up, down):  4.810E-03 5.176E-03

     total cpu time spent up to now is     9445.0 secs

     total energy              =  -16138.55514840 Ry
     estimated scf accuracy    <       0.00000141 Ry

     total magnetization       =     1.00 Bohr mag/cell
     absolute magnetization    =     1.12 Bohr mag/cell

     iteration # 26     ecut=    50.00 Ry     beta= 0.40
     Davidson diagonalization with overlap

---- Real-time Memory Report at c_bands before calling an iterative solver
           524 MiB given to the printing process from OS
           355 MiB allocation reported by mallinfo(arena+hblkhd)
         73745 MiB available memory on the node where the printing process lives
------------------
     ethr =  2.91E-10,  avg # of iterations =  9.4

     negative rho (up, down):  4.802E-03 5.169E-03

     total cpu time spent up to now is     9926.1 secs

     total energy              =  -16138.55514967 Ry
     estimated scf accuracy    <       0.00000174 Ry

     total magnetization       =     1.00 Bohr mag/cell
     absolute magnetization    =     1.12 Bohr mag/cell

     iteration # 27     ecut=    50.00 Ry     beta= 0.40
     Davidson diagonalization with overlap

---- Real-time Memory Report at c_bands before calling an iterative solver
           524 MiB given to the printing process from OS
           355 MiB allocation reported by mallinfo(arena+hblkhd)
         73667 MiB available memory on the node where the printing process lives
------------------
     ethr =  2.91E-10,  avg # of iterations =  6.3

     negative rho (up, down):  4.800E-03 5.167E-03

     total cpu time spent up to now is    10269.6 secs

     total energy              =  -16138.55514979 Ry
     estimated scf accuracy    <       0.00000029 Ry

     total magnetization       =     1.00 Bohr mag/cell
     absolute magnetization    =     1.12 Bohr mag/cell

     iteration # 28     ecut=    50.00 Ry     beta= 0.40
     Davidson diagonalization with overlap

---- Real-time Memory Report at c_bands before calling an iterative solver
           524 MiB given to the printing process from OS
           355 MiB allocation reported by mallinfo(arena+hblkhd)
         68575 MiB available memory on the node where the printing process lives
------------------
     ethr =  5.96E-11,  avg # of iterations =  6.4

     negative rho (up, down):  4.799E-03 5.166E-03

     total cpu time spent up to now is    10712.9 secs

     total energy              =  -16138.55514987 Ry
     estimated scf accuracy    <       0.00000014 Ry

     total magnetization       =     1.00 Bohr mag/cell
     absolute magnetization    =     1.12 Bohr mag/cell

     iteration # 29     ecut=    50.00 Ry     beta= 0.40
     Davidson diagonalization with overlap

---- Real-time Memory Report at c_bands before calling an iterative solver
           524 MiB given to the printing process from OS
           355 MiB allocation reported by mallinfo(arena+hblkhd)
         75581 MiB available memory on the node where the printing process lives
------------------
     ethr =  2.90E-11,  avg # of iterations =  2.0

     negative rho (up, down):  4.798E-03 5.166E-03

     total cpu time spent up to now is    11005.4 secs

     total energy              =  -16138.55514987 Ry
     estimated scf accuracy    <       0.00000008 Ry

     total magnetization       =     1.00 Bohr mag/cell
     absolute magnetization    =     1.12 Bohr mag/cell

     iteration # 30     ecut=    50.00 Ry     beta= 0.40
     Davidson diagonalization with overlap

---- Real-time Memory Report at c_bands before calling an iterative solver
           524 MiB given to the printing process from OS
           355 MiB allocation reported by mallinfo(arena+hblkhd)
         77084 MiB available memory on the node where the printing process lives
------------------
     ethr =  1.64E-11,  avg # of iterations =  7.0

     negative rho (up, down):  4.798E-03 5.166E-03

     total cpu time spent up to now is    11395.1 secs

     total energy              =  -16138.55514989 Ry
     estimated scf accuracy    <       0.00000002 Ry

     total magnetization       =     1.00 Bohr mag/cell
     absolute magnetization    =     1.12 Bohr mag/cell

     iteration # 31     ecut=    50.00 Ry     beta= 0.40
     Davidson diagonalization with overlap

---- Real-time Memory Report at c_bands before calling an iterative solver
           524 MiB given to the printing process from OS
           355 MiB allocation reported by mallinfo(arena+hblkhd)
         77002 MiB available memory on the node where the printing process lives
------------------
     ethr =  3.33E-12,  avg # of iterations =  5.6

     negative rho (up, down):  4.797E-03 5.165E-03

     total cpu time spent up to now is    11740.9 secs

     total energy              =  -16138.55514989 Ry
     estimated scf accuracy    <          5.5E-09 Ry

     total magnetization       =     1.00 Bohr mag/cell
     absolute magnetization    =     1.12 Bohr mag/cell

     iteration # 32     ecut=    50.00 Ry     beta= 0.40
     Davidson diagonalization with overlap

---- Real-time Memory Report at c_bands before calling an iterative solver
           524 MiB given to the printing process from OS
           355 MiB allocation reported by mallinfo(arena+hblkhd)
         76110 MiB available memory on the node where the printing process lives
------------------
     ethr =  1.14E-12,  avg # of iterations =  7.0

     negative rho (up, down):  4.797E-03 5.165E-03

     total cpu time spent up to now is    12109.1 secs

     total energy              =  -16138.55514989 Ry
     estimated scf accuracy    <          1.2E-09 Ry

     total magnetization       =     1.00 Bohr mag/cell
     absolute magnetization    =     1.12 Bohr mag/cell

     iteration # 33     ecut=    50.00 Ry     beta= 0.40
     Davidson diagonalization with overlap

---- Real-time Memory Report at c_bands before calling an iterative solver
           524 MiB given to the printing process from OS
           355 MiB allocation reported by mallinfo(arena+hblkhd)
         74494 MiB available memory on the node where the printing process lives
------------------
     ethr =  2.48E-13,  avg # of iterations =  7.0

     negative rho (up, down):  4.797E-03 5.165E-03

     total cpu time spent up to now is    12484.2 secs

     total energy              =  -16138.55514989 Ry
     estimated scf accuracy    <          3.0E-10 Ry

     total magnetization       =     1.00 Bohr mag/cell
     absolute magnetization    =     1.12 Bohr mag/cell

     iteration # 34     ecut=    50.00 Ry     beta= 0.40
     Davidson diagonalization with overlap

---- Real-time Memory Report at c_bands before calling an iterative solver
           530 MiB given to the printing process from OS
           355 MiB allocation reported by mallinfo(arena+hblkhd)
         73417 MiB available memory on the node where the printing process lives
------------------
     ethr =  1.00E-13,  avg # of iterations =  6.7

     negative rho (up, down):  4.797E-03 5.165E-03

     Magnetic moment per site  (integrated on atomic sphere of radius R)
     atom   1 (R=0.078)  charge= 10.3731  magn=  0.0015
     atom   2 (R=0.078)  charge= 10.3731  magn=  0.0080
     atom   3 (R=0.078)  charge= 10.3740  magn= -0.0007
     atom   4 (R=0.078)  charge= 10.3743  magn=  0.0148
     atom   5 (R=0.078)  charge= 10.3763  magn=  0.0111
     atom   6 (R=0.078)  charge= 10.3757  magn=  0.0063
     atom   7 (R=0.078)  charge= 10.3783  magn=  0.0052
     atom   8 (R=0.078)  charge= 10.3749  magn=  0.0108
     atom   9 (R=0.078)  charge= 10.3753  magn=  0.0033
     atom  10 (R=0.078)  charge= 10.3820  magn=  0.0364
     atom  11 (R=0.078)  charge= 10.3836  magn=  0.0167
     atom  12 (R=0.078)  charge= 10.3743  magn=  0.0164
     atom  13 (R=0.078)  charge= 10.3732  magn=  0.0029
     atom  14 (R=0.078)  charge= 10.3740  magn= -0.0006
     atom  15 (R=0.078)  charge= 10.3816  magn=  0.0171
     atom  16 (R=0.078)  charge= 10.3760  magn=  0.0042
     atom  17 (R=0.078)  charge=  4.1591  magn=  0.0027
     atom  18 (R=0.078)  charge=  4.1558  magn=  0.0017
     atom  19 (R=0.078)  charge=  4.1586  magn= -0.0000
     atom  20 (R=0.078)  charge=  4.1590  magn=  0.0028
     atom  21 (R=0.078)  charge=  4.1594  magn=  0.0025
     atom  22 (R=0.078)  charge=  4.1750  magn=  0.0122
     atom  23 (R=0.078)  charge=  4.1788  magn=  0.0050
     atom  24 (R=0.078)  charge=  4.1586  magn=  0.0036
     atom  25 (R=0.078)  charge=  4.1591  magn=  0.0022
     atom  26 (R=0.078)  charge=  4.1626  magn=  0.0026
     atom  27 (R=0.078)  charge=  4.1805  magn=  0.0068
     atom  28 (R=0.078)  charge=  4.1668  magn=  0.0125
     atom  29 (R=0.078)  charge=  4.1578  magn=  0.0030
     atom  30 (R=0.078)  charge=  4.1574  magn=  0.0007
     atom  31 (R=0.078)  charge=  4.1566  magn=  0.0017
     atom  32 (R=0.078)  charge=  4.1575  magn=  0.0062
     atom  33 (R=0.078)  charge=  4.1610  magn=  0.0008
     atom  34 (R=0.078)  charge=  4.1591  magn=  0.0008
     atom  35 (R=0.078)  charge=  4.1606  magn= -0.0002
     atom  36 (R=0.078)  charge=  4.1609  magn=  0.0001
     atom  37 (R=0.078)  charge=  4.1601  magn=  0.0005
     atom  38 (R=0.078)  charge=  4.1589  magn=  0.0036
     atom  39 (R=0.078)  charge=  4.1568  magn=  0.0010
     atom  40 (R=0.078)  charge=  4.1595  magn= -0.0001
     atom  41 (R=0.078)  charge=  4.1602  magn=  0.0005
     atom  42 (R=0.078)  charge=  4.1579  magn=  0.0018
     atom  43 (R=0.078)  charge=  4.1526  magn=  0.0025
     atom  44 (R=0.078)  charge=  4.1584  magn=  0.0032
     atom  45 (R=0.078)  charge=  4.1594  magn=  0.0015
     atom  46 (R=0.078)  charge=  4.1597  magn=  0.0002
     atom  47 (R=0.078)  charge=  4.1603  magn=  0.0006
     atom  48 (R=0.078)  charge=  4.1598  magn=  0.0022
     atom  49 (R=0.075)  charge=  8.3761  magn=  0.0118
     atom  50 (R=0.075)  charge=  8.3724  magn=  0.0310
     atom  51 (R=0.075)  charge=  8.3761  magn=  0.0134
     atom  52 (R=0.075)  charge=  8.3726  magn=  0.0331
     atom  53 (R=0.075)  charge=  8.3620  magn=  0.0186
     atom  54 (R=0.033)  charge=  1.3284  magn= -0.0002
     atom  55 (R=0.032)  charge=  2.0383  magn=  0.0004
     atom  56 (R=0.032)  charge=  0.4197  magn=  0.0002
     atom  57 (R=0.032)  charge=  0.4028  magn=  0.0001
     atom  58 (R=0.032)  charge=  0.4197  magn=  0.0001

     total cpu time spent up to now is    12817.7 secs

     End of self-consistent calculation

 ------ SPIN UP ------------


          k = 0.0000 0.0000 0.0000 (112117 PWs)   bands (ev):

   -73.8165 -73.8130 -73.8100 -73.8075 -73.8055 -73.8046 -73.8020 -73.8000
   -73.7952 -73.7933 -73.7905 -73.7884 -73.7867 -73.7538 -73.7490 -73.7395
   -38.2244 -38.2194 -38.2183 -38.1634 -38.1626 -38.1577 -38.1573 -38.1509
   -38.1430 -38.0593 -38.0564 -38.0538 -38.0532 -38.0481 -38.0460 -38.0442
   -38.0307 -38.0290 -38.0264 -38.0258 -38.0220 -38.0213 -38.0190 -38.0169
   -38.0163 -38.0135 -38.0117 -38.0040 -37.9952 -37.9921 -37.9908 -37.9878
   -37.9861 -37.9820 -37.9682 -37.9581 -37.9568 -37.9539 -37.9512 -37.9459
   -37.9248 -37.9179 -37.9134 -37.9128 -37.9090 -37.9040 -37.8698 -37.8664
   -21.6886 -15.3669 -14.5985 -13.7118 -13.6986 -13.6745 -13.6441 -13.6309
   -13.6207 -12.9831 -12.7134 -12.6778 -12.6554 -12.6396 -12.6032 -12.5815
   -12.5400 -12.5072 -12.4732 -12.4568 -12.4457 -12.4436 -12.4223 -12.4210
   -12.4162 -12.2238 -12.2017 -12.1903 -12.1747 -12.1577 -12.1538 -12.1501
   -12.1470 -12.1444  -7.9645  -7.6867  -6.3434  -6.3278  -6.3097  -6.2861
    -6.2030  -5.6156  -5.5743  -5.5523  -5.5339  -5.5287  -5.4950  -5.4464
    -5.4157  -5.3929  -5.3152  -5.2851  -5.2631  -5.1072  -5.0951  -5.0658
    -5.0608  -5.0563  -5.0552  -5.0007  -4.9993  -4.9904  -4.5258  -4.4429
    -4.4036  -4.3486  -4.2955  -4.2856  -4.2697  -4.2487  -4.2345  -4.1841
    -4.0822  -4.0123  -3.9803  -3.9642  -3.9381  -3.7969  -3.7621  -3.7599
    -3.7043  -3.6797  -3.6763  -3.6043  -3.5156  -3.4757  -3.4088  -3.4043
    -3.3748  -3.3677  -3.2945  -3.2264  -3.1985  -3.1846  -3.1659  -3.1448
    -3.1351  -3.1268  -3.1132  -3.1097  -3.0641  -2.9626  -2.8224  -2.7639
    -2.7245  -2.6781  -2.6506  -2.5936  -2.5848  -2.5209  -2.5083  -2.4676
    -2.4625  -2.4357  -2.4346  -2.4284  -2.3999  -2.3434  -2.2931  -2.2109
    -2.1332  -2.0860  -1.9818  -1.9790  -1.9561  -1.9342  -1.8720  -1.8388
    -1.8160  -1.7829  -1.7707  -1.7666  -1.7533  -1.7532  -1.7450  -1.7394
    -1.7375  -1.7109  -1.6948  -1.6682  -1.6615  -1.6468  -1.6369  -1.6115
    -1.5826  -1.5335  -1.5254  -1.5072  -1.4548  -1.4198  -1.3750  -1.3587
    -1.3125  -1.2733  -1.2045  -1.0989  -1.0488  -1.0315  -1.0159  -0.9964
    -0.7288  -0.6950  -0.6907  -0.6887  -0.6793  -0.6755  -0.6503  -0.6472
    -0.6310  -0.3981  -0.3895  -0.3779  -0.3630  -0.3506  -0.3423  -0.3222
     0.1965   1.2546   1.5346

     occupation numbers 
     1.0000   1.0000   1.0000   1.0000   1.0000   1.0000   1.0000   1.0000
     1.0000   1.0000   1.0000   1.0000   1.0000   1.0000   1.0000   1.0000
     1.0000   1.0000   1.0000   1.0000   1.0000   1.0000   1.0000   1.0000
     1.0000   1.0000   1.0000   1.0000   1.0000   1.0000   1.0000   1.0000
     1.0000   1.0000   1.0000   1.0000   1.0000   1.0000   1.0000   1.0000
     1.0000   1.0000   1.0000   1.0000   1.0000   1.0000   1.0000   1.0000
     1.0000   1.0000   1.0000   1.0000   1.0000   1.0000   1.0000   1.0000
     1.0000   1.0000   1.0000   1.0000   1.0000   1.0000   1.0000   1.0000
     1.0000   1.0000   1.0000   1.0000   1.0000   1.0000   1.0000   1.0000
     1.0000   1.0000   1.0000   1.0000   1.0000   1.0000   1.0000   1.0000
     1.0000   1.0000   1.0000   1.0000   1.0000   1.0000   1.0000   1.0000
     1.0000   1.0000   1.0000   1.0000   1.0000   1.0000   1.0000   1.0000
     1.0000   1.0000   1.0000   1.0000   1.0000   1.0000   1.0000   1.0000
     1.0000   1.0000   1.0000   1.0000   1.0000   1.0000   1.0000   1.0000
     1.0000   1.0000   1.0000   1.0000   1.0000   1.0000   1.0000   1.0000
     1.0000   1.0000   1.0000   1.0000   1.0000   1.0000   1.0000   1.0000
     1.0000   1.0000   1.0000   1.0000   1.0000   1.0000   1.0000   1.0000
     1.0000   1.0000   1.0000   1.0000   1.0000   1.0000   1.0000   1.0000
     1.0000   1.0000   1.0000   1.0000   1.0000   1.0000   1.0000   1.0000
     1.0000   1.0000   1.0000   1.0000   1.0000   1.0000   1.0000   1.0000
     1.0000   1.0000   1.0000   1.0000   1.0000   1.0000   1.0000   1.0000
     1.0000   1.0000   1.0000   1.0000   1.0000   1.0000   1.0000   1.0000
     1.0000   1.0000   1.0000   1.0000   1.0000   1.0000   1.0000   1.0000
     1.0000   1.0000   1.0000   1.0000   1.0000   1.0000   1.0000   1.0000
     1.0000   1.0000   1.0000   1.0000   1.0000   1.0000   1.0000   1.0000
     1.0000   1.0000   1.0000   1.0000   1.0000   1.0000   1.0000   1.0000
     1.0000   1.0000   1.0000   1.0000   1.0000   1.0000   1.0000   1.0000
     1.0000   1.0000   1.0000   1.0000   1.0000   1.0000   1.0000   1.0000
     1.0000   1.0000   1.0000   1.0000   1.0000   1.0000   1.0000   1.0000
     1.0000   1.0000   1.0000   1.0000   1.0000   1.0000   1.0000   1.0000
     1.0000   1.0000   1.0000

          k = 0.0000 0.2309 0.0000 (112171 PWs)   bands (ev):

   -73.8163 -73.8133 -73.8100 -73.8077 -73.8053 -73.8046 -73.8020 -73.7999
   -73.7954 -73.7933 -73.7904 -73.7885 -73.7867 -73.7538 -73.7490 -73.7395
   -38.2192 -38.2142 -38.2120 -38.1699 -38.1652 -38.1618 -38.1549 -38.1474
   -38.1404 -38.1031 -38.0784 -38.0762 -38.0523 -38.0487 -38.0451 -38.0322
   -38.0288 -38.0260 -38.0237 -38.0211 -38.0179 -38.0158 -38.0129 -38.0111
   -38.0040 -37.9986 -37.9968 -37.9954 -37.9935 -37.9917 -37.9881 -37.9867
   -37.9852 -37.9819 -37.9685 -37.9614 -37.9592 -37.9543 -37.9512 -37.9460
   -37.9320 -37.9224 -37.9214 -37.9110 -37.9077 -37.9005 -37.8772 -37.8680
   -21.6886 -15.3669 -14.5568 -13.9772 -13.8024 -13.7853 -13.4943 -13.4613
   -13.3246 -12.9671 -12.8070 -12.7353 -12.6975 -12.6876 -12.6550 -12.5876
   -12.5550 -12.5430 -12.4943 -12.4768 -12.4570 -12.4372 -12.4235 -12.3169
   -12.2851 -12.2633 -12.2441 -12.2141 -12.1853 -12.1744 -12.1680 -12.1526
   -12.0952 -12.0800  -7.9645  -7.6867  -6.2820  -6.2708  -6.2424  -6.2368
    -6.1981  -5.6710  -5.6477  -5.6305  -5.5601  -5.5189  -5.4896  -5.4715
    -5.4305  -5.4184  -5.3963  -5.3214  -5.3172  -5.2878  -5.2707  -5.0737
    -5.0666  -5.0185  -5.0025  -4.9566  -4.7399  -4.7346  -4.5922  -4.4857
    -4.4543  -4.3865  -4.3235  -4.2892  -4.2103  -4.1617  -4.1473  -4.1209
    -4.1002  -4.0633  -4.0440  -4.0017  -3.9855  -3.9132  -3.9101  -3.9016
    -3.6672  -3.5734  -3.5424  -3.5084  -3.4698  -3.4424  -3.4388  -3.3841
    -3.3643  -3.3144  -3.2967  -3.2792  -3.2752  -3.2090  -3.1949  -3.1498
    -3.1037  -2.9974  -2.9656  -2.9347  -2.8584  -2.7900  -2.7768  -2.7494
    -2.7242  -2.7181  -2.6999  -2.6872  -2.6588  -2.6340  -2.6109  -2.5452
    -2.5184  -2.5026  -2.4777  -2.4381  -2.3636  -2.3153  -2.2048  -2.1648
    -2.1247  -2.0868  -2.0188  -2.0047  -1.9856  -1.9692  -1.9379  -1.9115
    -1.8917  -1.8640  -1.8534  -1.8190  -1.7919  -1.7631  -1.7454  -1.7314
    -1.7179  -1.7036  -1.6884  -1.6666  -1.6510  -1.6097  -1.5863  -1.5527
    -1.5368  -1.4958  -1.4848  -1.4616  -1.4343  -1.3733  -1.3369  -1.3276
    -1.2976  -1.2821  -1.2474  -1.2241  -1.1658  -1.0723  -1.0450  -1.0205
    -0.8972  -0.7802  -0.7630  -0.7504  -0.5729  -0.5654  -0.5531  -0.5352
    -0.5222  -0.5123  -0.4131  -0.3778  -0.3664  -0.2662  -0.1711  -0.1462
     0.1775   1.2610   1.5659

     occupation numbers 
     1.0000   1.0000   1.0000   1.0000   1.0000   1.0000   1.0000   1.0000
     1.0000   1.0000   1.0000   1.0000   1.0000   1.0000   1.0000   1.0000
     1.0000   1.0000   1.0000   1.0000   1.0000   1.0000   1.0000   1.0000
     1.0000   1.0000   1.0000   1.0000   1.0000   1.0000   1.0000   1.0000
     1.0000   1.0000   1.0000   1.0000   1.0000   1.0000   1.0000   1.0000
     1.0000   1.0000   1.0000   1.0000   1.0000   1.0000   1.0000   1.0000
     1.0000   1.0000   1.0000   1.0000   1.0000   1.0000   1.0000   1.0000
     1.0000   1.0000   1.0000   1.0000   1.0000   1.0000   1.0000   1.0000
     1.0000   1.0000   1.0000   1.0000   1.0000   1.0000   1.0000   1.0000
     1.0000   1.0000   1.0000   1.0000   1.0000   1.0000   1.0000   1.0000
     1.0000   1.0000   1.0000   1.0000   1.0000   1.0000   1.0000   1.0000
     1.0000   1.0000   1.0000   1.0000   1.0000   1.0000   1.0000   1.0000
     1.0000   1.0000   1.0000   1.0000   1.0000   1.0000   1.0000   1.0000
     1.0000   1.0000   1.0000   1.0000   1.0000   1.0000   1.0000   1.0000
     1.0000   1.0000   1.0000   1.0000   1.0000   1.0000   1.0000   1.0000
     1.0000   1.0000   1.0000   1.0000   1.0000   1.0000   1.0000   1.0000
     1.0000   1.0000   1.0000   1.0000   1.0000   1.0000   1.0000   1.0000
     1.0000   1.0000   1.0000   1.0000   1.0000   1.0000   1.0000   1.0000
     1.0000   1.0000   1.0000   1.0000   1.0000   1.0000   1.0000   1.0000
     1.0000   1.0000   1.0000   1.0000   1.0000   1.0000   1.0000   1.0000
     1.0000   1.0000   1.0000   1.0000   1.0000   1.0000   1.0000   1.0000
     1.0000   1.0000   1.0000   1.0000   1.0000   1.0000   1.0000   1.0000
     1.0000   1.0000   1.0000   1.0000   1.0000   1.0000   1.0000   1.0000
     1.0000   1.0000   1.0000   1.0000   1.0000   1.0000   1.0000   1.0000
     1.0000   1.0000   1.0000   1.0000   1.0000   1.0000   1.0000   1.0000
     1.0000   1.0000   1.0000   1.0000   1.0000   1.0000   1.0000   1.0000
     1.0000   1.0000   1.0000   1.0000   1.0000   1.0000   1.0000   1.0000
     1.0000   1.0000   1.0000   1.0000   1.0000   1.0000   1.0000   1.0000
     1.0000   1.0000   1.0000   1.0000   1.0000   1.0000   1.0000   1.0000
     1.0000   1.0000   1.0000   1.0000   1.0000   1.0000   1.0000   1.0000
     1.0000   1.0000   1.0000

          k = 0.0000 0.4619 0.0000 (112236 PWs)   bands (ev):

   -73.8160 -73.8137 -73.8101 -73.8079 -73.8051 -73.8045 -73.8021 -73.7998
   -73.7956 -73.7933 -73.7902 -73.7887 -73.7866 -73.7538 -73.7490 -73.7395
   -38.2060 -38.2034 -38.1900 -38.1874 -38.1754 -38.1658 -38.1595 -38.1465
   -38.1305 -38.1257 -38.1051 -38.1006 -38.0633 -38.0580 -38.0468 -38.0380
   -38.0309 -38.0200 -38.0164 -38.0121 -38.0088 -38.0061 -38.0024 -38.0001
   -37.9982 -37.9968 -37.9964 -37.9907 -37.9879 -37.9850 -37.9818 -37.9782
   -37.9731 -37.9696 -37.9664 -37.9649 -37.9526 -37.9509 -37.9489 -37.9472
   -37.9424 -37.9358 -37.9311 -37.9155 -37.9106 -37.8946 -37.8930 -37.8709
   -21.6886 -15.3669 -14.4352 -14.2338 -13.8722 -13.8534 -13.2654 -13.2300
   -13.0204 -12.9995 -12.9702 -12.9174 -12.8330 -12.7310 -12.7045 -12.6889
   -12.5217 -12.5144 -12.4629 -12.4497 -12.4368 -12.4246 -12.3823 -12.3690
   -12.3504 -12.2841 -12.2163 -12.2016 -12.1771 -12.1589 -12.1569 -12.1525
   -12.0560 -12.0392  -7.9645  -7.6867  -6.2124  -6.1293  -6.1143  -6.0923
    -6.0273  -5.8734  -5.8610  -5.8386  -5.7147  -5.5349  -5.5002  -5.4888
    -5.4606  -5.4461  -5.4377  -5.3940  -5.3742  -5.3265  -5.3020  -5.0670
    -5.0637  -5.0309  -5.0095  -4.8113  -4.6328  -4.5298  -4.4872  -4.4407
    -4.3947  -4.3758  -4.3496  -4.3141  -4.2455  -4.2323  -4.1920  -4.1610
    -4.1300  -4.1194  -4.1034  -4.0773  -4.0658  -4.0524  -4.0429  -3.6898
    -3.5737  -3.5104  -3.4825  -3.4438  -3.4198  -3.3923  -3.3685  -3.3107
    -3.2951  -3.2827  -3.2626  -3.2405  -3.2212  -3.1881  -3.1644  -3.1081
    -3.0670  -3.0614  -3.0104  -2.9717  -2.9533  -2.9162  -2.8649  -2.7716
    -2.7522  -2.7091  -2.6685  -2.6396  -2.6115  -2.5718  -2.5332  -2.4924
    -2.4520  -2.4327  -2.3969  -2.3197  -2.2796  -2.2554  -2.2426  -2.1870
    -2.1281  -2.0972  -2.0467  -2.0207  -2.0110  -2.0009  -1.9834  -1.9550
    -1.9330  -1.9093  -1.8809  -1.8740  -1.8564  -1.8437  -1.8398  -1.8280
    -1.7741  -1.7636  -1.7228  -1.7135  -1.6940  -1.6690  -1.6338  -1.6208
    -1.5943  -1.5554  -1.5341  -1.5051  -1.4343  -1.3907  -1.3021  -1.2899
    -1.2350  -1.2040  -1.1918  -1.1500  -1.1194  -1.0981  -1.0496  -0.9998
    -0.9776  -0.8945  -0.7343  -0.7232  -0.6417  -0.6255  -0.4945  -0.4580
    -0.4444  -0.4341  -0.3986  -0.3811  -0.3134  -0.0949   0.0013   0.0245
     0.1279   1.2707   1.6185

     occupation numbers 
     1.0000   1.0000   1.0000   1.0000   1.0000   1.0000   1.0000   1.0000
     1.0000   1.0000   1.0000   1.0000   1.0000   1.0000   1.0000   1.0000
     1.0000   1.0000   1.0000   1.0000   1.0000   1.0000   1.0000   1.0000
     1.0000   1.0000   1.0000   1.0000   1.0000   1.0000   1.0000   1.0000
     1.0000   1.0000   1.0000   1.0000   1.0000   1.0000   1.0000   1.0000
     1.0000   1.0000   1.0000   1.0000   1.0000   1.0000   1.0000   1.0000
     1.0000   1.0000   1.0000   1.0000   1.0000   1.0000   1.0000   1.0000
     1.0000   1.0000   1.0000   1.0000   1.0000   1.0000   1.0000   1.0000
     1.0000   1.0000   1.0000   1.0000   1.0000   1.0000   1.0000   1.0000
     1.0000   1.0000   1.0000   1.0000   1.0000   1.0000   1.0000   1.0000
     1.0000   1.0000   1.0000   1.0000   1.0000   1.0000   1.0000   1.0000
     1.0000   1.0000   1.0000   1.0000   1.0000   1.0000   1.0000   1.0000
     1.0000   1.0000   1.0000   1.0000   1.0000   1.0000   1.0000   1.0000
     1.0000   1.0000   1.0000   1.0000   1.0000   1.0000   1.0000   1.0000
     1.0000   1.0000   1.0000   1.0000   1.0000   1.0000   1.0000   1.0000
     1.0000   1.0000   1.0000   1.0000   1.0000   1.0000   1.0000   1.0000
     1.0000   1.0000   1.0000   1.0000   1.0000   1.0000   1.0000   1.0000
     1.0000   1.0000   1.0000   1.0000   1.0000   1.0000   1.0000   1.0000
     1.0000   1.0000   1.0000   1.0000   1.0000   1.0000   1.0000   1.0000
     1.0000   1.0000   1.0000   1.0000   1.0000   1.0000   1.0000   1.0000
     1.0000   1.0000   1.0000   1.0000   1.0000   1.0000   1.0000   1.0000
     1.0000   1.0000   1.0000   1.0000   1.0000   1.0000   1.0000   1.0000
     1.0000   1.0000   1.0000   1.0000   1.0000   1.0000   1.0000   1.0000
     1.0000   1.0000   1.0000   1.0000   1.0000   1.0000   1.0000   1.0000
     1.0000   1.0000   1.0000   1.0000   1.0000   1.0000   1.0000   1.0000
     1.0000   1.0000   1.0000   1.0000   1.0000   1.0000   1.0000   1.0000
     1.0000   1.0000   1.0000   1.0000   1.0000   1.0000   1.0000   1.0000
     1.0000   1.0000   1.0000   1.0000   1.0000   1.0000   1.0000   1.0000
     1.0000   1.0000   1.0000   1.0000   1.0000   1.0000   1.0000   1.0000
     1.0000   1.0000   1.0000   1.0000   1.0000   1.0000   1.0000   1.0000
     1.0000   1.0000   1.0000

          k = 0.2000 0.3464 0.0000 (112231 PWs)   bands (ev):

   -73.8160 -73.8137 -73.8101 -73.8077 -73.8052 -73.8044 -73.8022 -73.8000
   -73.7953 -73.7934 -73.7902 -73.7887 -73.7866 -73.7538 -73.7490 -73.7395
   -38.2114 -38.2027 -38.1994 -38.1786 -38.1756 -38.1638 -38.1551 -38.1476
   -38.1317 -38.1232 -38.1159 -38.0771 -38.0591 -38.0554 -38.0470 -38.0367
   -38.0316 -38.0285 -38.0247 -38.0191 -38.0154 -38.0089 -38.0025 -37.9996
   -37.9949 -37.9921 -37.9904 -37.9886 -37.9862 -37.9836 -37.9821 -37.9808
   -37.9757 -37.9721 -37.9686 -37.9653 -37.9585 -37.9545 -37.9513 -37.9467
   -37.9405 -37.9314 -37.9256 -37.9205 -37.9044 -37.8994 -37.8860 -37.8715
   -21.6886 -15.3669 -14.4751 -14.1035 -14.0587 -13.5670 -13.5641 -13.1747
   -13.1183 -13.0094 -12.9353 -12.8099 -12.7896 -12.7104 -12.6713 -12.6054
   -12.5949 -12.5764 -12.5714 -12.4575 -12.4246 -12.3910 -12.3767 -12.3132
   -12.2899 -12.2729 -12.2519 -12.2322 -12.2203 -12.1546 -12.1501 -12.1076
   -12.0950 -12.0354  -7.9645  -7.6867  -6.2147  -6.1776  -6.1539  -6.1287
    -6.1052  -5.7664  -5.7373  -5.7210  -5.6813  -5.6442  -5.6018  -5.5665
    -5.5052  -5.4737  -5.3555  -5.3345  -5.2842  -5.2759  -5.2433  -5.2287
    -5.0953  -4.9054  -4.8899  -4.8160  -4.7510  -4.6066  -4.4916  -4.4706
    -4.3981  -4.3671  -4.3379  -4.3045  -4.2760  -4.2631  -4.2348  -4.2267
    -4.1730  -4.1227  -4.1075  -4.0921  -4.0555  -3.7645  -3.7361  -3.7266
    -3.7187  -3.6937  -3.6031  -3.4981  -3.4303  -3.4007  -3.3512  -3.3222
    -3.2948  -3.2457  -3.2256  -3.2068  -3.1690  -3.1500  -3.1081  -3.0915
    -3.0413  -3.0153  -2.9902  -2.9515  -2.9440  -2.9261  -2.9158  -2.9005
    -2.8171  -2.7395  -2.7211  -2.6531  -2.6354  -2.5581  -2.5176  -2.4776
    -2.4638  -2.4387  -2.3871  -2.3612  -2.3152  -2.2206  -2.1849  -2.1647
    -2.1314  -2.1249  -2.0958  -2.0877  -2.0181  -1.9990  -1.9815  -1.9517
    -1.9285  -1.9060  -1.8835  -1.8570  -1.8375  -1.8284  -1.7991  -1.7475
    -1.7337  -1.7183  -1.7061  -1.6784  -1.6714  -1.6223  -1.5956  -1.5751
    -1.5662  -1.5414  -1.5370  -1.5084  -1.4276  -1.3927  -1.3810  -1.3659
    -1.2912  -1.2261  -1.2068  -1.1849  -1.1556  -1.1172  -1.0305  -1.0090
    -0.8745  -0.8481  -0.6812  -0.6722  -0.6386  -0.6314  -0.6159  -0.5416
    -0.5328  -0.4375  -0.3759  -0.2556  -0.2111  -0.1999  -0.1590   0.0715
     0.1407   1.2837   1.5906

     occupation numbers 
     1.0000   1.0000   1.0000   1.0000   1.0000   1.0000   1.0000   1.0000
     1.0000   1.0000   1.0000   1.0000   1.0000   1.0000   1.0000   1.0000
     1.0000   1.0000   1.0000   1.0000   1.0000   1.0000   1.0000   1.0000
     1.0000   1.0000   1.0000   1.0000   1.0000   1.0000   1.0000   1.0000
     1.0000   1.0000   1.0000   1.0000   1.0000   1.0000   1.0000   1.0000
     1.0000   1.0000   1.0000   1.0000   1.0000   1.0000   1.0000   1.0000
     1.0000   1.0000   1.0000   1.0000   1.0000   1.0000   1.0000   1.0000
     1.0000   1.0000   1.0000   1.0000   1.0000   1.0000   1.0000   1.0000
     1.0000   1.0000   1.0000   1.0000   1.0000   1.0000   1.0000   1.0000
     1.0000   1.0000   1.0000   1.0000   1.0000   1.0000   1.0000   1.0000
     1.0000   1.0000   1.0000   1.0000   1.0000   1.0000   1.0000   1.0000
     1.0000   1.0000   1.0000   1.0000   1.0000   1.0000   1.0000   1.0000
     1.0000   1.0000   1.0000   1.0000   1.0000   1.0000   1.0000   1.0000
     1.0000   1.0000   1.0000   1.0000   1.0000   1.0000   1.0000   1.0000
     1.0000   1.0000   1.0000   1.0000   1.0000   1.0000   1.0000   1.0000
     1.0000   1.0000   1.0000   1.0000   1.0000   1.0000   1.0000   1.0000
     1.0000   1.0000   1.0000   1.0000   1.0000   1.0000   1.0000   1.0000
     1.0000   1.0000   1.0000   1.0000   1.0000   1.0000   1.0000   1.0000
     1.0000   1.0000   1.0000   1.0000   1.0000   1.0000   1.0000   1.0000
     1.0000   1.0000   1.0000   1.0000   1.0000   1.0000   1.0000   1.0000
     1.0000   1.0000   1.0000   1.0000   1.0000   1.0000   1.0000   1.0000
     1.0000   1.0000   1.0000   1.0000   1.0000   1.0000   1.0000   1.0000
     1.0000   1.0000   1.0000   1.0000   1.0000   1.0000   1.0000   1.0000
     1.0000   1.0000   1.0000   1.0000   1.0000   1.0000   1.0000   1.0000
     1.0000   1.0000   1.0000   1.0000   1.0000   1.0000   1.0000   1.0000
     1.0000   1.0000   1.0000   1.0000   1.0000   1.0000   1.0000   1.0000
     1.0000   1.0000   1.0000   1.0000   1.0000   1.0000   1.0000   1.0000
     1.0000   1.0000   1.0000   1.0000   1.0000   1.0000   1.0000   1.0000
     1.0000   1.0000   1.0000   1.0000   1.0000   1.0000   1.0000   1.0000
     1.0000   1.0000   1.0000   1.0000   1.0000   1.0000   1.0000   1.0000
     1.0000   1.0000   1.0000

          k = 0.2000 0.5774 0.0000 (112237 PWs)   bands (ev):

   -73.8159 -73.8138 -73.8101 -73.8080 -73.8051 -73.8042 -73.8022 -73.7999
   -73.7955 -73.7934 -73.7902 -73.7887 -73.7866 -73.7538 -73.7490 -73.7395
   -38.2003 -38.1964 -38.1862 -38.1829 -38.1761 -38.1706 -38.1648 -38.1500
   -38.1467 -38.1323 -38.0921 -38.0906 -38.0865 -38.0504 -38.0450 -38.0394
   -38.0333 -38.0300 -38.0170 -38.0167 -38.0069 -38.0044 -38.0021 -38.0004
   -37.9993 -37.9966 -37.9917 -37.9879 -37.9851 -37.9816 -37.9745 -37.9701
   -37.9687 -37.9661 -37.9612 -37.9585 -37.9557 -37.9524 -37.9498 -37.9455
   -37.9420 -37.9372 -37.9313 -37.9285 -37.9170 -37.8968 -37.8879 -37.8746
   -21.6886 -15.3669 -14.3361 -14.2927 -14.1144 -13.5953 -13.3016 -13.2933
   -12.9541 -12.9483 -12.8883 -12.8532 -12.8416 -12.8018 -12.7925 -12.6579
   -12.6307 -12.6029 -12.4920 -12.4840 -12.3838 -12.3721 -12.3586 -12.3231
   -12.3093 -12.2966 -12.2584 -12.2330 -12.2319 -12.1303 -12.1203 -12.1180
   -12.0783 -12.0159  -7.9645  -7.6867  -6.2107  -6.0592  -6.0093  -5.9861
    -5.9212  -5.8960  -5.8758  -5.8498  -5.8091  -5.7433  -5.6869  -5.6240
    -5.6128  -5.5407  -5.3635  -5.2665  -5.2549  -5.2193  -5.2041  -5.1707
    -5.1548  -4.8561  -4.8319  -4.7535  -4.6339  -4.5785  -4.5479  -4.5213
    -4.4745  -4.4183  -4.3987  -4.3191  -4.3118  -4.2390  -4.2325  -4.2126
    -4.1887  -4.1650  -4.1221  -4.0951  -3.9535  -3.9498  -3.7911  -3.6624
    -3.6445  -3.5630  -3.4415  -3.3922  -3.3606  -3.3285  -3.3060  -3.2860
    -3.2726  -3.2605  -3.2443  -3.2339  -3.2155  -3.2000  -3.1434  -3.1238
    -3.1016  -3.0801  -3.0618  -3.0349  -3.0074  -2.9582  -2.8788  -2.8295
    -2.7525  -2.7215  -2.6976  -2.6718  -2.6324  -2.5476  -2.5155  -2.4558
    -2.3966  -2.3328  -2.3198  -2.3080  -2.2540  -2.2060  -2.1794  -2.1343
    -2.1201  -2.1091  -2.0789  -2.0615  -2.0174  -1.9865  -1.9666  -1.9555
    -1.9385  -1.9177  -1.8970  -1.8805  -1.8693  -1.8560  -1.8432  -1.8351
    -1.8230  -1.7817  -1.7602  -1.7353  -1.7034  -1.6846  -1.6798  -1.6505
    -1.6176  -1.5723  -1.5601  -1.5070  -1.4783  -1.4661  -1.4133  -1.3335
    -1.2838  -1.1950  -1.1584  -1.1435  -1.0948  -1.0808  -1.0060  -0.9902
    -0.8137  -0.7987  -0.7019  -0.6911  -0.6597  -0.6453  -0.5926  -0.5828
    -0.5661  -0.4134  -0.2788  -0.2701  -0.1887  -0.1250  -0.0667   0.0908
     0.1885   1.2928   1.6069

     occupation numbers 
     1.0000   1.0000   1.0000   1.0000   1.0000   1.0000   1.0000   1.0000
     1.0000   1.0000   1.0000   1.0000   1.0000   1.0000   1.0000   1.0000
     1.0000   1.0000   1.0000   1.0000   1.0000   1.0000   1.0000   1.0000
     1.0000   1.0000   1.0000   1.0000   1.0000   1.0000   1.0000   1.0000
     1.0000   1.0000   1.0000   1.0000   1.0000   1.0000   1.0000   1.0000
     1.0000   1.0000   1.0000   1.0000   1.0000   1.0000   1.0000   1.0000
     1.0000   1.0000   1.0000   1.0000   1.0000   1.0000   1.0000   1.0000
     1.0000   1.0000   1.0000   1.0000   1.0000   1.0000   1.0000   1.0000
     1.0000   1.0000   1.0000   1.0000   1.0000   1.0000   1.0000   1.0000
     1.0000   1.0000   1.0000   1.0000   1.0000   1.0000   1.0000   1.0000
     1.0000   1.0000   1.0000   1.0000   1.0000   1.0000   1.0000   1.0000
     1.0000   1.0000   1.0000   1.0000   1.0000   1.0000   1.0000   1.0000
     1.0000   1.0000   1.0000   1.0000   1.0000   1.0000   1.0000   1.0000
     1.0000   1.0000   1.0000   1.0000   1.0000   1.0000   1.0000   1.0000
     1.0000   1.0000   1.0000   1.0000   1.0000   1.0000   1.0000   1.0000
     1.0000   1.0000   1.0000   1.0000   1.0000   1.0000   1.0000   1.0000
     1.0000   1.0000   1.0000   1.0000   1.0000   1.0000   1.0000   1.0000
     1.0000   1.0000   1.0000   1.0000   1.0000   1.0000   1.0000   1.0000
     1.0000   1.0000   1.0000   1.0000   1.0000   1.0000   1.0000   1.0000
     1.0000   1.0000   1.0000   1.0000   1.0000   1.0000   1.0000   1.0000
     1.0000   1.0000   1.0000   1.0000   1.0000   1.0000   1.0000   1.0000
     1.0000   1.0000   1.0000   1.0000   1.0000   1.0000   1.0000   1.0000
     1.0000   1.0000   1.0000   1.0000   1.0000   1.0000   1.0000   1.0000
     1.0000   1.0000   1.0000   1.0000   1.0000   1.0000   1.0000   1.0000
     1.0000   1.0000   1.0000   1.0000   1.0000   1.0000   1.0000   1.0000
     1.0000   1.0000   1.0000   1.0000   1.0000   1.0000   1.0000   1.0000
     1.0000   1.0000   1.0000   1.0000   1.0000   1.0000   1.0000   1.0000
     1.0000   1.0000   1.0000   1.0000   1.0000   1.0000   1.0000   1.0000
     1.0000   1.0000   1.0000   1.0000   1.0000   1.0000   1.0000   1.0000
     1.0000   1.0000   1.0000   1.0000   1.0000   1.0000   1.0000   1.0000
     1.0000   1.0000   1.0000

          k =-0.2000 0.1155 0.0000 (112171 PWs)   bands (ev):

   -73.8164 -73.8132 -73.8101 -73.8079 -73.8054 -73.8043 -73.8021 -73.8000
   -73.7952 -73.7934 -73.7905 -73.7884 -73.7867 -73.7538 -73.7490 -73.7395
   -38.2192 -38.2144 -38.2116 -38.1684 -38.1646 -38.1634 -38.1585 -38.1457
   -38.1392 -38.1025 -38.0797 -38.0756 -38.0507 -38.0481 -38.0441 -38.0339
   -38.0277 -38.0272 -38.0246 -38.0234 -38.0163 -38.0154 -38.0132 -38.0118
   -38.0036 -38.0002 -37.9971 -37.9957 -37.9929 -37.9913 -37.9877 -37.9858
   -37.9850 -37.9818 -37.9685 -37.9618 -37.9593 -37.9537 -37.9512 -37.9460
   -37.9323 -37.9242 -37.9203 -37.9101 -37.9080 -37.8999 -37.8743 -37.8711
   -21.6886 -15.3669 -14.5569 -13.9760 -13.8025 -13.7881 -13.4792 -13.4745
   -13.3253 -12.9675 -12.7921 -12.7593 -12.6920 -12.6821 -12.6574 -12.5873
   -12.5650 -12.5216 -12.4977 -12.4788 -12.4700 -12.4323 -12.4217 -12.3080
   -12.2946 -12.2616 -12.2442 -12.2134 -12.1867 -12.1756 -12.1676 -12.1505
   -12.0949 -12.0808  -7.9645  -7.6867  -6.2860  -6.2657  -6.2463  -6.2341
    -6.1981  -5.6793  -5.6400  -5.6255  -5.5498  -5.5322  -5.4929  -5.4694
    -5.4392  -5.4205  -5.3844  -5.3286  -5.3111  -5.2828  -5.2769  -5.0824
    -5.0632  -5.0162  -5.0000  -4.9519  -4.7408  -4.7357  -4.5740  -4.5157
    -4.4509  -4.3729  -4.3407  -4.2809  -4.2085  -4.1626  -4.1480  -4.1232
    -4.1003  -4.0667  -4.0407  -3.9967  -3.9844  -3.9158  -3.9060  -3.8973
    -3.6613  -3.5891  -3.5351  -3.5033  -3.4789  -3.4604  -3.4453  -3.3755
    -3.3662  -3.3147  -3.2959  -3.2794  -3.2643  -3.2066  -3.1948  -3.1552
    -3.1031  -2.9863  -2.9656  -2.9296  -2.8343  -2.8000  -2.7764  -2.7506
    -2.7300  -2.7150  -2.6987  -2.6908  -2.6758  -2.6524  -2.6052  -2.5474
    -2.5168  -2.4819  -2.4705  -2.4421  -2.3697  -2.3124  -2.1981  -2.1764
    -2.1340  -2.0885  -2.0224  -2.0061  -1.9802  -1.9667  -1.9455  -1.9084
    -1.8860  -1.8668  -1.8424  -1.8206  -1.8059  -1.7738  -1.7410  -1.7248
    -1.7099  -1.6980  -1.6840  -1.6673  -1.6538  -1.6092  -1.5770  -1.5564
    -1.5281  -1.5061  -1.4962  -1.4358  -1.4269  -1.3739  -1.3522  -1.3302
    -1.3143  -1.2769  -1.2568  -1.2225  -1.1620  -1.0810  -1.0437  -1.0092
    -0.9006  -0.7762  -0.7594  -0.7413  -0.5856  -0.5697  -0.5528  -0.5339
    -0.5193  -0.5109  -0.4154  -0.3837  -0.3596  -0.2642  -0.1729  -0.1459
     0.1762   1.2828   1.5421

     occupation numbers 
     1.0000   1.0000   1.0000   1.0000   1.0000   1.0000   1.0000   1.0000
     1.0000   1.0000   1.0000   1.0000   1.0000   1.0000   1.0000   1.0000
     1.0000   1.0000   1.0000   1.0000   1.0000   1.0000   1.0000   1.0000
     1.0000   1.0000   1.0000   1.0000   1.0000   1.0000   1.0000   1.0000
     1.0000   1.0000   1.0000   1.0000   1.0000   1.0000   1.0000   1.0000
     1.0000   1.0000   1.0000   1.0000   1.0000   1.0000   1.0000   1.0000
     1.0000   1.0000   1.0000   1.0000   1.0000   1.0000   1.0000   1.0000
     1.0000   1.0000   1.0000   1.0000   1.0000   1.0000   1.0000   1.0000
     1.0000   1.0000   1.0000   1.0000   1.0000   1.0000   1.0000   1.0000
     1.0000   1.0000   1.0000   1.0000   1.0000   1.0000   1.0000   1.0000
     1.0000   1.0000   1.0000   1.0000   1.0000   1.0000   1.0000   1.0000
     1.0000   1.0000   1.0000   1.0000   1.0000   1.0000   1.0000   1.0000
     1.0000   1.0000   1.0000   1.0000   1.0000   1.0000   1.0000   1.0000
     1.0000   1.0000   1.0000   1.0000   1.0000   1.0000   1.0000   1.0000
     1.0000   1.0000   1.0000   1.0000   1.0000   1.0000   1.0000   1.0000
     1.0000   1.0000   1.0000   1.0000   1.0000   1.0000   1.0000   1.0000
     1.0000   1.0000   1.0000   1.0000   1.0000   1.0000   1.0000   1.0000
     1.0000   1.0000   1.0000   1.0000   1.0000   1.0000   1.0000   1.0000
     1.0000   1.0000   1.0000   1.0000   1.0000   1.0000   1.0000   1.0000
     1.0000   1.0000   1.0000   1.0000   1.0000   1.0000   1.0000   1.0000
     1.0000   1.0000   1.0000   1.0000   1.0000   1.0000   1.0000   1.0000
     1.0000   1.0000   1.0000   1.0000   1.0000   1.0000   1.0000   1.0000
     1.0000   1.0000   1.0000   1.0000   1.0000   1.0000   1.0000   1.0000
     1.0000   1.0000   1.0000   1.0000   1.0000   1.0000   1.0000   1.0000
     1.0000   1.0000   1.0000   1.0000   1.0000   1.0000   1.0000   1.0000
     1.0000   1.0000   1.0000   1.0000   1.0000   1.0000   1.0000   1.0000
     1.0000   1.0000   1.0000   1.0000   1.0000   1.0000   1.0000   1.0000
     1.0000   1.0000   1.0000   1.0000   1.0000   1.0000   1.0000   1.0000
     1.0000   1.0000   1.0000   1.0000   1.0000   1.0000   1.0000   1.0000
     1.0000   1.0000   1.0000   1.0000   1.0000   1.0000   1.0000   1.0000
     1.0000   1.0000   1.0000

          k = 0.2000 0.1155 0.0000 (112171 PWs)   bands (ev):

   -73.8163 -73.8134 -73.8100 -73.8076 -73.8055 -73.8044 -73.8022 -73.8000
   -73.7951 -73.7934 -73.7904 -73.7885 -73.7867 -73.7538 -73.7490 -73.7395
   -38.2190 -38.2150 -38.2113 -38.1692 -38.1655 -38.1623 -38.1573 -38.1460
   -38.1394 -38.1027 -38.0795 -38.0759 -38.0509 -38.0484 -38.0447 -38.0339
   -38.0278 -38.0258 -38.0248 -38.0229 -38.0165 -38.0145 -38.0137 -38.0120
   -38.0039 -37.9993 -37.9972 -37.9957 -37.9931 -37.9909 -37.9889 -37.9859
   -37.9849 -37.9817 -37.9683 -37.9611 -37.9600 -37.9539 -37.9511 -37.9459
   -37.9323 -37.9235 -37.9198 -37.9120 -37.9072 -37.9000 -37.8759 -37.8694
   -21.6886 -15.3669 -14.5569 -13.9762 -13.8016 -13.7886 -13.4783 -13.4761
   -13.3244 -12.9675 -12.7922 -12.7587 -12.6915 -12.6833 -12.6577 -12.5873
   -12.5663 -12.5200 -12.4955 -12.4807 -12.4694 -12.4347 -12.4210 -12.3034
   -12.2943 -12.2646 -12.2472 -12.2085 -12.1923 -12.1725 -12.1707 -12.1480
   -12.0921 -12.0833  -7.9645  -7.6867  -6.2804  -6.2676  -6.2482  -6.2363
    -6.1980  -5.6732  -5.6435  -5.6232  -5.5509  -5.5365  -5.4900  -5.4720
    -5.4449  -5.4243  -5.3715  -5.3280  -5.3145  -5.2835  -5.2759  -5.0781
    -5.0710  -5.0141  -5.0037  -4.9465  -4.7416  -4.7364  -4.5697  -4.5117
    -4.4482  -4.3946  -4.3397  -4.2745  -4.2077  -4.1631  -4.1500  -4.1234
    -4.0999  -4.0568  -4.0407  -4.0038  -3.9827  -3.9132  -3.9102  -3.8997
    -3.6531  -3.5710  -3.5489  -3.5102  -3.4689  -3.4577  -3.4410  -3.3844
    -3.3722  -3.3100  -3.3009  -3.2826  -3.2571  -3.2135  -3.1971  -3.1477
    -3.1094  -3.0023  -2.9604  -2.9131  -2.8300  -2.8071  -2.7821  -2.7531
    -2.7385  -2.7121  -2.6986  -2.6928  -2.6667  -2.6386  -2.5993  -2.5507
    -2.5295  -2.4990  -2.4720  -2.4288  -2.3661  -2.3058  -2.2034  -2.1814
    -2.1232  -2.0907  -2.0200  -2.0006  -1.9730  -1.9696  -1.9313  -1.9092
    -1.9013  -1.8783  -1.8392  -1.8254  -1.8078  -1.7819  -1.7421  -1.7316
    -1.7077  -1.6929  -1.6808  -1.6587  -1.6406  -1.6264  -1.5909  -1.5451
    -1.5330  -1.5053  -1.4604  -1.4453  -1.4254  -1.4052  -1.3570  -1.3117
    -1.3060  -1.2973  -1.2512  -1.2090  -1.1699  -1.0609  -1.0440  -1.0244
    -0.8994  -0.7668  -0.7584  -0.7553  -0.5971  -0.5626  -0.5485  -0.5333
    -0.5217  -0.5159  -0.4106  -0.3844  -0.3559  -0.2649  -0.1691  -0.1499
     0.1769   1.2775   1.5485

     occupation numbers 
     1.0000   1.0000   1.0000   1.0000   1.0000   1.0000   1.0000   1.0000
     1.0000   1.0000   1.0000   1.0000   1.0000   1.0000   1.0000   1.0000
     1.0000   1.0000   1.0000   1.0000   1.0000   1.0000   1.0000   1.0000
     1.0000   1.0000   1.0000   1.0000   1.0000   1.0000   1.0000   1.0000
     1.0000   1.0000   1.0000   1.0000   1.0000   1.0000   1.0000   1.0000
     1.0000   1.0000   1.0000   1.0000   1.0000   1.0000   1.0000   1.0000
     1.0000   1.0000   1.0000   1.0000   1.0000   1.0000   1.0000   1.0000
     1.0000   1.0000   1.0000   1.0000   1.0000   1.0000   1.0000   1.0000
     1.0000   1.0000   1.0000   1.0000   1.0000   1.0000   1.0000   1.0000
     1.0000   1.0000   1.0000   1.0000   1.0000   1.0000   1.0000   1.0000
     1.0000   1.0000   1.0000   1.0000   1.0000   1.0000   1.0000   1.0000
     1.0000   1.0000   1.0000   1.0000   1.0000   1.0000   1.0000   1.0000
     1.0000   1.0000   1.0000   1.0000   1.0000   1.0000   1.0000   1.0000
     1.0000   1.0000   1.0000   1.0000   1.0000   1.0000   1.0000   1.0000
     1.0000   1.0000   1.0000   1.0000   1.0000   1.0000   1.0000   1.0000
     1.0000   1.0000   1.0000   1.0000   1.0000   1.0000   1.0000   1.0000
     1.0000   1.0000   1.0000   1.0000   1.0000   1.0000   1.0000   1.0000
     1.0000   1.0000   1.0000   1.0000   1.0000   1.0000   1.0000   1.0000
     1.0000   1.0000   1.0000   1.0000   1.0000   1.0000   1.0000   1.0000
     1.0000   1.0000   1.0000   1.0000   1.0000   1.0000   1.0000   1.0000
     1.0000   1.0000   1.0000   1.0000   1.0000   1.0000   1.0000   1.0000
     1.0000   1.0000   1.0000   1.0000   1.0000   1.0000   1.0000   1.0000
     1.0000   1.0000   1.0000   1.0000   1.0000   1.0000   1.0000   1.0000
     1.0000   1.0000   1.0000   1.0000   1.0000   1.0000   1.0000   1.0000
     1.0000   1.0000   1.0000   1.0000   1.0000   1.0000   1.0000   1.0000
     1.0000   1.0000   1.0000   1.0000   1.0000   1.0000   1.0000   1.0000
     1.0000   1.0000   1.0000   1.0000   1.0000   1.0000   1.0000   1.0000
     1.0000   1.0000   1.0000   1.0000   1.0000   1.0000   1.0000   1.0000
     1.0000   1.0000   1.0000   1.0000   1.0000   1.0000   1.0000   1.0000
     1.0000   1.0000   1.0000   1.0000   1.0000   1.0000   1.0000   1.0000
     1.0000   1.0000   1.0000

          k =-0.4000 0.2309 0.0000 (112236 PWs)   bands (ev):

   -73.8161 -73.8134 -73.8101 -73.8084 -73.8052 -73.8038 -73.8024 -73.7999
   -73.7952 -73.7935 -73.7905 -73.7885 -73.7867 -73.7538 -73.7490 -73.7395
   -38.2072 -38.2014 -38.1899 -38.1836 -38.1826 -38.1638 -38.1607 -38.1466
   -38.1299 -38.1234 -38.1054 -38.1005 -38.0626 -38.0575 -38.0467 -38.0394
   -38.0287 -38.0242 -38.0140 -38.0118 -38.0090 -38.0077 -38.0037 -37.9992
   -37.9981 -37.9970 -37.9948 -37.9922 -37.9871 -37.9854 -37.9818 -37.9789
   -37.9747 -37.9689 -37.9656 -37.9648 -37.9528 -37.9508 -37.9489 -37.9463
   -37.9441 -37.9378 -37.9293 -37.9166 -37.9086 -37.8917 -37.8900 -37.8757
   -21.6886 -15.3669 -14.4357 -14.2326 -13.8695 -13.8577 -13.2494 -13.2437
   -13.0249 -12.9975 -12.9751 -12.9107 -12.8323 -12.7331 -12.7037 -12.6849
   -12.5364 -12.5092 -12.4616 -12.4527 -12.4303 -12.4230 -12.3863 -12.3632
   -12.3527 -12.2819 -12.2219 -12.2000 -12.1756 -12.1612 -12.1546 -12.1520
   -12.0560 -12.0398  -7.9645  -7.6867  -6.2121  -6.1345  -6.1160  -6.0895
    -6.0228  -5.8767  -5.8563  -5.8396  -5.7116  -5.5344  -5.5113  -5.4901
    -5.4544  -5.4468  -5.4375  -5.3891  -5.3797  -5.3174  -5.3099  -5.0825
    -5.0581  -5.0239  -5.0057  -4.8049  -4.6096  -4.5571  -4.4823  -4.4423
    -4.4140  -4.3736  -4.3525  -4.3115  -4.2467  -4.2226  -4.1958  -4.1619
    -4.1225  -4.1143  -4.1019  -4.0751  -4.0689  -4.0542  -4.0430  -3.6837
    -3.5691  -3.5236  -3.4785  -3.4593  -3.4257  -3.3990  -3.3589  -3.3188
    -3.2962  -3.2811  -3.2607  -3.2424  -3.2152  -3.1995  -3.1507  -3.1161
    -3.0733  -3.0478  -3.0149  -2.9728  -2.9387  -2.9068  -2.8402  -2.7807
    -2.7421  -2.7152  -2.6648  -2.6315  -2.6137  -2.5876  -2.5512  -2.4980
    -2.4316  -2.4268  -2.3995  -2.3371  -2.2860  -2.2543  -2.2451  -2.1777
    -2.1263  -2.1182  -2.0607  -2.0325  -2.0188  -1.9952  -1.9653  -1.9369
    -1.9185  -1.9014  -1.8910  -1.8706  -1.8653  -1.8527  -1.8394  -1.8244
    -1.7891  -1.7591  -1.7119  -1.6980  -1.6920  -1.6717  -1.6530  -1.6152
    -1.5931  -1.5643  -1.5056  -1.4776  -1.4528  -1.3603  -1.3319  -1.3028
    -1.2664  -1.2218  -1.1743  -1.1295  -1.1207  -1.1013  -1.0759  -0.9868
    -0.9675  -0.8802  -0.7365  -0.7208  -0.6419  -0.6245  -0.5095  -0.4566
    -0.4508  -0.4256  -0.4047  -0.3779  -0.3042  -0.1019   0.0001   0.0305
     0.1225   1.3289   1.5540

     occupation numbers 
     1.0000   1.0000   1.0000   1.0000   1.0000   1.0000   1.0000   1.0000
     1.0000   1.0000   1.0000   1.0000   1.0000   1.0000   1.0000   1.0000
     1.0000   1.0000   1.0000   1.0000   1.0000   1.0000   1.0000   1.0000
     1.0000   1.0000   1.0000   1.0000   1.0000   1.0000   1.0000   1.0000
     1.0000   1.0000   1.0000   1.0000   1.0000   1.0000   1.0000   1.0000
     1.0000   1.0000   1.0000   1.0000   1.0000   1.0000   1.0000   1.0000
     1.0000   1.0000   1.0000   1.0000   1.0000   1.0000   1.0000   1.0000
     1.0000   1.0000   1.0000   1.0000   1.0000   1.0000   1.0000   1.0000
     1.0000   1.0000   1.0000   1.0000   1.0000   1.0000   1.0000   1.0000
     1.0000   1.0000   1.0000   1.0000   1.0000   1.0000   1.0000   1.0000
     1.0000   1.0000   1.0000   1.0000   1.0000   1.0000   1.0000   1.0000
     1.0000   1.0000   1.0000   1.0000   1.0000   1.0000   1.0000   1.0000
     1.0000   1.0000   1.0000   1.0000   1.0000   1.0000   1.0000   1.0000
     1.0000   1.0000   1.0000   1.0000   1.0000   1.0000   1.0000   1.0000
     1.0000   1.0000   1.0000   1.0000   1.0000   1.0000   1.0000   1.0000
     1.0000   1.0000   1.0000   1.0000   1.0000   1.0000   1.0000   1.0000
     1.0000   1.0000   1.0000   1.0000   1.0000   1.0000   1.0000   1.0000
     1.0000   1.0000   1.0000   1.0000   1.0000   1.0000   1.0000   1.0000
     1.0000   1.0000   1.0000   1.0000   1.0000   1.0000   1.0000   1.0000
     1.0000   1.0000   1.0000   1.0000   1.0000   1.0000   1.0000   1.0000
     1.0000   1.0000   1.0000   1.0000   1.0000   1.0000   1.0000   1.0000
     1.0000   1.0000   1.0000   1.0000   1.0000   1.0000   1.0000   1.0000
     1.0000   1.0000   1.0000   1.0000   1.0000   1.0000   1.0000   1.0000
     1.0000   1.0000   1.0000   1.0000   1.0000   1.0000   1.0000   1.0000
     1.0000   1.0000   1.0000   1.0000   1.0000   1.0000   1.0000   1.0000
     1.0000   1.0000   1.0000   1.0000   1.0000   1.0000   1.0000   1.0000
     1.0000   1.0000   1.0000   1.0000   1.0000   1.0000   1.0000   1.0000
     1.0000   1.0000   1.0000   1.0000   1.0000   1.0000   1.0000   1.0000
     1.0000   1.0000   1.0000   1.0000   1.0000   1.0000   1.0000   1.0000
     1.0000   1.0000   1.0000   1.0000   1.0000   1.0000   1.0000   1.0000
     1.0000   1.0000   1.0000

          k = 0.4000 0.2309 0.0000 (112236 PWs)   bands (ev):

   -73.8159 -73.8139 -73.8101 -73.8077 -73.8053 -73.8040 -73.8024 -73.8001
   -73.7950 -73.7937 -73.7902 -73.7887 -73.7866 -73.7538 -73.7490 -73.7395
   -38.2055 -38.2035 -38.1896 -38.1863 -38.1799 -38.1627 -38.1611 -38.1464
   -38.1294 -38.1240 -38.1060 -38.1008 -38.0621 -38.0585 -38.0464 -38.0397
   -38.0279 -38.0243 -38.0133 -38.0109 -38.0102 -38.0090 -38.0038 -37.9996
   -37.9973 -37.9960 -37.9943 -37.9911 -37.9890 -37.9855 -37.9815 -37.9789
   -37.9761 -37.9687 -37.9662 -37.9637 -37.9522 -37.9498 -37.9493 -37.9461
   -37.9441 -37.9368 -37.9294 -37.9174 -37.9090 -37.8935 -37.8911 -37.8733
   -21.6886 -15.3669 -14.4355 -14.2328 -13.8689 -13.8582 -13.2493 -13.2448
   -13.0216 -12.9975 -12.9771 -12.9099 -12.8332 -12.7307 -12.7055 -12.6857
   -12.5432 -12.5019 -12.4658 -12.4503 -12.4293 -12.4232 -12.3866 -12.3618
   -12.3503 -12.2818 -12.2287 -12.1979 -12.1775 -12.1602 -12.1550 -12.1494
   -12.0530 -12.0424  -7.9645  -7.6867  -6.2121  -6.1267  -6.1159  -6.0895
    -6.0367  -5.8693  -5.8560  -5.8363  -5.7166  -5.5356  -5.5098  -5.4929
    -5.4490  -5.4483  -5.4401  -5.3886  -5.3830  -5.3152  -5.3090  -5.0737
    -5.0698  -5.0221  -5.0104  -4.7770  -4.6230  -4.5612  -4.4908  -4.4526
    -4.4202  -4.3726  -4.3506  -4.3054  -4.2410  -4.2270  -4.1917  -4.1594
    -4.1259  -4.1157  -4.1031  -4.0770  -4.0638  -4.0518  -4.0435  -3.6695
    -3.5628  -3.5255  -3.4692  -3.4515  -3.4314  -3.4018  -3.3615  -3.3277
    -3.2917  -3.2811  -3.2555  -3.2402  -3.2197  -3.2053  -3.1402  -3.1192
    -3.0913  -3.0576  -3.0214  -2.9713  -2.9406  -2.9066  -2.8513  -2.7799
    -2.7452  -2.6922  -2.6576  -2.6310  -2.6205  -2.6029  -2.5201  -2.4986
    -2.4620  -2.4326  -2.3767  -2.3345  -2.2780  -2.2605  -2.2466  -2.1616
    -2.1257  -2.1186  -2.0455  -2.0172  -2.0114  -1.9877  -1.9805  -1.9652
    -1.9410  -1.9061  -1.8954  -1.8696  -1.8570  -1.8484  -1.8394  -1.8241
    -1.8069  -1.7434  -1.7326  -1.7047  -1.6961  -1.6499  -1.6360  -1.6273
    -1.5997  -1.5572  -1.5135  -1.5004  -1.4265  -1.3636  -1.3148  -1.2948
    -1.2619  -1.2381  -1.1935  -1.1353  -1.1190  -1.0660  -1.0489  -1.0011
    -0.9772  -0.8906  -0.7317  -0.7270  -0.6404  -0.6309  -0.5193  -0.4603
    -0.4495  -0.4238  -0.4057  -0.3680  -0.2977  -0.1036   0.0015   0.0264
     0.1256   1.3120   1.5747

     occupation numbers 
     1.0000   1.0000   1.0000   1.0000   1.0000   1.0000   1.0000   1.0000
     1.0000   1.0000   1.0000   1.0000   1.0000   1.0000   1.0000   1.0000
     1.0000   1.0000   1.0000   1.0000   1.0000   1.0000   1.0000   1.0000
     1.0000   1.0000   1.0000   1.0000   1.0000   1.0000   1.0000   1.0000
     1.0000   1.0000   1.0000   1.0000   1.0000   1.0000   1.0000   1.0000
     1.0000   1.0000   1.0000   1.0000   1.0000   1.0000   1.0000   1.0000
     1.0000   1.0000   1.0000   1.0000   1.0000   1.0000   1.0000   1.0000
     1.0000   1.0000   1.0000   1.0000   1.0000   1.0000   1.0000   1.0000
     1.0000   1.0000   1.0000   1.0000   1.0000   1.0000   1.0000   1.0000
     1.0000   1.0000   1.0000   1.0000   1.0000   1.0000   1.0000   1.0000
     1.0000   1.0000   1.0000   1.0000   1.0000   1.0000   1.0000   1.0000
     1.0000   1.0000   1.0000   1.0000   1.0000   1.0000   1.0000   1.0000
     1.0000   1.0000   1.0000   1.0000   1.0000   1.0000   1.0000   1.0000
     1.0000   1.0000   1.0000   1.0000   1.0000   1.0000   1.0000   1.0000
     1.0000   1.0000   1.0000   1.0000   1.0000   1.0000   1.0000   1.0000
     1.0000   1.0000   1.0000   1.0000   1.0000   1.0000   1.0000   1.0000
     1.0000   1.0000   1.0000   1.0000   1.0000   1.0000   1.0000   1.0000
     1.0000   1.0000   1.0000   1.0000   1.0000   1.0000   1.0000   1.0000
     1.0000   1.0000   1.0000   1.0000   1.0000   1.0000   1.0000   1.0000
     1.0000   1.0000   1.0000   1.0000   1.0000   1.0000   1.0000   1.0000
     1.0000   1.0000   1.0000   1.0000   1.0000   1.0000   1.0000   1.0000
     1.0000   1.0000   1.0000   1.0000   1.0000   1.0000   1.0000   1.0000
     1.0000   1.0000   1.0000   1.0000   1.0000   1.0000   1.0000   1.0000
     1.0000   1.0000   1.0000   1.0000   1.0000   1.0000   1.0000   1.0000
     1.0000   1.0000   1.0000   1.0000   1.0000   1.0000   1.0000   1.0000
     1.0000   1.0000   1.0000   1.0000   1.0000   1.0000   1.0000   1.0000
     1.0000   1.0000   1.0000   1.0000   1.0000   1.0000   1.0000   1.0000
     1.0000   1.0000   1.0000   1.0000   1.0000   1.0000   1.0000   1.0000
     1.0000   1.0000   1.0000   1.0000   1.0000   1.0000   1.0000   1.0000
     1.0000   1.0000   1.0000   1.0000   1.0000   1.0000   1.0000   1.0000
     1.0000   1.0000   1.0000

          k =-0.2000 0.3464 0.0000 (112231 PWs)   bands (ev):

   -73.8162 -73.8134 -73.8101 -73.8081 -73.8052 -73.8042 -73.8021 -73.7999
   -73.7954 -73.7933 -73.7904 -73.7885 -73.7867 -73.7538 -73.7490 -73.7395
   -38.2117 -38.2016 -38.2001 -38.1787 -38.1751 -38.1638 -38.1550 -38.1488
   -38.1323 -38.1250 -38.1124 -38.0765 -38.0604 -38.0550 -38.0474 -38.0367
   -38.0317 -38.0280 -38.0246 -38.0198 -38.0156 -38.0076 -38.0031 -37.9992
   -37.9958 -37.9928 -37.9908 -37.9879 -37.9858 -37.9834 -37.9817 -37.9805
   -37.9761 -37.9730 -37.9690 -37.9646 -37.9578 -37.9548 -37.9512 -37.9466
   -37.9410 -37.9319 -37.9262 -37.9210 -37.9029 -37.8980 -37.8861 -37.8726
   -21.6886 -15.3669 -14.4751 -14.1026 -14.0595 -13.5738 -13.5568 -13.1754
   -13.1189 -13.0094 -12.9351 -12.8083 -12.7912 -12.7062 -12.6724 -12.6197
   -12.5850 -12.5766 -12.5686 -12.4548 -12.4259 -12.3935 -12.3792 -12.3101
   -12.2916 -12.2738 -12.2512 -12.2264 -12.2226 -12.1564 -12.1496 -12.1082
   -12.0952 -12.0352  -7.9645  -7.6867  -6.2151  -6.1874  -6.1498  -6.1222
    -6.1033  -5.7691  -5.7381  -5.7169  -5.6996  -5.6264  -5.6024  -5.5640
    -5.5078  -5.4761  -5.3564  -5.3312  -5.3002  -5.2655  -5.2422  -5.2213
    -5.0978  -4.9142  -4.8948  -4.7969  -4.7560  -4.6093  -4.5177  -4.4483
    -4.3957  -4.3447  -4.3355  -4.3096  -4.2807  -4.2610  -4.2459  -4.2277
    -4.1644  -4.1304  -4.1114  -4.0934  -4.0542  -3.7732  -3.7402  -3.7289
    -3.7087  -3.6922  -3.6046  -3.5084  -3.4232  -3.3827  -3.3735  -3.3077
    -3.2915  -3.2420  -3.2334  -3.2042  -3.1669  -3.1477  -3.1275  -3.0841
    -3.0630  -3.0126  -2.9746  -2.9457  -2.9335  -2.9272  -2.9234  -2.9021
    -2.7980  -2.7400  -2.7198  -2.6772  -2.6296  -2.5589  -2.5280  -2.4776
    -2.4628  -2.4092  -2.3907  -2.3640  -2.3221  -2.2212  -2.1981  -2.1583
    -2.1379  -2.1239  -2.1085  -2.0825  -2.0383  -1.9907  -1.9837  -1.9441
    -1.9207  -1.9019  -1.8694  -1.8554  -1.8263  -1.8182  -1.7973  -1.7729
    -1.7445  -1.7049  -1.7022  -1.6798  -1.6554  -1.6388  -1.5894  -1.5839
    -1.5616  -1.5487  -1.5314  -1.5112  -1.4426  -1.3975  -1.3858  -1.3469
    -1.2904  -1.2484  -1.1963  -1.1734  -1.1584  -1.1188  -1.0460  -0.9962
    -0.8766  -0.8380  -0.6876  -0.6717  -0.6383  -0.6284  -0.6107  -0.5434
    -0.5367  -0.4274  -0.3861  -0.2582  -0.2068  -0.1995  -0.1612   0.0722
     0.1390   1.2916   1.5806

     occupation numbers 
     1.0000   1.0000   1.0000   1.0000   1.0000   1.0000   1.0000   1.0000
     1.0000   1.0000   1.0000   1.0000   1.0000   1.0000   1.0000   1.0000
     1.0000   1.0000   1.0000   1.0000   1.0000   1.0000   1.0000   1.0000
     1.0000   1.0000   1.0000   1.0000   1.0000   1.0000   1.0000   1.0000
     1.0000   1.0000   1.0000   1.0000   1.0000   1.0000   1.0000   1.0000
     1.0000   1.0000   1.0000   1.0000   1.0000   1.0000   1.0000   1.0000
     1.0000   1.0000   1.0000   1.0000   1.0000   1.0000   1.0000   1.0000
     1.0000   1.0000   1.0000   1.0000   1.0000   1.0000   1.0000   1.0000
     1.0000   1.0000   1.0000   1.0000   1.0000   1.0000   1.0000   1.0000
     1.0000   1.0000   1.0000   1.0000   1.0000   1.0000   1.0000   1.0000
     1.0000   1.0000   1.0000   1.0000   1.0000   1.0000   1.0000   1.0000
     1.0000   1.0000   1.0000   1.0000   1.0000   1.0000   1.0000   1.0000
     1.0000   1.0000   1.0000   1.0000   1.0000   1.0000   1.0000   1.0000
     1.0000   1.0000   1.0000   1.0000   1.0000   1.0000   1.0000   1.0000
     1.0000   1.0000   1.0000   1.0000   1.0000   1.0000   1.0000   1.0000
     1.0000   1.0000   1.0000   1.0000   1.0000   1.0000   1.0000   1.0000
     1.0000   1.0000   1.0000   1.0000   1.0000   1.0000   1.0000   1.0000
     1.0000   1.0000   1.0000   1.0000   1.0000   1.0000   1.0000   1.0000
     1.0000   1.0000   1.0000   1.0000   1.0000   1.0000   1.0000   1.0000
     1.0000   1.0000   1.0000   1.0000   1.0000   1.0000   1.0000   1.0000
     1.0000   1.0000   1.0000   1.0000   1.0000   1.0000   1.0000   1.0000
     1.0000   1.0000   1.0000   1.0000   1.0000   1.0000   1.0000   1.0000
     1.0000   1.0000   1.0000   1.0000   1.0000   1.0000   1.0000   1.0000
     1.0000   1.0000   1.0000   1.0000   1.0000   1.0000   1.0000   1.0000
     1.0000   1.0000   1.0000   1.0000   1.0000   1.0000   1.0000   1.0000
     1.0000   1.0000   1.0000   1.0000   1.0000   1.0000   1.0000   1.0000
     1.0000   1.0000   1.0000   1.0000   1.0000   1.0000   1.0000   1.0000
     1.0000   1.0000   1.0000   1.0000   1.0000   1.0000   1.0000   1.0000
     1.0000   1.0000   1.0000   1.0000   1.0000   1.0000   1.0000   1.0000
     1.0000   1.0000   1.0000   1.0000   1.0000   1.0000   1.0000   1.0000
     1.0000   1.0000   1.0000

          k = 0.4000-0.0000 0.0000 (112231 PWs)   bands (ev):

   -73.8161 -73.8136 -73.8101 -73.8080 -73.8053 -73.8039 -73.8024 -73.8000
   -73.7950 -73.7936 -73.7904 -73.7885 -73.7866 -73.7538 -73.7490 -73.7395
   -38.2117 -38.2023 -38.1991 -38.1785 -38.1753 -38.1651 -38.1555 -38.1489
   -38.1315 -38.1235 -38.1120 -38.0763 -38.0612 -38.0556 -38.0472 -38.0374
   -38.0302 -38.0282 -38.0247 -38.0213 -38.0135 -38.0087 -38.0034 -37.9980
   -37.9956 -37.9930 -37.9907 -37.9884 -37.9872 -37.9846 -37.9815 -37.9796
   -37.9746 -37.9741 -37.9688 -37.9649 -37.9578 -37.9543 -37.9510 -37.9463
   -37.9416 -37.9312 -37.9273 -37.9215 -37.9010 -37.8977 -37.8849 -37.8746
   -21.6886 -15.3669 -14.4752 -14.0991 -14.0631 -13.5682 -13.5631 -13.1704
   -13.1223 -13.0133 -12.9289 -12.8042 -12.7953 -12.7109 -12.6816 -12.6020
   -12.5991 -12.5736 -12.5606 -12.4565 -12.4232 -12.4124 -12.3643 -12.3072
   -12.2927 -12.2707 -12.2539 -12.2343 -12.2197 -12.1572 -12.1471 -12.1060
   -12.0967 -12.0356  -7.9645  -7.6867  -6.2144  -6.1813  -6.1563  -6.1193
    -6.1086  -5.7586  -5.7429  -5.7209  -5.6879  -5.6368  -5.6088  -5.5615
    -5.5058  -5.4733  -5.3520  -5.3351  -5.2928  -5.2718  -5.2446  -5.2295
    -5.0974  -4.9020  -4.8867  -4.8103  -4.7562  -4.5724  -4.5392  -4.4661
    -4.4099  -4.3469  -4.3381  -4.3134  -4.2757  -4.2645  -4.2437  -4.2109
    -4.1753  -4.1177  -4.1103  -4.0900  -4.0544  -3.7622  -3.7348  -3.7278
    -3.7080  -3.6987  -3.6179  -3.4837  -3.4308  -3.4028  -3.3725  -3.3248
    -3.2845  -3.2464  -3.2365  -3.2029  -3.1770  -3.1448  -3.1274  -3.0820
    -3.0437  -3.0054  -2.9694  -2.9522  -2.9413  -2.9235  -2.9080  -2.9004
    -2.7895  -2.7528  -2.7229  -2.6614  -2.6332  -2.5785  -2.5427  -2.4700
    -2.4650  -2.4206  -2.3878  -2.3468  -2.3200  -2.2271  -2.1810  -2.1624
    -2.1321  -2.1248  -2.1072  -2.1009  -2.0134  -1.9948  -1.9769  -1.9509
    -1.9273  -1.9010  -1.8833  -1.8651  -1.8529  -1.8220  -1.7903  -1.7683
    -1.7278  -1.7095  -1.6929  -1.6747  -1.6611  -1.6293  -1.5955  -1.5731
    -1.5568  -1.5476  -1.5329  -1.5054  -1.4502  -1.4127  -1.3701  -1.3403
    -1.2878  -1.2674  -1.2019  -1.1790  -1.1508  -1.1084  -1.0472  -0.9952
    -0.8679  -0.8501  -0.6820  -0.6750  -0.6393  -0.6233  -0.6151  -0.5414
    -0.5358  -0.4420  -0.3835  -0.2529  -0.2076  -0.1944  -0.1628   0.0695
     0.1390   1.3213   1.5496

     occupation numbers 
     1.0000   1.0000   1.0000   1.0000   1.0000   1.0000   1.0000   1.0000
     1.0000   1.0000   1.0000   1.0000   1.0000   1.0000   1.0000   1.0000
     1.0000   1.0000   1.0000   1.0000   1.0000   1.0000   1.0000   1.0000
     1.0000   1.0000   1.0000   1.0000   1.0000   1.0000   1.0000   1.0000
     1.0000   1.0000   1.0000   1.0000   1.0000   1.0000   1.0000   1.0000
     1.0000   1.0000   1.0000   1.0000   1.0000   1.0000   1.0000   1.0000
     1.0000   1.0000   1.0000   1.0000   1.0000   1.0000   1.0000   1.0000
     1.0000   1.0000   1.0000   1.0000   1.0000   1.0000   1.0000   1.0000
     1.0000   1.0000   1.0000   1.0000   1.0000   1.0000   1.0000   1.0000
     1.0000   1.0000   1.0000   1.0000   1.0000   1.0000   1.0000   1.0000
     1.0000   1.0000   1.0000   1.0000   1.0000   1.0000   1.0000   1.0000
     1.0000   1.0000   1.0000   1.0000   1.0000   1.0000   1.0000   1.0000
     1.0000   1.0000   1.0000   1.0000   1.0000   1.0000   1.0000   1.0000
     1.0000   1.0000   1.0000   1.0000   1.0000   1.0000   1.0000   1.0000
     1.0000   1.0000   1.0000   1.0000   1.0000   1.0000   1.0000   1.0000
     1.0000   1.0000   1.0000   1.0000   1.0000   1.0000   1.0000   1.0000
     1.0000   1.0000   1.0000   1.0000   1.0000   1.0000   1.0000   1.0000
     1.0000   1.0000   1.0000   1.0000   1.0000   1.0000   1.0000   1.0000
     1.0000   1.0000   1.0000   1.0000   1.0000   1.0000   1.0000   1.0000
     1.0000   1.0000   1.0000   1.0000   1.0000   1.0000   1.0000   1.0000
     1.0000   1.0000   1.0000   1.0000   1.0000   1.0000   1.0000   1.0000
     1.0000   1.0000   1.0000   1.0000   1.0000   1.0000   1.0000   1.0000
     1.0000   1.0000   1.0000   1.0000   1.0000   1.0000   1.0000   1.0000
     1.0000   1.0000   1.0000   1.0000   1.0000   1.0000   1.0000   1.0000
     1.0000   1.0000   1.0000   1.0000   1.0000   1.0000   1.0000   1.0000
     1.0000   1.0000   1.0000   1.0000   1.0000   1.0000   1.0000   1.0000
     1.0000   1.0000   1.0000   1.0000   1.0000   1.0000   1.0000   1.0000
     1.0000   1.0000   1.0000   1.0000   1.0000   1.0000   1.0000   1.0000
     1.0000   1.0000   1.0000   1.0000   1.0000   1.0000   1.0000   1.0000
     1.0000   1.0000   1.0000   1.0000   1.0000   1.0000   1.0000   1.0000
     1.0000   1.0000   1.0000

          k =-0.4000 0.4619 0.0000 (112237 PWs)   bands (ev):

   -73.8160 -73.8136 -73.8102 -73.8082 -73.8052 -73.8038 -73.8024 -73.7999
   -73.7952 -73.7935 -73.7903 -73.7885 -73.7866 -73.7538 -73.7490 -73.7395
   -38.2013 -38.1945 -38.1851 -38.1817 -38.1791 -38.1728 -38.1653 -38.1485
   -38.1457 -38.1321 -38.0938 -38.0896 -38.0844 -38.0515 -38.0443 -38.0407
   -38.0325 -38.0307 -38.0205 -38.0124 -38.0076 -38.0047 -38.0030 -37.9997
   -37.9985 -37.9958 -37.9930 -37.9876 -37.9853 -37.9816 -37.9743 -37.9711
   -37.9690 -37.9674 -37.9606 -37.9572 -37.9541 -37.9523 -37.9493 -37.9472
   -37.9450 -37.9376 -37.9333 -37.9264 -37.9142 -37.8954 -37.8848 -37.8790
   -21.6886 -15.3669 -14.3389 -14.2889 -14.1154 -13.5962 -13.2981 -13.2945
   -12.9613 -12.9492 -12.8863 -12.8564 -12.8272 -12.8008 -12.7960 -12.6653
   -12.6339 -12.5957 -12.4937 -12.4832 -12.3876 -12.3751 -12.3477 -12.3256
   -12.3090 -12.2969 -12.2607 -12.2344 -12.2291 -12.1335 -12.1195 -12.1145
   -12.0795 -12.0160  -7.9645  -7.6867  -6.2106  -6.0607  -6.0248  -5.9692
    -5.9149  -5.8901  -5.8772  -5.8594  -5.8078  -5.7444  -5.6891  -5.6256
    -5.6101  -5.5410  -5.3576  -5.2864  -5.2474  -5.2165  -5.2016  -5.1685
    -5.1575  -4.8544  -4.8326  -4.7458  -4.6202  -4.5899  -4.5444  -4.5250
    -4.4913  -4.4265  -4.3844  -4.3257  -4.3081  -4.2419  -4.2270  -4.2088
    -4.1933  -4.1637  -4.1200  -4.0942  -3.9569  -3.9468  -3.7910  -3.6690
    -3.6184  -3.5890  -3.4334  -3.3955  -3.3625  -3.3256  -3.3062  -3.2806
    -3.2770  -3.2667  -3.2415  -3.2313  -3.2195  -3.2135  -3.1489  -3.1208
    -3.0970  -3.0845  -3.0587  -3.0458  -2.9969  -2.9523  -2.8509  -2.8119
    -2.7426  -2.7304  -2.7114  -2.6810  -2.6308  -2.5830  -2.5096  -2.4176
    -2.3981  -2.3305  -2.3226  -2.3172  -2.2677  -2.1985  -2.1740  -2.1583
    -2.1458  -2.0897  -2.0788  -2.0519  -2.0282  -1.9787  -1.9682  -1.9483
    -1.9322  -1.9176  -1.8941  -1.8836  -1.8680  -1.8546  -1.8446  -1.8417
    -1.8177  -1.7935  -1.7542  -1.7236  -1.7032  -1.6891  -1.6721  -1.6531
    -1.6263  -1.5847  -1.5346  -1.5042  -1.4840  -1.4610  -1.4201  -1.3174
    -1.2831  -1.2356  -1.1696  -1.1162  -1.0923  -1.0718  -1.0419  -0.9663
    -0.8141  -0.7877  -0.7023  -0.6915  -0.6578  -0.6461  -0.5997  -0.5835
    -0.5672  -0.4125  -0.2808  -0.2746  -0.1791  -0.1192  -0.0773   0.0911
     0.1872   1.3297   1.5668

     occupation numbers 
     1.0000   1.0000   1.0000   1.0000   1.0000   1.0000   1.0000   1.0000
     1.0000   1.0000   1.0000   1.0000   1.0000   1.0000   1.0000   1.0000
     1.0000   1.0000   1.0000   1.0000   1.0000   1.0000   1.0000   1.0000
     1.0000   1.0000   1.0000   1.0000   1.0000   1.0000   1.0000   1.0000
     1.0000   1.0000   1.0000   1.0000   1.0000   1.0000   1.0000   1.0000
     1.0000   1.0000   1.0000   1.0000   1.0000   1.0000   1.0000   1.0000
     1.0000   1.0000   1.0000   1.0000   1.0000   1.0000   1.0000   1.0000
     1.0000   1.0000   1.0000   1.0000   1.0000   1.0000   1.0000   1.0000
     1.0000   1.0000   1.0000   1.0000   1.0000   1.0000   1.0000   1.0000
     1.0000   1.0000   1.0000   1.0000   1.0000   1.0000   1.0000   1.0000
     1.0000   1.0000   1.0000   1.0000   1.0000   1.0000   1.0000   1.0000
     1.0000   1.0000   1.0000   1.0000   1.0000   1.0000   1.0000   1.0000
     1.0000   1.0000   1.0000   1.0000   1.0000   1.0000   1.0000   1.0000
     1.0000   1.0000   1.0000   1.0000   1.0000   1.0000   1.0000   1.0000
     1.0000   1.0000   1.0000   1.0000   1.0000   1.0000   1.0000   1.0000
     1.0000   1.0000   1.0000   1.0000   1.0000   1.0000   1.0000   1.0000
     1.0000   1.0000   1.0000   1.0000   1.0000   1.0000   1.0000   1.0000
     1.0000   1.0000   1.0000   1.0000   1.0000   1.0000   1.0000   1.0000
     1.0000   1.0000   1.0000   1.0000   1.0000   1.0000   1.0000   1.0000
     1.0000   1.0000   1.0000   1.0000   1.0000   1.0000   1.0000   1.0000
     1.0000   1.0000   1.0000   1.0000   1.0000   1.0000   1.0000   1.0000
     1.0000   1.0000   1.0000   1.0000   1.0000   1.0000   1.0000   1.0000
     1.0000   1.0000   1.0000   1.0000   1.0000   1.0000   1.0000   1.0000
     1.0000   1.0000   1.0000   1.0000   1.0000   1.0000   1.0000   1.0000
     1.0000   1.0000   1.0000   1.0000   1.0000   1.0000   1.0000   1.0000
     1.0000   1.0000   1.0000   1.0000   1.0000   1.0000   1.0000   1.0000
     1.0000   1.0000   1.0000   1.0000   1.0000   1.0000   1.0000   1.0000
     1.0000   1.0000   1.0000   1.0000   1.0000   1.0000   1.0000   1.0000
     1.0000   1.0000   1.0000   1.0000   1.0000   1.0000   1.0000   1.0000
     1.0000   1.0000   1.0000   1.0000   1.0000   1.0000   1.0000   1.0000
     1.0000   1.0000   1.0000

          k = 0.6000 0.1155 0.0000 (112237 PWs)   bands (ev):

   -73.8158 -73.8140 -73.8101 -73.8079 -73.8052 -73.8039 -73.8024 -73.8000
   -73.7951 -73.7936 -73.7902 -73.7887 -73.7866 -73.7538 -73.7490 -73.7395
   -38.2000 -38.1962 -38.1859 -38.1832 -38.1762 -38.1728 -38.1649 -38.1483
   -38.1465 -38.1319 -38.0932 -38.0916 -38.0840 -38.0511 -38.0444 -38.0404
   -38.0326 -38.0309 -38.0201 -38.0116 -38.0084 -38.0055 -38.0024 -38.0000
   -37.9990 -37.9944 -37.9927 -37.9884 -37.9854 -37.9815 -37.9741 -37.9712
   -37.9689 -37.9682 -37.9604 -37.9571 -37.9545 -37.9526 -37.9497 -37.9470
   -37.9411 -37.9382 -37.9315 -37.9288 -37.9154 -37.8963 -37.8863 -37.8767
   -21.6886 -15.3669 -14.3382 -14.2897 -14.1152 -13.5962 -13.3054 -13.2871
   -12.9673 -12.9431 -12.8814 -12.8599 -12.8275 -12.8011 -12.7965 -12.6679
   -12.6328 -12.5939 -12.5037 -12.4731 -12.3943 -12.3718 -12.3439 -12.3210
   -12.3099 -12.2990 -12.2639 -12.2348 -12.2299 -12.1314 -12.1204 -12.1149
   -12.0788 -12.0163  -7.9645  -7.6867  -6.2106  -6.0577  -6.0198  -5.9683
    -5.9284  -5.9064  -5.8766  -5.8349  -5.8070  -5.7495  -5.6910  -5.6234
    -5.6123  -5.5375  -5.3565  -5.2827  -5.2560  -5.2253  -5.1968  -5.1723
    -5.1483  -4.8563  -4.8393  -4.6957  -4.6471  -4.6097  -4.5515  -4.5144
    -4.4943  -4.4355  -4.3848  -4.3212  -4.3021  -4.2419  -4.2313  -4.1995
    -4.1917  -4.1675  -4.1197  -4.0958  -3.9577  -3.9471  -3.7875  -3.6668
    -3.6196  -3.5798  -3.4341  -3.3758  -3.3669  -3.3321  -3.3009  -3.2867
    -3.2843  -3.2603  -3.2443  -3.2341  -3.2207  -3.2027  -3.1795  -3.1431
    -3.0870  -3.0784  -3.0529  -3.0209  -3.0058  -2.9651  -2.8477  -2.8116
    -2.7499  -2.7306  -2.7250  -2.6571  -2.6395  -2.5470  -2.5162  -2.4672
    -2.3945  -2.3357  -2.3158  -2.2959  -2.2462  -2.2144  -2.1741  -2.1493
    -2.1278  -2.1043  -2.0769  -2.0481  -2.0192  -1.9840  -1.9683  -1.9589
    -1.9378  -1.9124  -1.9026  -1.8818  -1.8723  -1.8621  -1.8531  -1.8436
    -1.8110  -1.7970  -1.7450  -1.7300  -1.7027  -1.6909  -1.6654  -1.6434
    -1.6261  -1.6046  -1.5381  -1.5201  -1.4763  -1.4337  -1.4059  -1.3294
    -1.2915  -1.2299  -1.1590  -1.1393  -1.0939  -1.0556  -1.0174  -0.9867
    -0.8103  -0.7943  -0.6978  -0.6961  -0.6589  -0.6523  -0.6005  -0.5948
    -0.5527  -0.4140  -0.2828  -0.2676  -0.1765  -0.1242  -0.0766   0.0919
     0.1875   1.3195   1.5792

     occupation numbers 
     1.0000   1.0000   1.0000   1.0000   1.0000   1.0000   1.0000   1.0000
     1.0000   1.0000   1.0000   1.0000   1.0000   1.0000   1.0000   1.0000
     1.0000   1.0000   1.0000   1.0000   1.0000   1.0000   1.0000   1.0000
     1.0000   1.0000   1.0000   1.0000   1.0000   1.0000   1.0000   1.0000
     1.0000   1.0000   1.0000   1.0000   1.0000   1.0000   1.0000   1.0000
     1.0000   1.0000   1.0000   1.0000   1.0000   1.0000   1.0000   1.0000
     1.0000   1.0000   1.0000   1.0000   1.0000   1.0000   1.0000   1.0000
     1.0000   1.0000   1.0000   1.0000   1.0000   1.0000   1.0000   1.0000
     1.0000   1.0000   1.0000   1.0000   1.0000   1.0000   1.0000   1.0000
     1.0000   1.0000   1.0000   1.0000   1.0000   1.0000   1.0000   1.0000
     1.0000   1.0000   1.0000   1.0000   1.0000   1.0000   1.0000   1.0000
     1.0000   1.0000   1.0000   1.0000   1.0000   1.0000   1.0000   1.0000
     1.0000   1.0000   1.0000   1.0000   1.0000   1.0000   1.0000   1.0000
     1.0000   1.0000   1.0000   1.0000   1.0000   1.0000   1.0000   1.0000
     1.0000   1.0000   1.0000   1.0000   1.0000   1.0000   1.0000   1.0000
     1.0000   1.0000   1.0000   1.0000   1.0000   1.0000   1.0000   1.0000
     1.0000   1.0000   1.0000   1.0000   1.0000   1.0000   1.0000   1.0000
     1.0000   1.0000   1.0000   1.0000   1.0000   1.0000   1.0000   1.0000
     1.0000   1.0000   1.0000   1.0000   1.0000   1.0000   1.0000   1.0000
     1.0000   1.0000   1.0000   1.0000   1.0000   1.0000   1.0000   1.0000
     1.0000   1.0000   1.0000   1.0000   1.0000   1.0000   1.0000   1.0000
     1.0000   1.0000   1.0000   1.0000   1.0000   1.0000   1.0000   1.0000
     1.0000   1.0000   1.0000   1.0000   1.0000   1.0000   1.0000   1.0000
     1.0000   1.0000   1.0000   1.0000   1.0000   1.0000   1.0000   1.0000
     1.0000   1.0000   1.0000   1.0000   1.0000   1.0000   1.0000   1.0000
     1.0000   1.0000   1.0000   1.0000   1.0000   1.0000   1.0000   1.0000
     1.0000   1.0000   1.0000   1.0000   1.0000   1.0000   1.0000   1.0000
     1.0000   1.0000   1.0000   1.0000   1.0000   1.0000   1.0000   1.0000
     1.0000   1.0000   1.0000   1.0000   1.0000   1.0000   1.0000   1.0000
     1.0000   1.0000   1.0000   1.0000   1.0000   1.0000   1.0000   1.0000
     1.0000   1.0000   1.0000

 ------ SPIN DOWN ----------


          k = 0.0000 0.0000 0.0000 (112117 PWs)   bands (ev):

   -73.8131 -73.8087 -73.8056 -73.8039 -73.8016 -73.8009 -73.7976 -73.7952
   -73.7930 -73.7880 -73.7870 -73.7856 -73.7814 -73.7404 -73.7308 -73.7278
   -38.2153 -38.2141 -38.2120 -38.1560 -38.1553 -38.1512 -38.1466 -38.1454
   -38.1340 -38.0550 -38.0499 -38.0473 -38.0467 -38.0407 -38.0377 -38.0364
   -38.0236 -38.0217 -38.0198 -38.0186 -38.0160 -38.0157 -38.0143 -38.0113
   -38.0082 -38.0049 -38.0035 -37.9986 -37.9917 -37.9883 -37.9858 -37.9842
   -37.9827 -37.9756 -37.9515 -37.9506 -37.9477 -37.9440 -37.9346 -37.9240
   -37.9181 -37.9072 -37.9049 -37.9034 -37.9009 -37.8902 -37.8577 -37.8556
   -21.6872 -15.3658 -14.5939 -13.7051 -13.6906 -13.6705 -13.6418 -13.6278
   -13.6186 -12.9786 -12.7044 -12.6738 -12.6496 -12.6351 -12.6000 -12.5793
   -12.5318 -12.5030 -12.4671 -12.4542 -12.4427 -12.4410 -12.4199 -12.4183
   -12.4146 -12.2197 -12.1974 -12.1875 -12.1709 -12.1553 -12.1514 -12.1471
   -12.1451 -12.1427  -7.9626  -7.6849  -6.3352  -6.3220  -6.3044  -6.2759
    -6.2009  -5.5993  -5.5677  -5.5437  -5.5279  -5.5237  -5.4913  -5.4371
    -5.4043  -5.3855  -5.3102  -5.2790  -5.2590  -5.0982  -5.0892  -5.0611
    -5.0564  -5.0524  -5.0516  -4.9957  -4.9950  -4.9866  -4.5107  -4.4313
    -4.3916  -4.3422  -4.2885  -4.2795  -4.2635  -4.2424  -4.2290  -4.1751
    -4.0763  -4.0056  -3.9745  -3.9594  -3.9331  -3.7873  -3.7548  -3.7509
    -3.6965  -3.6752  -3.6722  -3.5845  -3.5055  -3.4668  -3.4018  -3.3976
    -3.3699  -3.3640  -3.2676  -3.2172  -3.1917  -3.1781  -3.1564  -3.1388
    -3.1255  -3.1204  -3.1067  -3.1042  -3.0373  -2.9227  -2.7893  -2.7383
    -2.6853  -2.6636  -2.6190  -2.5847  -2.5716  -2.4932  -2.4861  -2.4617
    -2.4563  -2.4289  -2.4268  -2.4210  -2.3854  -2.3275  -2.2692  -2.1843
    -2.1124  -2.0516  -1.9629  -1.9579  -1.9284  -1.9150  -1.8643  -1.8210
    -1.7968  -1.7722  -1.7627  -1.7595  -1.7473  -1.7457  -1.7399  -1.7312
    -1.7295  -1.6983  -1.6854  -1.6545  -1.6450  -1.6328  -1.6298  -1.5973
    -1.5705  -1.5247  -1.5146  -1.4868  -1.4468  -1.4077  -1.3683  -1.3509
    -1.2881  -1.2561  -1.1792  -1.0851  -1.0284  -1.0201  -1.0077  -0.9862
    -0.7193  -0.6861  -0.6821  -0.6815  -0.6685  -0.6640  -0.6418  -0.6354
    -0.6190  -0.3917  -0.3803  -0.3703  -0.3552  -0.3384  -0.3289  -0.2912
     0.2197   1.3025   1.6771

     occupation numbers 
     1.0000   1.0000   1.0000   1.0000   1.0000   1.0000   1.0000   1.0000
     1.0000   1.0000   1.0000   1.0000   1.0000   1.0000   1.0000   1.0000
     1.0000   1.0000   1.0000   1.0000   1.0000   1.0000   1.0000   1.0000
     1.0000   1.0000   1.0000   1.0000   1.0000   1.0000   1.0000   1.0000
     1.0000   1.0000   1.0000   1.0000   1.0000   1.0000   1.0000   1.0000
     1.0000   1.0000   1.0000   1.0000   1.0000   1.0000   1.0000   1.0000
     1.0000   1.0000   1.0000   1.0000   1.0000   1.0000   1.0000   1.0000
     1.0000   1.0000   1.0000   1.0000   1.0000   1.0000   1.0000   1.0000
     1.0000   1.0000   1.0000   1.0000   1.0000   1.0000   1.0000   1.0000
     1.0000   1.0000   1.0000   1.0000   1.0000   1.0000   1.0000   1.0000
     1.0000   1.0000   1.0000   1.0000   1.0000   1.0000   1.0000   1.0000
     1.0000   1.0000   1.0000   1.0000   1.0000   1.0000   1.0000   1.0000
     1.0000   1.0000   1.0000   1.0000   1.0000   1.0000   1.0000   1.0000
     1.0000   1.0000   1.0000   1.0000   1.0000   1.0000   1.0000   1.0000
     1.0000   1.0000   1.0000   1.0000   1.0000   1.0000   1.0000   1.0000
     1.0000   1.0000   1.0000   1.0000   1.0000   1.0000   1.0000   1.0000
     1.0000   1.0000   1.0000   1.0000   1.0000   1.0000   1.0000   1.0000
     1.0000   1.0000   1.0000   1.0000   1.0000   1.0000   1.0000   1.0000
     1.0000   1.0000   1.0000   1.0000   1.0000   1.0000   1.0000   1.0000
     1.0000   1.0000   1.0000   1.0000   1.0000   1.0000   1.0000   1.0000
     1.0000   1.0000   1.0000   1.0000   1.0000   1.0000   1.0000   1.0000
     1.0000   1.0000   1.0000   1.0000   1.0000   1.0000   1.0000   1.0000
     1.0000   1.0000   1.0000   1.0000   1.0000   1.0000   1.0000   1.0000
     1.0000   1.0000   1.0000   1.0000   1.0000   1.0000   1.0000   1.0000
     1.0000   1.0000   1.0000   1.0000   1.0000   1.0000   1.0000   1.0000
     1.0000   1.0000   1.0000   1.0000   1.0000   1.0000   1.0000   1.0000
     1.0000   1.0000   1.0000   1.0000   1.0000   1.0000   1.0000   1.0000
     1.0000   1.0000   1.0000   1.0000   1.0000   1.0000   1.0000   1.0000
     1.0000   1.0000   1.0000   1.0000   1.0000   1.0000   1.0000   1.0000
     1.0000   1.0000   1.0000   1.0000   1.0000   1.0000   1.0000   1.0000
     1.0000   1.0000   0.0000

          k = 0.0000 0.2309 0.0000 (112171 PWs)   bands (ev):

   -73.8131 -73.8087 -73.8058 -73.8038 -73.8018 -73.8006 -73.7976 -73.7951
   -73.7931 -73.7880 -73.7870 -73.7856 -73.7814 -73.7404 -73.7308 -73.7278
   -38.2105 -38.2086 -38.2056 -38.1596 -38.1581 -38.1567 -38.1495 -38.1389
   -38.1308 -38.0956 -38.0703 -38.0689 -38.0456 -38.0416 -38.0369 -38.0261
   -38.0246 -38.0194 -38.0165 -38.0152 -38.0124 -38.0095 -38.0079 -38.0045
   -37.9985 -37.9937 -37.9933 -37.9899 -37.9873 -37.9858 -37.9831 -37.9823
   -37.9785 -37.9755 -37.9546 -37.9522 -37.9481 -37.9448 -37.9348 -37.9251
   -37.9244 -37.9137 -37.9098 -37.9019 -37.8979 -37.8887 -37.8634 -37.8583
   -21.6872 -15.3658 -14.5523 -13.9721 -13.7979 -13.7819 -13.4879 -13.4579
   -13.3211 -12.9625 -12.7993 -12.7312 -12.6921 -12.6838 -12.6519 -12.5822
   -12.5512 -12.5382 -12.4909 -12.4742 -12.4530 -12.4322 -12.4212 -12.3129
   -12.2818 -12.2595 -12.2410 -12.2117 -12.1822 -12.1717 -12.1649 -12.1500
   -12.0930 -12.0773  -7.9626  -7.6849  -6.2742  -6.2636  -6.2347  -6.2307
    -6.1947  -5.6583  -5.6388  -5.6221  -5.5521  -5.5135  -5.4850  -5.4661
    -5.4219  -5.4116  -5.3893  -5.3166  -5.3124  -5.2819  -5.2651  -5.0678
    -5.0630  -5.0122  -4.9983  -4.9502  -4.7349  -4.7303  -4.5794  -4.4723
    -4.4437  -4.3798  -4.3171  -4.2797  -4.2018  -4.1564  -4.1413  -4.1152
    -4.0951  -4.0569  -4.0388  -3.9968  -3.9806  -3.9064  -3.9040  -3.8964
    -3.6454  -3.5620  -3.5327  -3.4992  -3.4615  -3.4351  -3.4314  -3.3787
    -3.3596  -3.3075  -3.2873  -3.2735  -3.2556  -3.2011  -3.1871  -3.1450
    -3.0708  -2.9795  -2.9359  -2.9196  -2.8397  -2.7696  -2.7536  -2.7400
    -2.7142  -2.7051  -2.6910  -2.6672  -2.6403  -2.6215  -2.5813  -2.5368
    -2.4959  -2.4871  -2.4609  -2.4214  -2.3456  -2.2987  -2.1832  -2.1553
    -2.1014  -2.0584  -2.0074  -1.9916  -1.9664  -1.9472  -1.9210  -1.8993
    -1.8798  -1.8503  -1.8386  -1.8088  -1.7745  -1.7486  -1.7336  -1.7190
    -1.7113  -1.6913  -1.6753  -1.6498  -1.6345  -1.5981  -1.5772  -1.5365
    -1.5216  -1.4871  -1.4750  -1.4460  -1.4274  -1.3628  -1.3298  -1.3174
    -1.2922  -1.2710  -1.2308  -1.2099  -1.1439  -1.0596  -1.0356  -0.9932
    -0.8854  -0.7718  -0.7541  -0.7375  -0.5619  -0.5581  -0.5403  -0.5271
    -0.5140  -0.5011  -0.4010  -0.3706  -0.3551  -0.2401  -0.1644  -0.1339
     0.2017   1.3083   1.7082

     occupation numbers 
     1.0000   1.0000   1.0000   1.0000   1.0000   1.0000   1.0000   1.0000
     1.0000   1.0000   1.0000   1.0000   1.0000   1.0000   1.0000   1.0000
     1.0000   1.0000   1.0000   1.0000   1.0000   1.0000   1.0000   1.0000
     1.0000   1.0000   1.0000   1.0000   1.0000   1.0000   1.0000   1.0000
     1.0000   1.0000   1.0000   1.0000   1.0000   1.0000   1.0000   1.0000
     1.0000   1.0000   1.0000   1.0000   1.0000   1.0000   1.0000   1.0000
     1.0000   1.0000   1.0000   1.0000   1.0000   1.0000   1.0000   1.0000
     1.0000   1.0000   1.0000   1.0000   1.0000   1.0000   1.0000   1.0000
     1.0000   1.0000   1.0000   1.0000   1.0000   1.0000   1.0000   1.0000
     1.0000   1.0000   1.0000   1.0000   1.0000   1.0000   1.0000   1.0000
     1.0000   1.0000   1.0000   1.0000   1.0000   1.0000   1.0000   1.0000
     1.0000   1.0000   1.0000   1.0000   1.0000   1.0000   1.0000   1.0000
     1.0000   1.0000   1.0000   1.0000   1.0000   1.0000   1.0000   1.0000
     1.0000   1.0000   1.0000   1.0000   1.0000   1.0000   1.0000   1.0000
     1.0000   1.0000   1.0000   1.0000   1.0000   1.0000   1.0000   1.0000
     1.0000   1.0000   1.0000   1.0000   1.0000   1.0000   1.0000   1.0000
     1.0000   1.0000   1.0000   1.0000   1.0000   1.0000   1.0000   1.0000
     1.0000   1.0000   1.0000   1.0000   1.0000   1.0000   1.0000   1.0000
     1.0000   1.0000   1.0000   1.0000   1.0000   1.0000   1.0000   1.0000
     1.0000   1.0000   1.0000   1.0000   1.0000   1.0000   1.0000   1.0000
     1.0000   1.0000   1.0000   1.0000   1.0000   1.0000   1.0000   1.0000
     1.0000   1.0000   1.0000   1.0000   1.0000   1.0000   1.0000   1.0000
     1.0000   1.0000   1.0000   1.0000   1.0000   1.0000   1.0000   1.0000
     1.0000   1.0000   1.0000   1.0000   1.0000   1.0000   1.0000   1.0000
     1.0000   1.0000   1.0000   1.0000   1.0000   1.0000   1.0000   1.0000
     1.0000   1.0000   1.0000   1.0000   1.0000   1.0000   1.0000   1.0000
     1.0000   1.0000   1.0000   1.0000   1.0000   1.0000   1.0000   1.0000
     1.0000   1.0000   1.0000   1.0000   1.0000   1.0000   1.0000   1.0000
     1.0000   1.0000   1.0000   1.0000   1.0000   1.0000   1.0000   1.0000
     1.0000   1.0000   1.0000   1.0000   1.0000   1.0000   1.0000   1.0000
     1.0000   1.0000   0.0000

          k = 0.0000 0.4619 0.0000 (112236 PWs)   bands (ev):

   -73.8129 -73.8089 -73.8062 -73.8037 -73.8019 -73.8003 -73.7975 -73.7950
   -73.7933 -73.7880 -73.7870 -73.7856 -73.7814 -73.7404 -73.7308 -73.7278
   -38.1999 -38.1956 -38.1840 -38.1769 -38.1719 -38.1574 -38.1538 -38.1378
   -38.1233 -38.1161 -38.0952 -38.0925 -38.0556 -38.0493 -38.0420 -38.0323
   -38.0263 -38.0149 -38.0094 -38.0064 -38.0020 -38.0009 -37.9977 -37.9967
   -37.9939 -37.9907 -37.9904 -37.9868 -37.9831 -37.9815 -37.9755 -37.9724
   -37.9661 -37.9597 -37.9578 -37.9497 -37.9442 -37.9404 -37.9380 -37.9327
   -37.9314 -37.9214 -37.9168 -37.9083 -37.8981 -37.8833 -37.8773 -37.8618
   -21.6872 -15.3658 -14.4305 -14.2292 -13.8674 -13.8499 -13.2585 -13.2267
   -13.0140 -12.9954 -12.9665 -12.9126 -12.8293 -12.7256 -12.7012 -12.6855
   -12.5165 -12.5090 -12.4573 -12.4465 -12.4330 -12.4222 -12.3792 -12.3655
   -12.3472 -12.2812 -12.2121 -12.1985 -12.1741 -12.1560 -12.1542 -12.1498
   -12.0538 -12.0365  -7.9626  -7.6849  -6.2097  -6.1194  -6.1046  -6.0859
    -6.0200  -5.8668  -5.8547  -5.8297  -5.7072  -5.5271  -5.4944  -5.4815
    -5.4544  -5.4416  -5.4325  -5.3867  -5.3693  -5.3198  -5.2964  -5.0629
    -5.0576  -5.0249  -5.0055  -4.8019  -4.6205  -4.5157  -4.4781  -4.4341
    -4.3896  -4.3698  -4.3437  -4.3060  -4.2395  -4.2247  -4.1869  -4.1553
    -4.1245  -4.1134  -4.0988  -4.0724  -4.0623  -4.0474  -4.0373  -3.6690
    -3.5609  -3.5007  -3.4705  -3.4356  -3.4100  -3.3817  -3.3590  -3.3052
    -3.2821  -3.2743  -3.2552  -3.2315  -3.2136  -3.1795  -3.1519  -3.1017
    -3.0574  -3.0434  -3.0001  -2.9484  -2.9298  -2.9036  -2.8408  -2.7506
    -2.7208  -2.6916  -2.6406  -2.6257  -2.5913  -2.5497  -2.5145  -2.4706
    -2.4376  -2.4236  -2.3859  -2.3093  -2.2709  -2.2451  -2.2363  -2.1674
    -2.1010  -2.0777  -2.0322  -2.0075  -2.0007  -1.9890  -1.9683  -1.9333
    -1.9164  -1.8957  -1.8731  -1.8624  -1.8480  -1.8357  -1.8257  -1.8203
    -1.7593  -1.7491  -1.7065  -1.7004  -1.6753  -1.6495  -1.6209  -1.6075
    -1.5793  -1.5459  -1.5145  -1.4846  -1.4164  -1.3789  -1.2949  -1.2769
    -1.2190  -1.1941  -1.1839  -1.1361  -1.1081  -1.0889  -1.0374  -0.9806
    -0.9614  -0.8814  -0.7264  -0.7115  -0.6340  -0.6141  -0.4760  -0.4490
    -0.4372  -0.4258  -0.3920  -0.3686  -0.2964  -0.0808   0.0076   0.0373
     0.1554   1.3170   1.7592

     occupation numbers 
     1.0000   1.0000   1.0000   1.0000   1.0000   1.0000   1.0000   1.0000
     1.0000   1.0000   1.0000   1.0000   1.0000   1.0000   1.0000   1.0000
     1.0000   1.0000   1.0000   1.0000   1.0000   1.0000   1.0000   1.0000
     1.0000   1.0000   1.0000   1.0000   1.0000   1.0000   1.0000   1.0000
     1.0000   1.0000   1.0000   1.0000   1.0000   1.0000   1.0000   1.0000
     1.0000   1.0000   1.0000   1.0000   1.0000   1.0000   1.0000   1.0000
     1.0000   1.0000   1.0000   1.0000   1.0000   1.0000   1.0000   1.0000
     1.0000   1.0000   1.0000   1.0000   1.0000   1.0000   1.0000   1.0000
     1.0000   1.0000   1.0000   1.0000   1.0000   1.0000   1.0000   1.0000
     1.0000   1.0000   1.0000   1.0000   1.0000   1.0000   1.0000   1.0000
     1.0000   1.0000   1.0000   1.0000   1.0000   1.0000   1.0000   1.0000
     1.0000   1.0000   1.0000   1.0000   1.0000   1.0000   1.0000   1.0000
     1.0000   1.0000   1.0000   1.0000   1.0000   1.0000   1.0000   1.0000
     1.0000   1.0000   1.0000   1.0000   1.0000   1.0000   1.0000   1.0000
     1.0000   1.0000   1.0000   1.0000   1.0000   1.0000   1.0000   1.0000
     1.0000   1.0000   1.0000   1.0000   1.0000   1.0000   1.0000   1.0000
     1.0000   1.0000   1.0000   1.0000   1.0000   1.0000   1.0000   1.0000
     1.0000   1.0000   1.0000   1.0000   1.0000   1.0000   1.0000   1.0000
     1.0000   1.0000   1.0000   1.0000   1.0000   1.0000   1.0000   1.0000
     1.0000   1.0000   1.0000   1.0000   1.0000   1.0000   1.0000   1.0000
     1.0000   1.0000   1.0000   1.0000   1.0000   1.0000   1.0000   1.0000
     1.0000   1.0000   1.0000   1.0000   1.0000   1.0000   1.0000   1.0000
     1.0000   1.0000   1.0000   1.0000   1.0000   1.0000   1.0000   1.0000
     1.0000   1.0000   1.0000   1.0000   1.0000   1.0000   1.0000   1.0000
     1.0000   1.0000   1.0000   1.0000   1.0000   1.0000   1.0000   1.0000
     1.0000   1.0000   1.0000   1.0000   1.0000   1.0000   1.0000   1.0000
     1.0000   1.0000   1.0000   1.0000   1.0000   1.0000   1.0000   1.0000
     1.0000   1.0000   1.0000   1.0000   1.0000   1.0000   1.0000   1.0000
     1.0000   1.0000   1.0000   1.0000   1.0000   1.0000   1.0000   1.0000
     1.0000   1.0000   1.0000   1.0000   1.0000   1.0000   1.0000   1.0000
     1.0000   1.0000   0.0000

          k = 0.2000 0.3464 0.0000 (112231 PWs)   bands (ev):

   -73.8129 -73.8090 -73.8059 -73.8038 -73.8017 -73.8003 -73.7977 -73.7952
   -73.7930 -73.7881 -73.7869 -73.7856 -73.7814 -73.7404 -73.7308 -73.7278
   -38.2042 -38.1951 -38.1943 -38.1717 -38.1664 -38.1574 -38.1475 -38.1404
   -38.1256 -38.1150 -38.1043 -38.0693 -38.0523 -38.0468 -38.0425 -38.0310
   -38.0262 -38.0215 -38.0162 -38.0135 -38.0101 -38.0045 -37.9979 -37.9962
   -37.9908 -37.9875 -37.9859 -37.9837 -37.9814 -37.9789 -37.9756 -37.9744
   -37.9689 -37.9649 -37.9565 -37.9511 -37.9483 -37.9456 -37.9368 -37.9324
   -37.9258 -37.9195 -37.9165 -37.9082 -37.8950 -37.8882 -37.8730 -37.8605
   -21.6872 -15.3658 -14.4704 -14.0975 -14.0561 -13.5621 -13.5601 -13.1680
   -13.1157 -13.0044 -12.9306 -12.8042 -12.7854 -12.7055 -12.6689 -12.5998
   -12.5904 -12.5731 -12.5681 -12.4529 -12.4214 -12.3869 -12.3728 -12.3091
   -12.2872 -12.2688 -12.2493 -12.2289 -12.2181 -12.1515 -12.1469 -12.1043
   -12.0931 -12.0329  -7.9626  -7.6849  -6.2113  -6.1705  -6.1441  -6.1192
    -6.1002  -5.7531  -5.7299  -5.7150  -5.6745  -5.6394  -5.5972  -5.5588
    -5.5001  -5.4684  -5.3498  -5.3273  -5.2793  -5.2699  -5.2379  -5.2211
    -5.0906  -4.8986  -4.8842  -4.8090  -4.7478  -4.5919  -4.4825  -4.4568
    -4.3898  -4.3603  -4.3327  -4.2972  -4.2718  -4.2584  -4.2282  -4.2203
    -4.1671  -4.1172  -4.1023  -4.0871  -4.0518  -3.7534  -3.7286  -3.7197
    -3.7122  -3.6866  -3.5833  -3.4889  -3.4198  -3.3887  -3.3426  -3.3133
    -3.2743  -3.2382  -3.2151  -3.1975  -3.1610  -3.1441  -3.0926  -3.0864
    -3.0313  -2.9990  -2.9636  -2.9425  -2.9345  -2.9169  -2.9019  -2.8893
    -2.7899  -2.7104  -2.6875  -2.6376  -2.6027  -2.5299  -2.4969  -2.4683
    -2.4490  -2.4233  -2.3791  -2.3512  -2.3025  -2.2068  -2.1701  -2.1518
    -2.1196  -2.1179  -2.0789  -2.0692  -1.9947  -1.9805  -1.9645  -1.9366
    -1.9154  -1.8914  -1.8677  -1.8431  -1.8276  -1.8136  -1.7852  -1.7331
    -1.7199  -1.7057  -1.6934  -1.6618  -1.6556  -1.6080  -1.5808  -1.5675
    -1.5587  -1.5324  -1.5197  -1.4932  -1.4126  -1.3805  -1.3674  -1.3548
    -1.2778  -1.2147  -1.1972  -1.1732  -1.1455  -1.1003  -1.0172  -0.9809
    -0.8666  -0.8353  -0.6731  -0.6638  -0.6295  -0.6204  -0.6070  -0.5321
    -0.5234  -0.4164  -0.3668  -0.2485  -0.1994  -0.1901  -0.1416   0.0812
     0.1670   1.3308   1.7294

     occupation numbers 
     1.0000   1.0000   1.0000   1.0000   1.0000   1.0000   1.0000   1.0000
     1.0000   1.0000   1.0000   1.0000   1.0000   1.0000   1.0000   1.0000
     1.0000   1.0000   1.0000   1.0000   1.0000   1.0000   1.0000   1.0000
     1.0000   1.0000   1.0000   1.0000   1.0000   1.0000   1.0000   1.0000
     1.0000   1.0000   1.0000   1.0000   1.0000   1.0000   1.0000   1.0000
     1.0000   1.0000   1.0000   1.0000   1.0000   1.0000   1.0000   1.0000
     1.0000   1.0000   1.0000   1.0000   1.0000   1.0000   1.0000   1.0000
     1.0000   1.0000   1.0000   1.0000   1.0000   1.0000   1.0000   1.0000
     1.0000   1.0000   1.0000   1.0000   1.0000   1.0000   1.0000   1.0000
     1.0000   1.0000   1.0000   1.0000   1.0000   1.0000   1.0000   1.0000
     1.0000   1.0000   1.0000   1.0000   1.0000   1.0000   1.0000   1.0000
     1.0000   1.0000   1.0000   1.0000   1.0000   1.0000   1.0000   1.0000
     1.0000   1.0000   1.0000   1.0000   1.0000   1.0000   1.0000   1.0000
     1.0000   1.0000   1.0000   1.0000   1.0000   1.0000   1.0000   1.0000
     1.0000   1.0000   1.0000   1.0000   1.0000   1.0000   1.0000   1.0000
     1.0000   1.0000   1.0000   1.0000   1.0000   1.0000   1.0000   1.0000
     1.0000   1.0000   1.0000   1.0000   1.0000   1.0000   1.0000   1.0000
     1.0000   1.0000   1.0000   1.0000   1.0000   1.0000   1.0000   1.0000
     1.0000   1.0000   1.0000   1.0000   1.0000   1.0000   1.0000   1.0000
     1.0000   1.0000   1.0000   1.0000   1.0000   1.0000   1.0000   1.0000
     1.0000   1.0000   1.0000   1.0000   1.0000   1.0000   1.0000   1.0000
     1.0000   1.0000   1.0000   1.0000   1.0000   1.0000   1.0000   1.0000
     1.0000   1.0000   1.0000   1.0000   1.0000   1.0000   1.0000   1.0000
     1.0000   1.0000   1.0000   1.0000   1.0000   1.0000   1.0000   1.0000
     1.0000   1.0000   1.0000   1.0000   1.0000   1.0000   1.0000   1.0000
     1.0000   1.0000   1.0000   1.0000   1.0000   1.0000   1.0000   1.0000
     1.0000   1.0000   1.0000   1.0000   1.0000   1.0000   1.0000   1.0000
     1.0000   1.0000   1.0000   1.0000   1.0000   1.0000   1.0000   1.0000
     1.0000   1.0000   1.0000   1.0000   1.0000   1.0000   1.0000   1.0000
     1.0000   1.0000   1.0000   1.0000   1.0000   1.0000   1.0000   1.0000
     1.0000   1.0000   0.0000

          k = 0.2000 0.5774 0.0000 (112237 PWs)   bands (ev):

   -73.8128 -73.8090 -73.8062 -73.8037 -73.8017 -73.8003 -73.7975 -73.7951
   -73.7932 -73.7880 -73.7870 -73.7856 -73.7814 -73.7404 -73.7308 -73.7278
   -38.1950 -38.1880 -38.1793 -38.1751 -38.1694 -38.1656 -38.1574 -38.1421
   -38.1381 -38.1220 -38.0848 -38.0834 -38.0754 -38.0441 -38.0403 -38.0337
   -38.0283 -38.0219 -38.0126 -38.0090 -38.0029 -37.9991 -37.9972 -37.9954
   -37.9942 -37.9923 -37.9876 -37.9835 -37.9810 -37.9754 -37.9682 -37.9642
   -37.9591 -37.9548 -37.9525 -37.9496 -37.9485 -37.9409 -37.9372 -37.9337
   -37.9304 -37.9235 -37.9194 -37.9153 -37.9034 -37.8859 -37.8735 -37.8651
   -21.6872 -15.3658 -14.3306 -14.2887 -14.1106 -13.5910 -13.2950 -13.2901
   -12.9467 -12.9434 -12.8844 -12.8491 -12.8368 -12.7988 -12.7893 -12.6540
   -12.6267 -12.5989 -12.4873 -12.4807 -12.3791 -12.3675 -12.3540 -12.3205
   -12.3060 -12.2942 -12.2548 -12.2303 -12.2292 -12.1272 -12.1172 -12.1148
   -12.0760 -12.0135  -7.9626  -7.6849  -6.2084  -6.0443  -5.9973  -5.9805
    -5.9139  -5.8889  -5.8696  -5.8429  -5.8042  -5.7389  -5.6806  -5.6173
    -5.6087  -5.5361  -5.3571  -5.2594  -5.2494  -5.2124  -5.1972  -5.1652
    -5.1491  -4.8498  -4.8260  -4.7426  -4.6260  -4.5701  -4.5403  -4.5132
    -4.4675  -4.4105  -4.3909  -4.3108  -4.3046  -4.2345  -4.2271  -4.2070
    -4.1808  -4.1600  -4.1177  -4.0913  -3.9482  -3.9447  -3.7819  -3.6554
    -3.6246  -3.5529  -3.4256  -3.3813  -3.3483  -3.3163  -3.2929  -3.2783
    -3.2636  -3.2532  -3.2359  -3.2264  -3.2093  -3.1923  -3.1344  -3.1137
    -3.0909  -3.0728  -3.0550  -3.0227  -2.9903  -2.9200  -2.8667  -2.8091
    -2.7261  -2.6909  -2.6771  -2.6544  -2.5975  -2.5289  -2.4890  -2.4379
    -2.3816  -2.3251  -2.3131  -2.2990  -2.2433  -2.1881  -2.1659  -2.1219
    -2.1063  -2.0911  -2.0660  -2.0455  -2.0052  -1.9714  -1.9526  -1.9415
    -1.9236  -1.9037  -1.8843  -1.8680  -1.8593  -1.8469  -1.8365  -1.8269
    -1.8084  -1.7697  -1.7465  -1.7228  -1.6919  -1.6685  -1.6564  -1.6340
    -1.6006  -1.5589  -1.5411  -1.4884  -1.4711  -1.4565  -1.3895  -1.3193
    -1.2638  -1.1834  -1.1481  -1.1323  -1.0824  -1.0712  -0.9952  -0.9628
    -0.8056  -0.7897  -0.6942  -0.6819  -0.6487  -0.6347  -0.5846  -0.5734
    -0.5556  -0.3891  -0.2706  -0.2613  -0.1790  -0.1161  -0.0556   0.1227
     0.1979   1.3389   1.7425

     occupation numbers 
     1.0000   1.0000   1.0000   1.0000   1.0000   1.0000   1.0000   1.0000
     1.0000   1.0000   1.0000   1.0000   1.0000   1.0000   1.0000   1.0000
     1.0000   1.0000   1.0000   1.0000   1.0000   1.0000   1.0000   1.0000
     1.0000   1.0000   1.0000   1.0000   1.0000   1.0000   1.0000   1.0000
     1.0000   1.0000   1.0000   1.0000   1.0000   1.0000   1.0000   1.0000
     1.0000   1.0000   1.0000   1.0000   1.0000   1.0000   1.0000   1.0000
     1.0000   1.0000   1.0000   1.0000   1.0000   1.0000   1.0000   1.0000
     1.0000   1.0000   1.0000   1.0000   1.0000   1.0000   1.0000   1.0000
     1.0000   1.0000   1.0000   1.0000   1.0000   1.0000   1.0000   1.0000
     1.0000   1.0000   1.0000   1.0000   1.0000   1.0000   1.0000   1.0000
     1.0000   1.0000   1.0000   1.0000   1.0000   1.0000   1.0000   1.0000
     1.0000   1.0000   1.0000   1.0000   1.0000   1.0000   1.0000   1.0000
     1.0000   1.0000   1.0000   1.0000   1.0000   1.0000   1.0000   1.0000
     1.0000   1.0000   1.0000   1.0000   1.0000   1.0000   1.0000   1.0000
     1.0000   1.0000   1.0000   1.0000   1.0000   1.0000   1.0000   1.0000
     1.0000   1.0000   1.0000   1.0000   1.0000   1.0000   1.0000   1.0000
     1.0000   1.0000   1.0000   1.0000   1.0000   1.0000   1.0000   1.0000
     1.0000   1.0000   1.0000   1.0000   1.0000   1.0000   1.0000   1.0000
     1.0000   1.0000   1.0000   1.0000   1.0000   1.0000   1.0000   1.0000
     1.0000   1.0000   1.0000   1.0000   1.0000   1.0000   1.0000   1.0000
     1.0000   1.0000   1.0000   1.0000   1.0000   1.0000   1.0000   1.0000
     1.0000   1.0000   1.0000   1.0000   1.0000   1.0000   1.0000   1.0000
     1.0000   1.0000   1.0000   1.0000   1.0000   1.0000   1.0000   1.0000
     1.0000   1.0000   1.0000   1.0000   1.0000   1.0000   1.0000   1.0000
     1.0000   1.0000   1.0000   1.0000   1.0000   1.0000   1.0000   1.0000
     1.0000   1.0000   1.0000   1.0000   1.0000   1.0000   1.0000   1.0000
     1.0000   1.0000   1.0000   1.0000   1.0000   1.0000   1.0000   1.0000
     1.0000   1.0000   1.0000   1.0000   1.0000   1.0000   1.0000   1.0000
     1.0000   1.0000   1.0000   1.0000   1.0000   1.0000   1.0000   1.0000
     1.0000   1.0000   1.0000   1.0000   1.0000   1.0000   1.0000   1.0000
     1.0000   1.0000   0.0000

          k =-0.2000 0.1155 0.0000 (112171 PWs)   bands (ev):

   -73.8131 -73.8088 -73.8057 -73.8039 -73.8015 -73.8008 -73.7976 -73.7951
   -73.7930 -73.7880 -73.7870 -73.7856 -73.7814 -73.7404 -73.7308 -73.7278
   -38.2100 -38.2097 -38.2050 -38.1612 -38.1579 -38.1553 -38.1497 -38.1382
   -38.1311 -38.0950 -38.0711 -38.0689 -38.0456 -38.0418 -38.0367 -38.0275
   -38.0214 -38.0197 -38.0187 -38.0173 -38.0107 -38.0090 -38.0077 -38.0043
   -37.9985 -37.9935 -37.9920 -37.9906 -37.9874 -37.9860 -37.9837 -37.9819
   -37.9784 -37.9755 -37.9546 -37.9515 -37.9488 -37.9448 -37.9348 -37.9268
   -37.9230 -37.9131 -37.9090 -37.9026 -37.8985 -37.8885 -37.8628 -37.8589
   -21.6872 -15.3658 -14.5523 -13.9713 -13.7971 -13.7846 -13.4747 -13.4700
   -13.3214 -12.9629 -12.7865 -12.7521 -12.6879 -12.6780 -12.6541 -12.5829
   -12.5607 -12.5173 -12.4929 -12.4754 -12.4649 -12.4295 -12.4203 -12.3037
   -12.2911 -12.2585 -12.2413 -12.2098 -12.1837 -12.1721 -12.1651 -12.1488
   -12.0923 -12.0781  -7.9626  -7.6849  -6.2780  -6.2578  -6.2390  -6.2284
    -6.1946  -5.6672  -5.6311  -5.6184  -5.5429  -5.5249  -5.4846  -5.4647
    -5.4318  -5.4129  -5.3791  -5.3232  -5.3073  -5.2771  -5.2718  -5.0750
    -5.0584  -5.0107  -4.9962  -4.9468  -4.7351  -4.7316  -4.5618  -4.5029
    -4.4388  -4.3657  -4.3343  -4.2721  -4.2000  -4.1564  -4.1415  -4.1182
    -4.0949  -4.0600  -4.0358  -3.9916  -3.9789  -3.9104  -3.9002  -3.8916
    -3.6393  -3.5777  -3.5256  -3.4946  -3.4698  -3.4526  -3.4390  -3.3691
    -3.3606  -3.3023  -3.2897  -3.2725  -3.2492  -3.1997  -3.1876  -3.1480
    -3.0720  -2.9664  -2.9432  -2.9092  -2.8117  -2.7843  -2.7624  -2.7373
    -2.7133  -2.7011  -2.6882  -2.6785  -2.6604  -2.6320  -2.5774  -2.5367
    -2.4895  -2.4702  -2.4595  -2.4197  -2.3523  -2.2979  -2.1765  -2.1636
    -2.1098  -2.0630  -2.0117  -1.9901  -1.9625  -1.9521  -1.9218  -1.8978
    -1.8723  -1.8528  -1.8291  -1.8081  -1.7879  -1.7595  -1.7285  -1.7155
    -1.7007  -1.6877  -1.6709  -1.6515  -1.6415  -1.5970  -1.5635  -1.5421
    -1.5116  -1.4933  -1.4870  -1.4291  -1.4209  -1.3567  -1.3416  -1.3206
    -1.3038  -1.2704  -1.2421  -1.2097  -1.1398  -1.0695  -1.0323  -0.9805
    -0.8922  -0.7672  -0.7495  -0.7297  -0.5760  -0.5613  -0.5401  -0.5257
    -0.5093  -0.5003  -0.4039  -0.3741  -0.3494  -0.2391  -0.1638  -0.1360
     0.2003   1.3306   1.6827

     occupation numbers 
     1.0000   1.0000   1.0000   1.0000   1.0000   1.0000   1.0000   1.0000
     1.0000   1.0000   1.0000   1.0000   1.0000   1.0000   1.0000   1.0000
     1.0000   1.0000   1.0000   1.0000   1.0000   1.0000   1.0000   1.0000
     1.0000   1.0000   1.0000   1.0000   1.0000   1.0000   1.0000   1.0000
     1.0000   1.0000   1.0000   1.0000   1.0000   1.0000   1.0000   1.0000
     1.0000   1.0000   1.0000   1.0000   1.0000   1.0000   1.0000   1.0000
     1.0000   1.0000   1.0000   1.0000   1.0000   1.0000   1.0000   1.0000
     1.0000   1.0000   1.0000   1.0000   1.0000   1.0000   1.0000   1.0000
     1.0000   1.0000   1.0000   1.0000   1.0000   1.0000   1.0000   1.0000
     1.0000   1.0000   1.0000   1.0000   1.0000   1.0000   1.0000   1.0000
     1.0000   1.0000   1.0000   1.0000   1.0000   1.0000   1.0000   1.0000
     1.0000   1.0000   1.0000   1.0000   1.0000   1.0000   1.0000   1.0000
     1.0000   1.0000   1.0000   1.0000   1.0000   1.0000   1.0000   1.0000
     1.0000   1.0000   1.0000   1.0000   1.0000   1.0000   1.0000   1.0000
     1.0000   1.0000   1.0000   1.0000   1.0000   1.0000   1.0000   1.0000
     1.0000   1.0000   1.0000   1.0000   1.0000   1.0000   1.0000   1.0000
     1.0000   1.0000   1.0000   1.0000   1.0000   1.0000   1.0000   1.0000
     1.0000   1.0000   1.0000   1.0000   1.0000   1.0000   1.0000   1.0000
     1.0000   1.0000   1.0000   1.0000   1.0000   1.0000   1.0000   1.0000
     1.0000   1.0000   1.0000   1.0000   1.0000   1.0000   1.0000   1.0000
     1.0000   1.0000   1.0000   1.0000   1.0000   1.0000   1.0000   1.0000
     1.0000   1.0000   1.0000   1.0000   1.0000   1.0000   1.0000   1.0000
     1.0000   1.0000   1.0000   1.0000   1.0000   1.0000   1.0000   1.0000
     1.0000   1.0000   1.0000   1.0000   1.0000   1.0000   1.0000   1.0000
     1.0000   1.0000   1.0000   1.0000   1.0000   1.0000   1.0000   1.0000
     1.0000   1.0000   1.0000   1.0000   1.0000   1.0000   1.0000   1.0000
     1.0000   1.0000   1.0000   1.0000   1.0000   1.0000   1.0000   1.0000
     1.0000   1.0000   1.0000   1.0000   1.0000   1.0000   1.0000   1.0000
     1.0000   1.0000   1.0000   1.0000   1.0000   1.0000   1.0000   1.0000
     1.0000   1.0000   1.0000   1.0000   1.0000   1.0000   1.0000   1.0000
     1.0000   1.0000   0.0000

          k = 0.2000 0.1155 0.0000 (112171 PWs)   bands (ev):

   -73.8130 -73.8089 -73.8057 -73.8039 -73.8015 -73.8007 -73.7978 -73.7952
   -73.7929 -73.7880 -73.7870 -73.7856 -73.7814 -73.7404 -73.7308 -73.7278
   -38.2107 -38.2084 -38.2056 -38.1625 -38.1574 -38.1545 -38.1489 -38.1383
   -38.1317 -38.0952 -38.0713 -38.0687 -38.0457 -38.0407 -38.0381 -38.0274
   -38.0220 -38.0197 -38.0180 -38.0164 -38.0117 -38.0088 -38.0069 -38.0044
   -37.9988 -37.9935 -37.9925 -37.9891 -37.9871 -37.9863 -37.9849 -37.9818
   -37.9784 -37.9754 -37.9536 -37.9526 -37.9489 -37.9444 -37.9347 -37.9269
   -37.9226 -37.9126 -37.9096 -37.9026 -37.8984 -37.8888 -37.8647 -37.8570
   -21.6872 -15.3658 -14.5523 -13.9714 -13.7964 -13.7851 -13.4735 -13.4718
   -13.3206 -12.9629 -12.7863 -12.7516 -12.6872 -12.6797 -12.6544 -12.5827
   -12.5618 -12.5160 -12.4907 -12.4772 -12.4647 -12.4315 -12.4193 -12.2993
   -12.2909 -12.2613 -12.2443 -12.2054 -12.1893 -12.1698 -12.1676 -12.1458
   -12.0896 -12.0806  -7.9626  -7.6849  -6.2721  -6.2605  -6.2411  -6.2300
    -6.1946  -5.6600  -5.6367  -5.6151  -5.5428  -5.5301  -5.4835  -5.4664
    -5.4362  -5.4179  -5.3661  -5.3226  -5.3101  -5.2775  -5.2705  -5.0724
    -5.0654  -5.0090  -4.9994  -4.9409  -4.7364  -4.7319  -4.5555  -4.5030
    -4.4336  -4.3865  -4.3336  -4.2667  -4.1989  -4.1572  -4.1437  -4.1187
    -4.0944  -4.0510  -4.0354  -3.9982  -3.9780  -3.9077  -3.9039  -3.8939
    -3.6308  -3.5610  -3.5388  -3.5003  -3.4611  -3.4514  -3.4331  -3.3764
    -3.3662  -3.3025  -3.2926  -3.2764  -3.2385  -3.2057  -3.1912  -3.1416
    -3.0803  -2.9800  -2.9329  -2.8991  -2.8083  -2.7872  -2.7656  -2.7392
    -2.7255  -2.7018  -2.6897  -2.6795  -2.6448  -2.6202  -2.5716  -2.5408
    -2.5115  -2.4805  -2.4571  -2.4097  -2.3486  -2.2908  -2.1874  -2.1611
    -2.1044  -2.0639  -2.0096  -1.9815  -1.9570  -1.9449  -1.9133  -1.8994
    -1.8918  -1.8653  -1.8274  -1.8084  -1.7941  -1.7638  -1.7292  -1.7223
    -1.6985  -1.6815  -1.6685  -1.6452  -1.6265  -1.6075  -1.5821  -1.5298
    -1.5237  -1.4951  -1.4466  -1.4359  -1.4173  -1.3920  -1.3437  -1.3041
    -1.3000  -1.2887  -1.2371  -1.1929  -1.1494  -1.0467  -1.0334  -0.9981
    -0.8891  -0.7579  -0.7484  -0.7431  -0.5867  -0.5523  -0.5401  -0.5252
    -0.5120  -0.5045  -0.3996  -0.3754  -0.3444  -0.2400  -0.1599  -0.1398
     0.2010   1.3254   1.6892

     occupation numbers 
     1.0000   1.0000   1.0000   1.0000   1.0000   1.0000   1.0000   1.0000
     1.0000   1.0000   1.0000   1.0000   1.0000   1.0000   1.0000   1.0000
     1.0000   1.0000   1.0000   1.0000   1.0000   1.0000   1.0000   1.0000
     1.0000   1.0000   1.0000   1.0000   1.0000   1.0000   1.0000   1.0000
     1.0000   1.0000   1.0000   1.0000   1.0000   1.0000   1.0000   1.0000
     1.0000   1.0000   1.0000   1.0000   1.0000   1.0000   1.0000   1.0000
     1.0000   1.0000   1.0000   1.0000   1.0000   1.0000   1.0000   1.0000
     1.0000   1.0000   1.0000   1.0000   1.0000   1.0000   1.0000   1.0000
     1.0000   1.0000   1.0000   1.0000   1.0000   1.0000   1.0000   1.0000
     1.0000   1.0000   1.0000   1.0000   1.0000   1.0000   1.0000   1.0000
     1.0000   1.0000   1.0000   1.0000   1.0000   1.0000   1.0000   1.0000
     1.0000   1.0000   1.0000   1.0000   1.0000   1.0000   1.0000   1.0000
     1.0000   1.0000   1.0000   1.0000   1.0000   1.0000   1.0000   1.0000
     1.0000   1.0000   1.0000   1.0000   1.0000   1.0000   1.0000   1.0000
     1.0000   1.0000   1.0000   1.0000   1.0000   1.0000   1.0000   1.0000
     1.0000   1.0000   1.0000   1.0000   1.0000   1.0000   1.0000   1.0000
     1.0000   1.0000   1.0000   1.0000   1.0000   1.0000   1.0000   1.0000
     1.0000   1.0000   1.0000   1.0000   1.0000   1.0000   1.0000   1.0000
     1.0000   1.0000   1.0000   1.0000   1.0000   1.0000   1.0000   1.0000
     1.0000   1.0000   1.0000   1.0000   1.0000   1.0000   1.0000   1.0000
     1.0000   1.0000   1.0000   1.0000   1.0000   1.0000   1.0000   1.0000
     1.0000   1.0000   1.0000   1.0000   1.0000   1.0000   1.0000   1.0000
     1.0000   1.0000   1.0000   1.0000   1.0000   1.0000   1.0000   1.0000
     1.0000   1.0000   1.0000   1.0000   1.0000   1.0000   1.0000   1.0000
     1.0000   1.0000   1.0000   1.0000   1.0000   1.0000   1.0000   1.0000
     1.0000   1.0000   1.0000   1.0000   1.0000   1.0000   1.0000   1.0000
     1.0000   1.0000   1.0000   1.0000   1.0000   1.0000   1.0000   1.0000
     1.0000   1.0000   1.0000   1.0000   1.0000   1.0000   1.0000   1.0000
     1.0000   1.0000   1.0000   1.0000   1.0000   1.0000   1.0000   1.0000
     1.0000   1.0000   1.0000   1.0000   1.0000   1.0000   1.0000   1.0000
     1.0000   1.0000   0.0000

          k =-0.4000 0.2309 0.0000 (112236 PWs)   bands (ev):

   -73.8129 -73.8090 -73.8059 -73.8040 -73.8012 -73.8009 -73.7975 -73.7951
   -73.7930 -73.7881 -73.7870 -73.7856 -73.7814 -73.7404 -73.7308 -73.7278
   -38.1994 -38.1968 -38.1834 -38.1782 -38.1715 -38.1559 -38.1538 -38.1377
   -38.1222 -38.1161 -38.0965 -38.0926 -38.0559 -38.0497 -38.0419 -38.0333
   -38.0230 -38.0190 -38.0064 -38.0060 -38.0042 -38.0023 -37.9983 -37.9953
   -37.9929 -37.9902 -37.9893 -37.9876 -37.9841 -37.9805 -37.9754 -37.9732
   -37.9664 -37.9591 -37.9564 -37.9502 -37.9439 -37.9411 -37.9386 -37.9353
   -37.9277 -37.9219 -37.9160 -37.9082 -37.8988 -37.8840 -37.8764 -37.8621
   -21.6872 -15.3658 -14.4308 -14.2285 -13.8644 -13.8541 -13.2444 -13.2391
   -13.0188 -12.9927 -12.9709 -12.9067 -12.8290 -12.7278 -12.7000 -12.6817
   -12.5293 -12.5032 -12.4573 -12.4492 -12.4271 -12.4217 -12.3828 -12.3599
   -12.3493 -12.2792 -12.2178 -12.1959 -12.1731 -12.1581 -12.1521 -12.1492
   -12.0534 -12.0373  -7.9626  -7.6849  -6.2094  -6.1248  -6.1029  -6.0838
    -6.0171  -5.8701  -5.8510  -5.8317  -5.7056  -5.5242  -5.5053  -5.4798
    -5.4488  -5.4411  -5.4332  -5.3844  -5.3750  -5.3120  -5.3044  -5.0745
    -5.0525  -5.0191  -5.0023  -4.7971  -4.5984  -4.5435  -4.4710  -4.4351
    -4.4073  -4.3674  -4.3474  -4.3036  -4.2398  -4.2163  -4.1910  -4.1557
    -4.1174  -4.1088  -4.0968  -4.0709  -4.0638  -4.0476  -4.0367  -3.6625
    -3.5582  -3.5115  -3.4678  -3.4488  -3.4186  -3.3893  -3.3511  -3.3117
    -3.2795  -3.2714  -3.2542  -3.2368  -3.2083  -3.1904  -3.1400  -3.1106
    -3.0617  -3.0301  -3.0046  -2.9432  -2.9245  -2.8928  -2.8171  -2.7573
    -2.7116  -2.6943  -2.6407  -2.6196  -2.5860  -2.5729  -2.5361  -2.4726
    -2.4214  -2.4151  -2.3853  -2.3243  -2.2734  -2.2449  -2.2367  -2.1593
    -2.1109  -2.0914  -2.0466  -2.0237  -2.0045  -1.9858  -1.9493  -1.9150
    -1.9019  -1.8888  -1.8786  -1.8608  -1.8521  -1.8443  -1.8330  -1.8137
    -1.7713  -1.7427  -1.6990  -1.6811  -1.6780  -1.6528  -1.6388  -1.6054
    -1.5789  -1.5468  -1.4903  -1.4602  -1.4403  -1.3460  -1.3169  -1.2892
    -1.2569  -1.2050  -1.1669  -1.1212  -1.1100  -1.0877  -1.0626  -0.9771
    -0.9446  -0.8684  -0.7268  -0.7104  -0.6325  -0.6152  -0.4939  -0.4472
    -0.4396  -0.4178  -0.3970  -0.3667  -0.2840  -0.0907   0.0087   0.0399
     0.1508   1.3770   1.6902

     occupation numbers 
     1.0000   1.0000   1.0000   1.0000   1.0000   1.0000   1.0000   1.0000
     1.0000   1.0000   1.0000   1.0000   1.0000   1.0000   1.0000   1.0000
     1.0000   1.0000   1.0000   1.0000   1.0000   1.0000   1.0000   1.0000
     1.0000   1.0000   1.0000   1.0000   1.0000   1.0000   1.0000   1.0000
     1.0000   1.0000   1.0000   1.0000   1.0000   1.0000   1.0000   1.0000
     1.0000   1.0000   1.0000   1.0000   1.0000   1.0000   1.0000   1.0000
     1.0000   1.0000   1.0000   1.0000   1.0000   1.0000   1.0000   1.0000
     1.0000   1.0000   1.0000   1.0000   1.0000   1.0000   1.0000   1.0000
     1.0000   1.0000   1.0000   1.0000   1.0000   1.0000   1.0000   1.0000
     1.0000   1.0000   1.0000   1.0000   1.0000   1.0000   1.0000   1.0000
     1.0000   1.0000   1.0000   1.0000   1.0000   1.0000   1.0000   1.0000
     1.0000   1.0000   1.0000   1.0000   1.0000   1.0000   1.0000   1.0000
     1.0000   1.0000   1.0000   1.0000   1.0000   1.0000   1.0000   1.0000
     1.0000   1.0000   1.0000   1.0000   1.0000   1.0000   1.0000   1.0000
     1.0000   1.0000   1.0000   1.0000   1.0000   1.0000   1.0000   1.0000
     1.0000   1.0000   1.0000   1.0000   1.0000   1.0000   1.0000   1.0000
     1.0000   1.0000   1.0000   1.0000   1.0000   1.0000   1.0000   1.0000
     1.0000   1.0000   1.0000   1.0000   1.0000   1.0000   1.0000   1.0000
     1.0000   1.0000   1.0000   1.0000   1.0000   1.0000   1.0000   1.0000
     1.0000   1.0000   1.0000   1.0000   1.0000   1.0000   1.0000   1.0000
     1.0000   1.0000   1.0000   1.0000   1.0000   1.0000   1.0000   1.0000
     1.0000   1.0000   1.0000   1.0000   1.0000   1.0000   1.0000   1.0000
     1.0000   1.0000   1.0000   1.0000   1.0000   1.0000   1.0000   1.0000
     1.0000   1.0000   1.0000   1.0000   1.0000   1.0000   1.0000   1.0000
     1.0000   1.0000   1.0000   1.0000   1.0000   1.0000   1.0000   1.0000
     1.0000   1.0000   1.0000   1.0000   1.0000   1.0000   1.0000   1.0000
     1.0000   1.0000   1.0000   1.0000   1.0000   1.0000   1.0000   1.0000
     1.0000   1.0000   1.0000   1.0000   1.0000   1.0000   1.0000   1.0000
     1.0000   1.0000   1.0000   1.0000   1.0000   1.0000   1.0000   1.0000
     1.0000   1.0000   1.0000   1.0000   1.0000   1.0000   1.0000   1.0000
     1.0000   1.0000   0.0000

          k = 0.4000 0.2309 0.0000 (112236 PWs)   bands (ev):

   -73.8128 -73.8092 -73.8058 -73.8040 -73.8013 -73.8004 -73.7980 -73.7952
   -73.7928 -73.7882 -73.7869 -73.7857 -73.7814 -73.7404 -73.7308 -73.7278
   -38.1982 -38.1976 -38.1840 -38.1797 -38.1699 -38.1552 -38.1541 -38.1384
   -38.1216 -38.1160 -38.0975 -38.0928 -38.0544 -38.0510 -38.0418 -38.0335
   -38.0235 -38.0174 -38.0068 -38.0059 -38.0048 -38.0025 -37.9985 -37.9959
   -37.9911 -37.9907 -37.9889 -37.9867 -37.9851 -37.9808 -37.9755 -37.9729
   -37.9680 -37.9585 -37.9566 -37.9498 -37.9428 -37.9412 -37.9389 -37.9343
   -37.9265 -37.9228 -37.9169 -37.9092 -37.8969 -37.8850 -37.8798 -37.8595
   -21.6872 -15.3658 -14.4307 -14.2286 -13.8639 -13.8546 -13.2440 -13.2404
   -13.0158 -12.9923 -12.9730 -12.9060 -12.8297 -12.7255 -12.7019 -12.6826
   -12.5370 -12.4954 -12.4615 -12.4465 -12.4261 -12.4216 -12.3834 -12.3585
   -12.3470 -12.2791 -12.2249 -12.1939 -12.1748 -12.1572 -12.1524 -12.1466
   -12.0505 -12.0398  -7.9626  -7.6849  -6.2094  -6.1152  -6.1065  -6.0825
    -6.0298  -5.8628  -5.8510  -5.8286  -5.7102  -5.5259  -5.5044  -5.4826
    -5.4441  -5.4429  -5.4350  -5.3840  -5.3768  -5.3096  -5.3032  -5.0673
    -5.0638  -5.0175  -5.0066  -4.7701  -4.6077  -4.5523  -4.4774  -4.4452
    -4.4135  -4.3666  -4.3436  -4.2998  -4.2341  -4.2207  -4.1867  -4.1530
    -4.1209  -4.1111  -4.0978  -4.0724  -4.0592  -4.0453  -4.0379  -3.6478
    -3.5536  -3.5135  -3.4569  -3.4427  -3.4221  -3.3924  -3.3533  -3.3195
    -3.2857  -3.2656  -3.2483  -3.2297  -3.2131  -3.1967  -3.1299  -3.1116
    -3.0702  -3.0513  -3.0115  -2.9444  -2.9223  -2.8971  -2.8252  -2.7573
    -2.7072  -2.6776  -2.6321  -2.6085  -2.6066  -2.5895  -2.4986  -2.4782
    -2.4470  -2.4233  -2.3646  -2.3229  -2.2671  -2.2521  -2.2369  -2.1400
    -2.1080  -2.0971  -2.0315  -2.0040  -1.9952  -1.9765  -1.9664  -1.9510
    -1.9244  -1.8940  -1.8796  -1.8589  -1.8456  -1.8406  -1.8319  -1.8095
    -1.7915  -1.7289  -1.7141  -1.6898  -1.6815  -1.6316  -1.6192  -1.6125
    -1.5898  -1.5427  -1.4999  -1.4872  -1.4058  -1.3535  -1.3014  -1.2822
    -1.2444  -1.2256  -1.1843  -1.1288  -1.1116  -1.0536  -1.0318  -0.9847
    -0.9624  -0.8749  -0.7230  -0.7168  -0.6320  -0.6215  -0.5017  -0.4508
    -0.4418  -0.4152  -0.3994  -0.3553  -0.2784  -0.0915   0.0108   0.0361
     0.1533   1.3610   1.7106

     occupation numbers 
     1.0000   1.0000   1.0000   1.0000   1.0000   1.0000   1.0000   1.0000
     1.0000   1.0000   1.0000   1.0000   1.0000   1.0000   1.0000   1.0000
     1.0000   1.0000   1.0000   1.0000   1.0000   1.0000   1.0000   1.0000
     1.0000   1.0000   1.0000   1.0000   1.0000   1.0000   1.0000   1.0000
     1.0000   1.0000   1.0000   1.0000   1.0000   1.0000   1.0000   1.0000
     1.0000   1.0000   1.0000   1.0000   1.0000   1.0000   1.0000   1.0000
     1.0000   1.0000   1.0000   1.0000   1.0000   1.0000   1.0000   1.0000
     1.0000   1.0000   1.0000   1.0000   1.0000   1.0000   1.0000   1.0000
     1.0000   1.0000   1.0000   1.0000   1.0000   1.0000   1.0000   1.0000
     1.0000   1.0000   1.0000   1.0000   1.0000   1.0000   1.0000   1.0000
     1.0000   1.0000   1.0000   1.0000   1.0000   1.0000   1.0000   1.0000
     1.0000   1.0000   1.0000   1.0000   1.0000   1.0000   1.0000   1.0000
     1.0000   1.0000   1.0000   1.0000   1.0000   1.0000   1.0000   1.0000
     1.0000   1.0000   1.0000   1.0000   1.0000   1.0000   1.0000   1.0000
     1.0000   1.0000   1.0000   1.0000   1.0000   1.0000   1.0000   1.0000
     1.0000   1.0000   1.0000   1.0000   1.0000   1.0000   1.0000   1.0000
     1.0000   1.0000   1.0000   1.0000   1.0000   1.0000   1.0000   1.0000
     1.0000   1.0000   1.0000   1.0000   1.0000   1.0000   1.0000   1.0000
     1.0000   1.0000   1.0000   1.0000   1.0000   1.0000   1.0000   1.0000
     1.0000   1.0000   1.0000   1.0000   1.0000   1.0000   1.0000   1.0000
     1.0000   1.0000   1.0000   1.0000   1.0000   1.0000   1.0000   1.0000
     1.0000   1.0000   1.0000   1.0000   1.0000   1.0000   1.0000   1.0000
     1.0000   1.0000   1.0000   1.0000   1.0000   1.0000   1.0000   1.0000
     1.0000   1.0000   1.0000   1.0000   1.0000   1.0000   1.0000   1.0000
     1.0000   1.0000   1.0000   1.0000   1.0000   1.0000   1.0000   1.0000
     1.0000   1.0000   1.0000   1.0000   1.0000   1.0000   1.0000   1.0000
     1.0000   1.0000   1.0000   1.0000   1.0000   1.0000   1.0000   1.0000
     1.0000   1.0000   1.0000   1.0000   1.0000   1.0000   1.0000   1.0000
     1.0000   1.0000   1.0000   1.0000   1.0000   1.0000   1.0000   1.0000
     1.0000   1.0000   1.0000   1.0000   1.0000   1.0000   1.0000   1.0000
     1.0000   1.0000   0.0000

          k =-0.2000 0.3464 0.0000 (112231 PWs)   bands (ev):

   -73.8129 -73.8089 -73.8060 -73.8038 -73.8016 -73.8006 -73.7975 -73.7951
   -73.7932 -73.7880 -73.7870 -73.7856 -73.7814 -73.7404 -73.7308 -73.7278
   -38.2044 -38.1959 -38.1933 -38.1712 -38.1661 -38.1580 -38.1476 -38.1409
   -38.1251 -38.1170 -38.1015 -38.0687 -38.0537 -38.0472 -38.0427 -38.0307
   -38.0263 -38.0212 -38.0159 -38.0148 -38.0097 -38.0036 -37.9979 -37.9955
   -37.9923 -37.9877 -37.9859 -37.9834 -37.9817 -37.9776 -37.9755 -37.9744
   -37.9685 -37.9665 -37.9563 -37.9510 -37.9481 -37.9458 -37.9363 -37.9331
   -37.9258 -37.9192 -37.9161 -37.9105 -37.8936 -37.8871 -37.8716 -37.8624
   -21.6872 -15.3658 -14.4705 -14.0969 -14.0567 -13.5692 -13.5524 -13.1689
   -13.1160 -13.0045 -12.9304 -12.8033 -12.7864 -12.7012 -12.6696 -12.6143
   -12.5805 -12.5734 -12.5653 -12.4505 -12.4226 -12.3891 -12.3754 -12.3064
   -12.2886 -12.2702 -12.2478 -12.2236 -12.2202 -12.1533 -12.1465 -12.1051
   -12.0931 -12.0326  -7.9626  -7.6849  -6.2116  -6.1802  -6.1376  -6.1167
    -6.0974  -5.7567  -5.7292  -5.7115  -5.6927  -5.6219  -5.5975  -5.5559
    -5.5023  -5.4713  -5.3505  -5.3247  -5.2942  -5.2607  -5.2363  -5.2141
    -5.0925  -4.9076  -4.8887  -4.7901  -4.7523  -4.5966  -4.5032  -4.4374
    -4.3896  -4.3388  -4.3289  -4.3032  -4.2764  -4.2546  -4.2394  -4.2206
    -4.1588  -4.1245  -4.1061  -4.0891  -4.0498  -3.7622  -3.7330  -3.7221
    -3.7025  -3.6851  -3.5840  -3.4984  -3.4126  -3.3744  -3.3627  -3.2982
    -3.2739  -3.2331  -3.2218  -3.1959  -3.1582  -3.1426  -3.1093  -3.0778
    -3.0504  -2.9998  -2.9546  -2.9372  -2.9221  -2.9171  -2.9063  -2.8925
    -2.7732  -2.7097  -2.6840  -2.6624  -2.5945  -2.5351  -2.5077  -2.4660
    -2.4488  -2.3971  -2.3787  -2.3521  -2.3098  -2.2054  -2.1882  -2.1441
    -2.1226  -2.1151  -2.0961  -2.0634  -2.0209  -1.9756  -1.9635  -1.9267
    -1.9007  -1.8886  -1.8570  -1.8406  -1.8146  -1.8077  -1.7846  -1.7588
    -1.7285  -1.6968  -1.6839  -1.6647  -1.6391  -1.6228  -1.5775  -1.5755
    -1.5533  -1.5417  -1.5169  -1.4913  -1.4230  -1.3873  -1.3765  -1.3365
    -1.2728  -1.2365  -1.1849  -1.1662  -1.1479  -1.1012  -1.0335  -0.9678
    -0.8692  -0.8255  -0.6802  -0.6637  -0.6274  -0.6172  -0.6019  -0.5324
    -0.5283  -0.4059  -0.3767  -0.2507  -0.1977  -0.1892  -0.1432   0.0818
     0.1655   1.3386   1.7192

     occupation numbers 
     1.0000   1.0000   1.0000   1.0000   1.0000   1.0000   1.0000   1.0000
     1.0000   1.0000   1.0000   1.0000   1.0000   1.0000   1.0000   1.0000
     1.0000   1.0000   1.0000   1.0000   1.0000   1.0000   1.0000   1.0000
     1.0000   1.0000   1.0000   1.0000   1.0000   1.0000   1.0000   1.0000
     1.0000   1.0000   1.0000   1.0000   1.0000   1.0000   1.0000   1.0000
     1.0000   1.0000   1.0000   1.0000   1.0000   1.0000   1.0000   1.0000
     1.0000   1.0000   1.0000   1.0000   1.0000   1.0000   1.0000   1.0000
     1.0000   1.0000   1.0000   1.0000   1.0000   1.0000   1.0000   1.0000
     1.0000   1.0000   1.0000   1.0000   1.0000   1.0000   1.0000   1.0000
     1.0000   1.0000   1.0000   1.0000   1.0000   1.0000   1.0000   1.0000
     1.0000   1.0000   1.0000   1.0000   1.0000   1.0000   1.0000   1.0000
     1.0000   1.0000   1.0000   1.0000   1.0000   1.0000   1.0000   1.0000
     1.0000   1.0000   1.0000   1.0000   1.0000   1.0000   1.0000   1.0000
     1.0000   1.0000   1.0000   1.0000   1.0000   1.0000   1.0000   1.0000
     1.0000   1.0000   1.0000   1.0000   1.0000   1.0000   1.0000   1.0000
     1.0000   1.0000   1.0000   1.0000   1.0000   1.0000   1.0000   1.0000
     1.0000   1.0000   1.0000   1.0000   1.0000   1.0000   1.0000   1.0000
     1.0000   1.0000   1.0000   1.0000   1.0000   1.0000   1.0000   1.0000
     1.0000   1.0000   1.0000   1.0000   1.0000   1.0000   1.0000   1.0000
     1.0000   1.0000   1.0000   1.0000   1.0000   1.0000   1.0000   1.0000
     1.0000   1.0000   1.0000   1.0000   1.0000   1.0000   1.0000   1.0000
     1.0000   1.0000   1.0000   1.0000   1.0000   1.0000   1.0000   1.0000
     1.0000   1.0000   1.0000   1.0000   1.0000   1.0000   1.0000   1.0000
     1.0000   1.0000   1.0000   1.0000   1.0000   1.0000   1.0000   1.0000
     1.0000   1.0000   1.0000   1.0000   1.0000   1.0000   1.0000   1.0000
     1.0000   1.0000   1.0000   1.0000   1.0000   1.0000   1.0000   1.0000
     1.0000   1.0000   1.0000   1.0000   1.0000   1.0000   1.0000   1.0000
     1.0000   1.0000   1.0000   1.0000   1.0000   1.0000   1.0000   1.0000
     1.0000   1.0000   1.0000   1.0000   1.0000   1.0000   1.0000   1.0000
     1.0000   1.0000   1.0000   1.0000   1.0000   1.0000   1.0000   1.0000
     1.0000   1.0000   0.0000

          k = 0.4000-0.0000 0.0000 (112231 PWs)   bands (ev):

   -73.8129 -73.8091 -73.8058 -73.8040 -73.8012 -73.8007 -73.7978 -73.7952
   -73.7929 -73.7881 -73.7869 -73.7856 -73.7814 -73.7404 -73.7308 -73.7278
   -38.2045 -38.1955 -38.1937 -38.1710 -38.1672 -38.1578 -38.1474 -38.1400
   -38.1238 -38.1155 -38.1049 -38.0697 -38.0525 -38.0469 -38.0425 -38.0316
   -38.0250 -38.0218 -38.0168 -38.0147 -38.0096 -38.0046 -37.9983 -37.9939
   -37.9916 -37.9881 -37.9856 -37.9841 -37.9811 -37.9786 -37.9754 -37.9746
   -37.9679 -37.9648 -37.9570 -37.9515 -37.9490 -37.9449 -37.9363 -37.9344
   -37.9240 -37.9192 -37.9161 -37.9090 -37.8950 -37.8886 -37.8725 -37.8608
   -21.6872 -15.3658 -14.4705 -14.0946 -14.0590 -13.5627 -13.5596 -13.1650
   -13.1182 -13.0082 -12.9248 -12.8004 -12.7893 -12.7054 -12.6772 -12.5988
   -12.5949 -12.5708 -12.5563 -12.4528 -12.4189 -12.4076 -12.3608 -12.3045
   -12.2890 -12.2670 -12.2500 -12.2322 -12.2173 -12.1540 -12.1438 -12.1036
   -12.0940 -12.0331  -7.9626  -7.6849  -6.2111  -6.1734  -6.1449  -6.1120
    -6.1037  -5.7492  -5.7343  -5.7156  -5.6804  -5.6293  -5.6031  -5.5546
    -5.5000  -5.4686  -5.3468  -5.3301  -5.2853  -5.2667  -5.2385  -5.2232
    -5.0918  -4.8950  -4.8820  -4.8037  -4.7516  -4.5599  -4.5271  -4.4523
    -4.4021  -4.3408  -4.3329  -4.3062  -4.2712  -4.2593  -4.2370  -4.2040
    -4.1700  -4.1131  -4.1048  -4.0854  -4.0493  -3.7526  -3.7276  -3.7211
    -3.7009  -3.6917  -3.5964  -3.4746  -3.4219  -3.3901  -3.3639  -3.3088
    -3.2699  -3.2378  -3.2260  -3.1957  -3.1672  -3.1372  -3.1173  -3.0733
    -3.0309  -2.9832  -2.9606  -2.9422  -2.9339  -2.9104  -2.8961  -2.8868
    -2.7610  -2.7260  -2.6873  -2.6362  -2.6084  -2.5559  -2.5199  -2.4598
    -2.4487  -2.4079  -2.3767  -2.3334  -2.3086  -2.2126  -2.1724  -2.1434
    -2.1205  -2.1161  -2.0926  -2.0818  -1.9930  -1.9760  -1.9630  -1.9300
    -1.9145  -1.8891  -1.8667  -1.8532  -1.8362  -1.8116  -1.7726  -1.7514
    -1.7197  -1.6962  -1.6788  -1.6631  -1.6424  -1.6153  -1.5850  -1.5656
    -1.5459  -1.5371  -1.5169  -1.4884  -1.4388  -1.4006  -1.3566  -1.3280
    -1.2752  -1.2507  -1.1915  -1.1697  -1.1412  -1.0920  -1.0331  -0.9671
    -0.8591  -0.8398  -0.6747  -0.6662  -0.6273  -0.6138  -0.6058  -0.5315
    -0.5271  -0.4243  -0.3700  -0.2434  -0.1986  -0.1845  -0.1462   0.0794
     0.1651   1.3690   1.6865

     occupation numbers 
     1.0000   1.0000   1.0000   1.0000   1.0000   1.0000   1.0000   1.0000
     1.0000   1.0000   1.0000   1.0000   1.0000   1.0000   1.0000   1.0000
     1.0000   1.0000   1.0000   1.0000   1.0000   1.0000   1.0000   1.0000
     1.0000   1.0000   1.0000   1.0000   1.0000   1.0000   1.0000   1.0000
     1.0000   1.0000   1.0000   1.0000   1.0000   1.0000   1.0000   1.0000
     1.0000   1.0000   1.0000   1.0000   1.0000   1.0000   1.0000   1.0000
     1.0000   1.0000   1.0000   1.0000   1.0000   1.0000   1.0000   1.0000
     1.0000   1.0000   1.0000   1.0000   1.0000   1.0000   1.0000   1.0000
     1.0000   1.0000   1.0000   1.0000   1.0000   1.0000   1.0000   1.0000
     1.0000   1.0000   1.0000   1.0000   1.0000   1.0000   1.0000   1.0000
     1.0000   1.0000   1.0000   1.0000   1.0000   1.0000   1.0000   1.0000
     1.0000   1.0000   1.0000   1.0000   1.0000   1.0000   1.0000   1.0000
     1.0000   1.0000   1.0000   1.0000   1.0000   1.0000   1.0000   1.0000
     1.0000   1.0000   1.0000   1.0000   1.0000   1.0000   1.0000   1.0000
     1.0000   1.0000   1.0000   1.0000   1.0000   1.0000   1.0000   1.0000
     1.0000   1.0000   1.0000   1.0000   1.0000   1.0000   1.0000   1.0000
     1.0000   1.0000   1.0000   1.0000   1.0000   1.0000   1.0000   1.0000
     1.0000   1.0000   1.0000   1.0000   1.0000   1.0000   1.0000   1.0000
     1.0000   1.0000   1.0000   1.0000   1.0000   1.0000   1.0000   1.0000
     1.0000   1.0000   1.0000   1.0000   1.0000   1.0000   1.0000   1.0000
     1.0000   1.0000   1.0000   1.0000   1.0000   1.0000   1.0000   1.0000
     1.0000   1.0000   1.0000   1.0000   1.0000   1.0000   1.0000   1.0000
     1.0000   1.0000   1.0000   1.0000   1.0000   1.0000   1.0000   1.0000
     1.0000   1.0000   1.0000   1.0000   1.0000   1.0000   1.0000   1.0000
     1.0000   1.0000   1.0000   1.0000   1.0000   1.0000   1.0000   1.0000
     1.0000   1.0000   1.0000   1.0000   1.0000   1.0000   1.0000   1.0000
     1.0000   1.0000   1.0000   1.0000   1.0000   1.0000   1.0000   1.0000
     1.0000   1.0000   1.0000   1.0000   1.0000   1.0000   1.0000   1.0000
     1.0000   1.0000   1.0000   1.0000   1.0000   1.0000   1.0000   1.0000
     1.0000   1.0000   1.0000   1.0000   1.0000   1.0000   1.0000   1.0000
     1.0000   1.0000   0.0000

          k =-0.4000 0.4619 0.0000 (112237 PWs)   bands (ev):

   -73.8128 -73.8091 -73.8060 -73.8039 -73.8013 -73.8006 -73.7976 -73.7951
   -73.7930 -73.7881 -73.7870 -73.7856 -73.7814 -73.7404 -73.7308 -73.7278
   -38.1948 -38.1888 -38.1790 -38.1764 -38.1687 -38.1649 -38.1569 -38.1419
   -38.1381 -38.1220 -38.0856 -38.0824 -38.0765 -38.0435 -38.0400 -38.0344
   -38.0271 -38.0234 -38.0147 -38.0065 -38.0039 -37.9992 -37.9971 -37.9950
   -37.9930 -37.9919 -37.9885 -37.9840 -37.9807 -37.9754 -37.9681 -37.9648
   -37.9592 -37.9544 -37.9516 -37.9499 -37.9484 -37.9416 -37.9370 -37.9352
   -37.9295 -37.9228 -37.9184 -37.9151 -37.9044 -37.8860 -37.8732 -37.8654
   -21.6872 -15.3658 -14.3324 -14.2862 -14.1113 -13.5917 -13.2930 -13.2902
   -12.9542 -12.9439 -12.8813 -12.8527 -12.8234 -12.7980 -12.7926 -12.6598
   -12.6306 -12.5921 -12.4894 -12.4797 -12.3831 -12.3707 -12.3430 -12.3216
   -12.3068 -12.2949 -12.2570 -12.2315 -12.2264 -12.1300 -12.1171 -12.1114
   -12.0769 -12.0136  -7.9626  -7.6849  -6.2083  -6.0452  -6.0109  -5.9641
    -5.9088  -5.8848  -5.8715  -5.8531  -5.8040  -5.7396  -5.6807  -5.6199
    -5.6044  -5.5365  -5.3527  -5.2771  -5.2415  -5.2110  -5.1953  -5.1629
    -5.1516  -4.8473  -4.8267  -4.7363  -4.6149  -4.5791  -4.5373  -4.5164
    -4.4834  -4.4180  -4.3762  -4.3181  -4.3009  -4.2366  -4.2218  -4.2022
    -4.1876  -4.1580  -4.1162  -4.0895  -3.9505  -3.9425  -3.7819  -3.6589
    -3.5980  -3.5804  -3.4199  -3.3826  -3.3482  -3.3162  -3.2954  -3.2733
    -3.2656  -3.2587  -3.2351  -3.2244  -3.2138  -3.2058  -3.1380  -3.1147
    -3.0893  -3.0721  -3.0522  -3.0331  -2.9789  -2.9162  -2.8356  -2.7921
    -2.7274  -2.6994  -2.6824  -2.6583  -2.6022  -2.5648  -2.4814  -2.3998
    -2.3854  -2.3184  -2.3144  -2.3073  -2.2574  -2.1781  -2.1640  -2.1453
    -2.1263  -2.0815  -2.0660  -2.0383  -2.0158  -1.9625  -1.9490  -1.9332
    -1.9206  -1.9067  -1.8833  -1.8696  -1.8561  -1.8452  -1.8384  -1.8309
    -1.8034  -1.7788  -1.7406  -1.7131  -1.6880  -1.6737  -1.6525  -1.6367
    -1.6110  -1.5693  -1.5159  -1.4916  -1.4723  -1.4500  -1.4002  -1.2992
    -1.2633  -1.2237  -1.1560  -1.1074  -1.0839  -1.0590  -1.0289  -0.9415
    -0.8072  -0.7790  -0.6931  -0.6824  -0.6485  -0.6353  -0.5922  -0.5728
    -0.5563  -0.3893  -0.2705  -0.2658  -0.1674  -0.1113  -0.0686   0.1234
     0.1963   1.3767   1.7009

     occupation numbers 
     1.0000   1.0000   1.0000   1.0000   1.0000   1.0000   1.0000   1.0000
     1.0000   1.0000   1.0000   1.0000   1.0000   1.0000   1.0000   1.0000
     1.0000   1.0000   1.0000   1.0000   1.0000   1.0000   1.0000   1.0000
     1.0000   1.0000   1.0000   1.0000   1.0000   1.0000   1.0000   1.0000
     1.0000   1.0000   1.0000   1.0000   1.0000   1.0000   1.0000   1.0000
     1.0000   1.0000   1.0000   1.0000   1.0000   1.0000   1.0000   1.0000
     1.0000   1.0000   1.0000   1.0000   1.0000   1.0000   1.0000   1.0000
     1.0000   1.0000   1.0000   1.0000   1.0000   1.0000   1.0000   1.0000
     1.0000   1.0000   1.0000   1.0000   1.0000   1.0000   1.0000   1.0000
     1.0000   1.0000   1.0000   1.0000   1.0000   1.0000   1.0000   1.0000
     1.0000   1.0000   1.0000   1.0000   1.0000   1.0000   1.0000   1.0000
     1.0000   1.0000   1.0000   1.0000   1.0000   1.0000   1.0000   1.0000
     1.0000   1.0000   1.0000   1.0000   1.0000   1.0000   1.0000   1.0000
     1.0000   1.0000   1.0000   1.0000   1.0000   1.0000   1.0000   1.0000
     1.0000   1.0000   1.0000   1.0000   1.0000   1.0000   1.0000   1.0000
     1.0000   1.0000   1.0000   1.0000   1.0000   1.0000   1.0000   1.0000
     1.0000   1.0000   1.0000   1.0000   1.0000   1.0000   1.0000   1.0000
     1.0000   1.0000   1.0000   1.0000   1.0000   1.0000   1.0000   1.0000
     1.0000   1.0000   1.0000   1.0000   1.0000   1.0000   1.0000   1.0000
     1.0000   1.0000   1.0000   1.0000   1.0000   1.0000   1.0000   1.0000
     1.0000   1.0000   1.0000   1.0000   1.0000   1.0000   1.0000   1.0000
     1.0000   1.0000   1.0000   1.0000   1.0000   1.0000   1.0000   1.0000
     1.0000   1.0000   1.0000   1.0000   1.0000   1.0000   1.0000   1.0000
     1.0000   1.0000   1.0000   1.0000   1.0000   1.0000   1.0000   1.0000
     1.0000   1.0000   1.0000   1.0000   1.0000   1.0000   1.0000   1.0000
     1.0000   1.0000   1.0000   1.0000   1.0000   1.0000   1.0000   1.0000
     1.0000   1.0000   1.0000   1.0000   1.0000   1.0000   1.0000   1.0000
     1.0000   1.0000   1.0000   1.0000   1.0000   1.0000   1.0000   1.0000
     1.0000   1.0000   1.0000   1.0000   1.0000   1.0000   1.0000   1.0000
     1.0000   1.0000   1.0000   1.0000   1.0000   1.0000   1.0000   1.0000
     1.0000   1.0000   0.0000

          k = 0.6000 0.1155 0.0000 (112237 PWs)   bands (ev):

   -73.8128 -73.8092 -73.8059 -73.8039 -73.8014 -73.8004 -73.7978 -73.7952
   -73.7929 -73.7882 -73.7869 -73.7856 -73.7814 -73.7404 -73.7308 -73.7278
   -38.1939 -38.1896 -38.1797 -38.1765 -38.1682 -38.1644 -38.1566 -38.1419
   -38.1386 -38.1216 -38.0856 -38.0829 -38.0771 -38.0422 -38.0402 -38.0346
   -38.0270 -38.0238 -38.0137 -38.0071 -38.0045 -37.9988 -37.9974 -37.9956
   -37.9932 -37.9906 -37.9884 -37.9844 -37.9807 -37.9754 -37.9682 -37.9642
   -37.9605 -37.9542 -37.9515 -37.9502 -37.9477 -37.9421 -37.9366 -37.9340
   -37.9285 -37.9233 -37.9184 -37.9164 -37.9039 -37.8868 -37.8755 -37.8630
   -21.6872 -15.3658 -14.3319 -14.2868 -14.1111 -13.5916 -13.3005 -13.2826
   -12.9608 -12.9370 -12.8764 -12.8565 -12.8235 -12.7980 -12.7935 -12.6628
   -12.6292 -12.5903 -12.4995 -12.4692 -12.3900 -12.3669 -12.3393 -12.3178
   -12.3071 -12.2969 -12.2604 -12.2319 -12.2272 -12.1279 -12.1177 -12.1117
   -12.0763 -12.0139  -7.9626  -7.6849  -6.2083  -6.0418  -6.0074  -5.9621
    -5.9194  -5.9015  -5.8723  -5.8300  -5.8028  -5.7446  -5.6828  -5.6175
    -5.6067  -5.5328  -5.3510  -5.2743  -5.2500  -5.2182  -5.1922  -5.1659
    -5.1428  -4.8496  -4.8333  -4.6862  -4.6392  -4.6012  -4.5440  -4.5075
    -4.4837  -4.4283  -4.3758  -4.3155  -4.2935  -4.2368  -4.2271  -4.1935
    -4.1846  -4.1621  -4.1157  -4.0914  -3.9522  -3.9415  -3.7788  -3.6571
    -3.5993  -3.5719  -3.4201  -3.3618  -3.3523  -3.3219  -3.2883  -3.2798
    -3.2771  -3.2515  -3.2367  -3.2262  -3.2149  -3.1944  -3.1686  -3.1342
    -3.0801  -3.0709  -3.0482  -3.0124  -2.9823  -2.9279  -2.8311  -2.7932
    -2.7327  -2.7066  -2.6892  -2.6322  -2.6153  -2.5288  -2.4882  -2.4484
    -2.3822  -2.3249  -2.3096  -2.2864  -2.2376  -2.1897  -2.1662  -2.1327
    -2.1101  -2.0911  -2.0694  -2.0291  -2.0043  -1.9714  -1.9563  -1.9437
    -1.9242  -1.8945  -1.8902  -1.8730  -1.8625  -1.8539  -1.8463  -1.8302
    -1.7971  -1.7824  -1.7319  -1.7174  -1.6859  -1.6767  -1.6472  -1.6273
    -1.6099  -1.5898  -1.5215  -1.5079  -1.4636  -1.4228  -1.3862  -1.3111
    -1.2715  -1.2162  -1.1489  -1.1291  -1.0871  -1.0419  -1.0041  -0.9609
    -0.8036  -0.7830  -0.6895  -0.6873  -0.6491  -0.6430  -0.5916  -0.5850
    -0.5422  -0.3907  -0.2732  -0.2594  -0.1649  -0.1146  -0.0679   0.1238
     0.1968   1.3671   1.7127

     occupation numbers 
     1.0000   1.0000   1.0000   1.0000   1.0000   1.0000   1.0000   1.0000
     1.0000   1.0000   1.0000   1.0000   1.0000   1.0000   1.0000   1.0000
     1.0000   1.0000   1.0000   1.0000   1.0000   1.0000   1.0000   1.0000
     1.0000   1.0000   1.0000   1.0000   1.0000   1.0000   1.0000   1.0000
     1.0000   1.0000   1.0000   1.0000   1.0000   1.0000   1.0000   1.0000
     1.0000   1.0000   1.0000   1.0000   1.0000   1.0000   1.0000   1.0000
     1.0000   1.0000   1.0000   1.0000   1.0000   1.0000   1.0000   1.0000
     1.0000   1.0000   1.0000   1.0000   1.0000   1.0000   1.0000   1.0000
     1.0000   1.0000   1.0000   1.0000   1.0000   1.0000   1.0000   1.0000
     1.0000   1.0000   1.0000   1.0000   1.0000   1.0000   1.0000   1.0000
     1.0000   1.0000   1.0000   1.0000   1.0000   1.0000   1.0000   1.0000
     1.0000   1.0000   1.0000   1.0000   1.0000   1.0000   1.0000   1.0000
     1.0000   1.0000   1.0000   1.0000   1.0000   1.0000   1.0000   1.0000
     1.0000   1.0000   1.0000   1.0000   1.0000   1.0000   1.0000   1.0000
     1.0000   1.0000   1.0000   1.0000   1.0000   1.0000   1.0000   1.0000
     1.0000   1.0000   1.0000   1.0000   1.0000   1.0000   1.0000   1.0000
     1.0000   1.0000   1.0000   1.0000   1.0000   1.0000   1.0000   1.0000
     1.0000   1.0000   1.0000   1.0000   1.0000   1.0000   1.0000   1.0000
     1.0000   1.0000   1.0000   1.0000   1.0000   1.0000   1.0000   1.0000
     1.0000   1.0000   1.0000   1.0000   1.0000   1.0000   1.0000   1.0000
     1.0000   1.0000   1.0000   1.0000   1.0000   1.0000   1.0000   1.0000
     1.0000   1.0000   1.0000   1.0000   1.0000   1.0000   1.0000   1.0000
     1.0000   1.0000   1.0000   1.0000   1.0000   1.0000   1.0000   1.0000
     1.0000   1.0000   1.0000   1.0000   1.0000   1.0000   1.0000   1.0000
     1.0000   1.0000   1.0000   1.0000   1.0000   1.0000   1.0000   1.0000
     1.0000   1.0000   1.0000   1.0000   1.0000   1.0000   1.0000   1.0000
     1.0000   1.0000   1.0000   1.0000   1.0000   1.0000   1.0000   1.0000
     1.0000   1.0000   1.0000   1.0000   1.0000   1.0000   1.0000   1.0000
     1.0000   1.0000   1.0000   1.0000   1.0000   1.0000   1.0000   1.0000
     1.0000   1.0000   1.0000   1.0000   1.0000   1.0000   1.0000   1.0000
     1.0000   1.0000   0.0000

     highest occupied, lowest unoccupied level (ev):     1.6185    1.6771

!    total energy              =  -16138.55514989 Ry
     total all-electron energy =   -595550.628355 Ry
     estimated scf accuracy    <          3.6E-11 Ry

     The total energy is the sum of the following terms:
     one-electron contribution =  -18312.86319655 Ry
     hartree contribution      =    9260.22697881 Ry
     xc contribution           =    -931.75232580 Ry
     ewald contribution        =    6415.82248456 Ry
     DFT-D3 Dispersion         =      -0.65557530 Ry
     one-center paw contrib.   =  -12569.33351561 Ry
      -> PAW hartree energy AE =      92.00277344 Ry
      -> PAW hartree energy PS =     -91.51071951 Ry
      -> PAW xc energy AE      =    -644.66490845 Ry
      -> PAW xc energy PS      =      38.62150940 Ry
      -> total E_H with PAW    =    9260.71903273 Ry
      -> total E_XC with PAW   =   -1537.79572485 Ry

     total magnetization       =     1.00 Bohr mag/cell
     absolute magnetization    =     1.12 Bohr mag/cell

     convergence has been achieved in  34 iterations

     negative rho (up, down):  4.797E-03 5.165E-03

     Forces acting on atoms (cartesian axes, Ry/au):

     atom    1 type  2   force =    -0.00000513   -0.00007581   -0.00014419
     atom    2 type  2   force =    -0.00018855    0.00001773    0.00013016
     atom    3 type  2   force =    -0.00025459   -0.00015673   -0.00003552
     atom    4 type  2   force =     0.00028984    0.00027465    0.00003549
     atom    5 type  2   force =    -0.00000960   -0.00023041    0.00002099
     atom    6 type  2   force =    -0.00002323    0.00004466   -0.00001368
     atom    7 type  2   force =     0.00004516   -0.00001954    0.00010685
     atom    8 type  2   force =     0.00014199    0.00007685    0.00006762
     atom    9 type  2   force =    -0.00021259   -0.00008019    0.00003841
     atom   10 type  2   force =     0.00009803    0.00012549    0.00008313
     atom   11 type  2   force =    -0.00002605    0.00020309   -0.00005673
     atom   12 type  2   force =    -0.00001154    0.00007538   -0.00013597
     atom   13 type  2   force =    -0.00013617    0.00015467    0.00007792
     atom   14 type  2   force =     0.00011300    0.00001791    0.00000569
     atom   15 type  2   force =    -0.00002052   -0.00018258   -0.00002883
     atom   16 type  2   force =    -0.00023762   -0.00016056   -0.00003694
     atom   17 type  1   force =    -0.00009191    0.00017471   -0.00002393
     atom   18 type  1   force =    -0.00005619   -0.00018480   -0.00007271
     atom   19 type  1   force =    -0.00011014    0.00010954   -0.00003123
     atom   20 type  1   force =     0.00012646   -0.00002304   -0.00005893
     atom   21 type  1   force =    -0.00008336    0.00000561    0.00005276
     atom   22 type  1   force =    -0.00003447    0.00001026   -0.00032224
     atom   23 type  1   force =    -0.00005104    0.00002559    0.00005929
     atom   24 type  1   force =     0.00012487    0.00000097    0.00001017
     atom   25 type  1   force =    -0.00002223   -0.00003935    0.00002132
     atom   26 type  1   force =     0.00005146   -0.00007853   -0.00008106
     atom   27 type  1   force =     0.00008051    0.00007443   -0.00005125
     atom   28 type  1   force =    -0.00027436    0.00002047   -0.00035583
     atom   29 type  1   force =    -0.00002021   -0.00012595   -0.00012840
     atom   30 type  1   force =    -0.00007466   -0.00000637    0.00008529
     atom   31 type  1   force =    -0.00019766   -0.00006496   -0.00004281
     atom   32 type  1   force =     0.00024691    0.00007972   -0.00016140
     atom   33 type  1   force =     0.00002455    0.00005194   -0.00015774
     atom   34 type  1   force =     0.00000948    0.00006460    0.00004522
     atom   35 type  1   force =     0.00002345   -0.00000065   -0.00003412
     atom   36 type  1   force =    -0.00003490   -0.00004545    0.00004928
     atom   37 type  1   force =    -0.00010963    0.00001569   -0.00012115
     atom   38 type  1   force =     0.00009338   -0.00016142    0.00001307
     atom   39 type  1   force =     0.00014410    0.00003505    0.00004075
     atom   40 type  1   force =     0.00011211   -0.00002873    0.00007262
     atom   41 type  1   force =    -0.00011843    0.00004978    0.00006760
     atom   42 type  1   force =     0.00004404    0.00005618    0.00000037
     atom   43 type  1   force =    -0.00024652    0.00000734    0.00014225
     atom   44 type  1   force =    -0.00007885    0.00010147   -0.00036345
     atom   45 type  1   force =    -0.00009876   -0.00004330    0.00005396
     atom   46 type  1   force =     0.00000872    0.00003957   -0.00015455
     atom   47 type  1   force =    -0.00004769   -0.00017285   -0.00016568
     atom   48 type  1   force =    -0.00002927    0.00004660    0.00014636
     atom   49 type  3   force =     0.00089121   -0.00004824   -0.00020352
     atom   50 type  3   force =    -0.00030367   -0.00078211    0.00060570
     atom   51 type  3   force =    -0.00035848   -0.00009798   -0.00022077
     atom   52 type  3   force =     0.00049765    0.00033534    0.00053364
     atom   53 type  3   force =     0.00042134    0.00047650    0.00010293
     atom   54 type  4   force =     0.01535659    0.00108273    0.00254618
     atom   55 type  5   force =    -0.02257655   -0.00185978   -0.00574885
     atom   56 type  6   force =     0.00203349    0.00055493   -0.00014603
     atom   57 type  6   force =     0.00296968   -0.00008323    0.00340488
     atom   58 type  6   force =     0.00219652    0.00034308    0.00047758
     The non-local contrib.  to forces
     atom    1 type  2   force =    -0.00047493    0.00024035   -0.00009022
     atom    2 type  2   force =     0.00036190   -0.00015393   -0.00019436
     atom    3 type  2   force =    -0.00388918   -0.00385178    0.00601806
     atom    4 type  2   force =    -0.00236558   -0.00004090    0.00308771
     atom    5 type  2   force =    -0.00055190    0.00926708    0.00836403
     atom    6 type  2   force =     0.00404898   -0.00045024    0.01270864
     atom    7 type  2   force =     0.00360332   -0.00282363    0.00572447
     atom    8 type  2   force =     0.00048385    0.00022372    0.00051797
     atom    9 type  2   force =     0.00018481    0.00102663    0.00331290
     atom   10 type  2   force =    -0.00362881    0.00165602    0.01381453
     atom   11 type  2   force =    -0.00040957   -0.00030034    0.01549915
     atom   12 type  2   force =     0.00589421   -0.00340790    0.00758026
     atom   13 type  2   force =    -0.00013030    0.00028540   -0.00031717
     atom   14 type  2   force =     0.00074552    0.00161487    0.00306975
     atom   15 type  2   force =    -0.00072536   -0.00209926    0.00704164
     atom   16 type  2   force =    -0.00286687   -0.00023124    0.00573908
     atom   17 type  1   force =     0.00083742    0.00127411   -0.27570072
     atom   18 type  1   force =     0.00429152    0.00240353   -0.27656616
     atom   19 type  1   force =     0.00095939    0.00009205   -0.27533463
     atom   20 type  1   force =    -0.00088239   -0.00063936   -0.27640703
     atom   21 type  1   force =    -0.00027454    0.00141646   -0.27545051
     atom   22 type  1   force =     0.01186307    0.02352274   -0.15673653
     atom   23 type  1   force =    -0.00179831   -0.00217322   -0.18670485
     atom   24 type  1   force =     0.00273496   -0.00128641   -0.27538481
     atom   25 type  1   force =     0.00010946   -0.00087082   -0.27674228
     atom   26 type  1   force =     0.00285690    0.00957236   -0.25651888
     atom   27 type  1   force =     0.01836534    0.00620983   -0.22555683
     atom   28 type  1   force =     0.01938158   -0.01738208   -0.19301051
     atom   29 type  1   force =     0.00089341   -0.00184386   -0.27490752
     atom   30 type  1   force =    -0.00195152    0.00125062   -0.27603406
     atom   31 type  1   force =    -0.02402167   -0.01160633   -0.21291468
     atom   32 type  1   force =    -0.00975089   -0.00791433   -0.24423055
     atom   33 type  1   force =    -0.00022992    0.00031046    0.27622384
     atom   34 type  1   force =     0.00171842    0.00243164    0.27672768
     atom   35 type  1   force =     0.00154127   -0.00049418    0.27627577
     atom   36 type  1   force =    -0.00083772   -0.00082703    0.27581062
     atom   37 type  1   force =     0.00033075    0.00197160    0.27561466
     atom   38 type  1   force =     0.00295686    0.00257588    0.27716636
     atom   39 type  1   force =     0.00247696    0.00066598    0.27704053
     atom   40 type  1   force =     0.00204847   -0.00163912    0.27530133
     atom   41 type  1   force =     0.00022032    0.00048302    0.27664806
     atom   42 type  1   force =    -0.00264247    0.00248007    0.27558983
     atom   43 type  1   force =    -0.00190952   -0.00055727    0.27974796
     atom   44 type  1   force =     0.00089590   -0.00429213    0.27701493
     atom   45 type  1   force =    -0.00063457   -0.00172421    0.27609873
     atom   46 type  1   force =    -0.00124611   -0.00047833    0.27627720
     atom   47 type  1   force =    -0.00343210   -0.00009020    0.27525059
     atom   48 type  1   force =    -0.00234709   -0.00164097    0.27540016
     atom   49 type  3   force =    -0.18383268    0.03167789   -0.06095184
     atom   50 type  3   force =    -0.00841658   -0.13022961   -0.07515571
     atom   51 type  3   force =     0.19393293   -0.01626388   -0.09547973
     atom   52 type  3   force =     0.01972726    0.14041495   -0.09317401
     atom   53 type  3   force =     0.02088806    0.02850476    0.14694737
     atom   54 type  4   force =    -0.88674401   -0.27655641    0.91360721
     atom   55 type  5   force =     1.90850639    0.55582471   -1.50559177
     atom   56 type  6   force =    -0.00668231   -0.07204292   -0.06511955
     atom   57 type  6   force =     0.01394860   -0.01459796    0.09787080
     atom   58 type  6   force =    -0.02959159    0.08343482   -0.04094435
     The ionic contribution  to forces
     atom    1 type  2   force =    -0.93951007   -0.19519091   -8.51191039
     atom    2 type  2   force =    -0.97088512   -1.15680982   -8.87911002
     atom    3 type  2   force =     1.92294480    0.65006349   -9.43929155
     atom    4 type  2   force =     1.76685151    1.72485189   -9.24161265
     atom    5 type  2   force =    -0.76060128   -3.39420981  -10.32572361
     atom    6 type  2   force =    -3.93486381   -3.11181658  -14.38120153
     atom    7 type  2   force =    -3.78959758    1.11516889  -12.06234039
     atom    8 type  2   force =    -0.45951819    0.22212415   -8.34383040
     atom    9 type  2   force =     1.12853337   -2.55087512  -10.29946024
     atom   10 type  2   force =     1.18885656   -3.57225122  -19.43254931
     atom   11 type  2   force =    -2.00204838    2.17462744  -20.50268409
     atom   12 type  2   force =    -1.90193628    2.98562206  -10.56660345
     atom   13 type  2   force =     0.53005842    0.57673704   -8.41965800
     atom   14 type  2   force =     3.83310004   -2.05749284  -11.86164893
     atom   15 type  2   force =     3.84769308    1.90235239  -17.31893776
     atom   16 type  2   force =     0.57165008    4.70811337  -12.98770754
     atom   17 type  1   force =    -0.14031711   -0.66137675   32.26077364
     atom   18 type  1   force =    -2.24162764   -1.69619358   31.29403286
     atom   19 type  1   force =    -1.12754444    0.05256972   31.69958035
     atom   20 type  1   force =     1.01190540    0.86372235   32.41911825
     atom   21 type  1   force =     0.17393650   -1.94642907   32.03438913
     atom   22 type  1   force =    -2.23841966   -5.30514083   25.62101965
     atom   23 type  1   force =    -4.76224868    0.06293057   24.69091288
     atom   24 type  1   force =    -2.11348609    1.73079881   31.40551936
     atom   25 type  1   force =    -0.02591606    0.43231714   32.25582734
     atom   26 type  1   force =     2.91808784   -4.06851654   28.41063971
     atom   27 type  1   force =     1.27431017   -0.00836533   20.49262088
     atom   28 type  1   force =    -2.26319655    5.24433014   26.48488042
     atom   29 type  1   force =     0.01968802    1.75702421   32.08056937
     atom   30 type  1   force =     1.12930257   -0.96836880   32.14877575
     atom   31 type  1   force =     4.85966139    0.33660152   28.22780307
     atom   32 type  1   force =     3.17881665    3.98431469   28.83883763
     atom   33 type  1   force =    -0.05131266   -0.12667912  -39.08006630
     atom   34 type  1   force =    -0.56958521   -0.42781488  -39.19366694
     atom   35 type  1   force =    -0.28914721   -0.04258848  -39.24744100
     atom   36 type  1   force =     0.27310958    0.22238422  -39.08992736
     atom   37 type  1   force =    -0.01844054   -0.48738096  -39.20274988
     atom   38 type  1   force =    -0.41746352   -0.93193377  -40.31576530
     atom   39 type  1   force =    -0.91020607   -0.05708193  -40.68652136
     atom   40 type  1   force =    -0.52232307    0.40391966  -39.34394890
     atom   41 type  1   force =     0.05826828    0.12833210  -39.16754552
     atom   42 type  1   force =     0.64052648   -0.72209841  -40.20949402
     atom   43 type  1   force =     0.29414836    0.05135033  -41.17807747
     atom   44 type  1   force =    -0.25874830    0.97346550  -40.32988246
     atom   45 type  1   force =     0.01555240    0.50336652  -39.10190037
     atom   46 type  1   force =     0.32803290   -0.23266764  -39.01136720
     atom   47 type  1   force =     0.88017066   -0.02484288  -39.93819548
     atom   48 type  1   force =     0.55141531    0.76670939  -40.07743172
     atom   49 type  3   force =   -21.28446228    3.68343705   58.89142298
     atom   50 type  3   force =    -1.58141855  -20.68752542   58.07540495
     atom   51 type  3   force =    21.72271918   -2.58696427   61.19305884
     atom   52 type  3   force =     2.76298699   20.98400087   58.83807659
     atom   53 type  3   force =     7.94560201    2.08001316   63.33690635
     atom   54 type  4   force =     4.63313914    0.06049035   20.63082922
     atom   55 type  5   force =   -13.51443094   -2.96482662   24.82107056
     atom   56 type  6   force =     0.54811317    2.66402150    5.39737677
     atom   57 type  6   force =    -2.31216979    0.17089615    1.37195992
     atom   58 type  6   force =     1.39224421   -3.23121508    4.82684462
     The local contribution  to forces
     atom    1 type  2   force =     0.93958207    0.19533147    8.51183655
     atom    2 type  2   force =     0.97037965    1.15645466    8.87918556
     atom    3 type  2   force =    -1.91965277   -0.64700809    9.43400149
     atom    4 type  2   force =    -1.76459615   -1.72441264    9.23887503
     atom    5 type  2   force =     0.76074606    3.38477328   10.31700558
     atom    6 type  2   force =     3.93006422    3.11083140   14.36609056
     atom    7 type  2   force =     3.78469410   -1.11203616   12.05501676
     atom    8 type  2   force =     0.45912431   -0.22236504    8.34377475
     atom    9 type  2   force =    -1.12868304    2.54928037   10.29567708
     atom   10 type  2   force =    -1.18500463    3.57114389   19.41582450
     atom   11 type  2   force =     2.00318132   -2.17394042   20.48223377
     atom   12 type  2   force =     1.89624473   -2.98199366   10.55863431
     atom   13 type  2   force =    -0.52983819   -0.57658400    8.41978637
     atom   14 type  2   force =    -3.83221702    2.05565647   11.85646700
     atom   15 type  2   force =    -3.84642415   -1.90023064   17.30732231
     atom   16 type  2   force =    -0.56912662   -4.70641319   12.97964710
     atom   17 type  1   force =     0.13935693    0.66004036  -31.98648169
     atom   18 type  1   force =     2.23663964    1.69310524  -31.01937348
     atom   19 type  1   force =     1.12618342   -0.05248857  -31.42590308
     atom   20 type  1   force =    -1.01053486   -0.86279950  -32.14417084
     atom   21 type  1   force =    -0.17364222    1.94440669  -31.76034972
     atom   22 type  1   force =     2.22644774    5.28089148  -25.46410930
     atom   23 type  1   force =     4.76260218   -0.06079028  -24.50383006
     atom   24 type  1   force =     2.11017838   -1.72895056  -31.13191427
     atom   25 type  1   force =     0.02567726   -0.43134622  -31.98045210
     atom   26 type  1   force =    -2.92106524    4.05935282  -28.15414793
     atom   27 type  1   force =    -1.29122523    0.00186240  -20.26548644
     atom   28 type  1   force =     2.24406408   -5.22630300  -26.29208722
     atom   29 type  1   force =    -0.02053011   -1.75479434  -31.80722131
     atom   30 type  1   force =    -1.12707100    0.96682419  -31.87411685
     atom   31 type  1   force =    -4.83590318   -0.32549265  -28.01444399
     atom   32 type  1   force =    -3.16958534   -3.97594345  -28.59496033
     atom   33 type  1   force =     0.05153479    0.12641018   38.80466100
     atom   34 type  1   force =     0.56788185    0.42549832   38.91798624
     atom   35 type  1   force =     0.28763691    0.04304590   38.97209534
     atom   36 type  1   force =    -0.27233738   -0.22163582   38.81514400
     atom   37 type  1   force =     0.01801136    0.48550662   38.92797513
     atom   38 type  1   force =     0.41458567    0.92917401   40.03938827
     atom   39 type  1   force =     0.90782223    0.05643849   40.41029389
     atom   40 type  1   force =     0.52048035   -0.40233180   39.06966549
     atom   41 type  1   force =    -0.05856740   -0.12873517   38.89195395
     atom   42 type  1   force =    -0.63780753    0.71968257   39.93471353
     atom   43 type  1   force =    -0.29249695   -0.05078237   40.89924768
     atom   44 type  1   force =     0.25778365   -0.96906552   40.05330373
     atom   45 type  1   force =    -0.01503413   -0.50169551   38.82684505
     atom   46 type  1   force =    -0.32681856    0.23316134   38.73593940
     atom   47 type  1   force =    -0.87682486    0.02472553   39.66357245
     atom   48 type  1   force =    -0.54909299   -0.76500289   39.80295583
     atom   49 type  3   force =    21.46579876   -3.71395002  -58.81970737
     atom   50 type  3   force =     1.59339306   20.81667713  -57.99044753
     atom   51 type  3   force =   -21.91376652    2.60169521  -61.09069326
     atom   52 type  3   force =    -2.77948531  -21.12191514  -58.73601262
     atom   53 type  3   force =    -7.96459330   -2.10709320  -63.47811686
     atom   54 type  4   force =    -3.74926202    0.21251347  -21.52920490
     atom   55 type  5   force =    11.60225998    2.41203802  -23.33220107
     atom   56 type  6   force =    -0.53944346   -2.59155008   -5.33260859
     atom   57 type  6   force =     2.30140111   -0.15624146   -1.46650672
     atom   58 type  6   force =    -1.36055989    3.14834136   -4.78555787
     The core correction contribution to forces
     atom    1 type  2   force =     0.00025968   -0.00048954   -0.00037520
     atom    2 type  2   force =    -0.00015535    0.00035566   -0.00024276
     atom    3 type  2   force =     0.00079866    0.00078264   -0.00149991
     atom    4 type  2   force =     0.00075025    0.00026173   -0.00095090
     atom    5 type  2   force =     0.00020951   -0.00077863   -0.00060663
     atom    6 type  2   force =    -0.00028733    0.00077022   -0.00009513
     atom    7 type  2   force =     0.00051117   -0.00013783    0.00031892
     atom    8 type  2   force =    -0.00002355    0.00012242   -0.00061754
     atom    9 type  2   force =     0.00000879   -0.00005662   -0.00027205
     atom   10 type  2   force =    -0.00007314   -0.00142680    0.00039469
     atom   11 type  2   force =    -0.00121537    0.00051096    0.00110380
     atom   12 type  2   force =    -0.00068030    0.00050158   -0.00079351
     atom   13 type  2   force =    -0.00018194   -0.00017953   -0.00006066
     atom   14 type  2   force =    -0.00063505   -0.00026439    0.00047190
     atom   15 type  2   force =     0.00047340    0.00032416    0.00113410
     atom   16 type  2   force =     0.00025889   -0.00056041    0.00045783
     atom   17 type  1   force =    -0.00005238   -0.00000727    0.00196443
     atom   18 type  1   force =    -0.00015898   -0.00008385    0.00203929
     atom   19 type  1   force =    -0.00004857   -0.00005473    0.00197233
     atom   20 type  1   force =    -0.00000392    0.00000147    0.00199029
     atom   21 type  1   force =    -0.00003841   -0.00003571    0.00197238
     atom   22 type  1   force =    -0.00009424   -0.00041779   -0.00040186
     atom   23 type  1   force =     0.00005083    0.00007021   -0.00004152
     atom   24 type  1   force =    -0.00006706    0.00004268    0.00198152
     atom   25 type  1   force =     0.00005172    0.00002272    0.00198620
     atom   26 type  1   force =    -0.00002123   -0.00024361    0.00143010
     atom   27 type  1   force =    -0.00046597   -0.00005952    0.00111719
     atom   28 type  1   force =    -0.00030307    0.00037626    0.00019845
     atom   29 type  1   force =    -0.00002127    0.00009995    0.00197917
     atom   30 type  1   force =     0.00007956   -0.00003682    0.00200929
     atom   31 type  1   force =     0.00052340    0.00026188    0.00064055
     atom   32 type  1   force =     0.00016353    0.00019771    0.00123060
     atom   33 type  1   force =     0.00001676   -0.00000369   -0.00193198
     atom   34 type  1   force =    -0.00003149   -0.00005381   -0.00198897
     atom   35 type  1   force =     0.00000264    0.00003604   -0.00193377
     atom   36 type  1   force =     0.00001947    0.00002521   -0.00191728
     atom   37 type  1   force =     0.00000513   -0.00004340   -0.00192637
     atom   38 type  1   force =     0.00001027    0.00001126   -0.00197480
     atom   39 type  1   force =     0.00002975    0.00002707   -0.00198082
     atom   40 type  1   force =    -0.00005799    0.00000889   -0.00192218
     atom   41 type  1   force =    -0.00003619   -0.00001292   -0.00194784
     atom   42 type  1   force =    -0.00002441   -0.00003910   -0.00193321
     atom   43 type  1   force =     0.00000216   -0.00001123   -0.00220895
     atom   44 type  1   force =    -0.00002608    0.00001932   -0.00198806
     atom   45 type  1   force =     0.00001192    0.00001600   -0.00195957
     atom   46 type  1   force =     0.00003333    0.00000919   -0.00196695
     atom   47 type  1   force =     0.00005002    0.00003149   -0.00190543
     atom   48 type  1   force =     0.00002348    0.00000574   -0.00189394
     atom   49 type  3   force =     0.00424610   -0.00133166   -0.00311081
     atom   50 type  3   force =    -0.00145136    0.00369780   -0.00371675
     atom   51 type  3   force =    -0.00463669    0.00092571   -0.00153485
     atom   52 type  3   force =    -0.00175600   -0.00488649   -0.00188635
     atom   53 type  3   force =    -0.00270292   -0.00114182   -0.00363941
     atom   54 type  4   force =     0.01812249    0.00455929   -0.01194264
     atom   55 type  5   force =    -0.01858292   -0.00494268    0.01192010
     atom   56 type  6   force =     0.00000000    0.00000000    0.00000000
     atom   57 type  6   force =     0.00000000    0.00000000    0.00000000
     atom   58 type  6   force =     0.00000000    0.00000000    0.00000000
     The Hubbard contrib.    to forces
     atom    1 type  2   force =     0.00000000    0.00000000    0.00000000
     atom    2 type  2   force =     0.00000000    0.00000000    0.00000000
     atom    3 type  2   force =     0.00000000    0.00000000    0.00000000
     atom    4 type  2   force =     0.00000000    0.00000000    0.00000000
     atom    5 type  2   force =     0.00000000    0.00000000    0.00000000
     atom    6 type  2   force =     0.00000000    0.00000000    0.00000000
     atom    7 type  2   force =     0.00000000    0.00000000    0.00000000
     atom    8 type  2   force =     0.00000000    0.00000000    0.00000000
     atom    9 type  2   force =     0.00000000    0.00000000    0.00000000
     atom   10 type  2   force =     0.00000000    0.00000000    0.00000000
     atom   11 type  2   force =     0.00000000    0.00000000    0.00000000
     atom   12 type  2   force =     0.00000000    0.00000000    0.00000000
     atom   13 type  2   force =     0.00000000    0.00000000    0.00000000
     atom   14 type  2   force =     0.00000000    0.00000000    0.00000000
     atom   15 type  2   force =     0.00000000    0.00000000    0.00000000
     atom   16 type  2   force =     0.00000000    0.00000000    0.00000000
     atom   17 type  1   force =     0.00000000    0.00000000    0.00000000
     atom   18 type  1   force =     0.00000000    0.00000000    0.00000000
     atom   19 type  1   force =     0.00000000    0.00000000    0.00000000
     atom   20 type  1   force =     0.00000000    0.00000000    0.00000000
     atom   21 type  1   force =     0.00000000    0.00000000    0.00000000
     atom   22 type  1   force =     0.00000000    0.00000000    0.00000000
     atom   23 type  1   force =     0.00000000    0.00000000    0.00000000
     atom   24 type  1   force =     0.00000000    0.00000000    0.00000000
     atom   25 type  1   force =     0.00000000    0.00000000    0.00000000
     atom   26 type  1   force =     0.00000000    0.00000000    0.00000000
     atom   27 type  1   force =     0.00000000    0.00000000    0.00000000
     atom   28 type  1   force =     0.00000000    0.00000000    0.00000000
     atom   29 type  1   force =     0.00000000    0.00000000    0.00000000
     atom   30 type  1   force =     0.00000000    0.00000000    0.00000000
     atom   31 type  1   force =     0.00000000    0.00000000    0.00000000
     atom   32 type  1   force =     0.00000000    0.00000000    0.00000000
     atom   33 type  1   force =     0.00000000    0.00000000    0.00000000
     atom   34 type  1   force =     0.00000000    0.00000000    0.00000000
     atom   35 type  1   force =     0.00000000    0.00000000    0.00000000
     atom   36 type  1   force =     0.00000000    0.00000000    0.00000000
     atom   37 type  1   force =     0.00000000    0.00000000    0.00000000
     atom   38 type  1   force =     0.00000000    0.00000000    0.00000000
     atom   39 type  1   force =     0.00000000    0.00000000    0.00000000
     atom   40 type  1   force =     0.00000000    0.00000000    0.00000000
     atom   41 type  1   force =     0.00000000    0.00000000    0.00000000
     atom   42 type  1   force =     0.00000000    0.00000000    0.00000000
     atom   43 type  1   force =     0.00000000    0.00000000    0.00000000
     atom   44 type  1   force =     0.00000000    0.00000000    0.00000000
     atom   45 type  1   force =     0.00000000    0.00000000    0.00000000
     atom   46 type  1   force =     0.00000000    0.00000000    0.00000000
     atom   47 type  1   force =     0.00000000    0.00000000    0.00000000
     atom   48 type  1   force =     0.00000000    0.00000000    0.00000000
     atom   49 type  3   force =     0.00000000    0.00000000    0.00000000
     atom   50 type  3   force =     0.00000000    0.00000000    0.00000000
     atom   51 type  3   force =     0.00000000    0.00000000    0.00000000
     atom   52 type  3   force =     0.00000000    0.00000000    0.00000000
     atom   53 type  3   force =     0.00000000    0.00000000    0.00000000
     atom   54 type  4   force =     0.00000000    0.00000000    0.00000000
     atom   55 type  5   force =     0.00000000    0.00000000    0.00000000
     atom   56 type  6   force =     0.00000000    0.00000000    0.00000000
     atom   57 type  6   force =     0.00000000    0.00000000    0.00000000
     atom   58 type  6   force =     0.00000000    0.00000000    0.00000000
     The SCF correction term to forces
     atom    1 type  2   force =    -0.00000236    0.00000231   -0.00000207
     atom    2 type  2   force =    -0.00000241    0.00000257   -0.00000126
     atom    3 type  2   force =     0.00000147   -0.00000168   -0.00000015
     atom    4 type  2   force =     0.00000260   -0.00000342   -0.00000093
     atom    5 type  2   force =     0.00000329   -0.00000059   -0.00000109
     atom    6 type  2   force =    -0.00000181    0.00000268   -0.00000108
     atom    7 type  2   force =    -0.00000305    0.00000002   -0.00000091
     atom    8 type  2   force =     0.00000087   -0.00000274   -0.00000114
     atom    9 type  2   force =    -0.00000019    0.00000121   -0.00000081
     atom   10 type  2   force =     0.00000304    0.00000079    0.00000043
     atom   11 type  2   force =    -0.00000109   -0.00000093   -0.00000070
     atom   12 type  2   force =    -0.00000303   -0.00000132   -0.00000149
     atom   13 type  2   force =    -0.00000097    0.00000395   -0.00000175
     atom   14 type  2   force =     0.00000169    0.00000142   -0.00000032
     atom   15 type  2   force =     0.00000260   -0.00000294   -0.00000025
     atom   16 type  2   force =    -0.00000066   -0.00000101   -0.00000198
     atom   17 type  1   force =     0.00000026   -0.00000072    0.00000099
     atom   18 type  1   force =    -0.00000161    0.00000148   -0.00000041
     atom   19 type  1   force =    -0.00000081   -0.00000056   -0.00000128
     atom   20 type  1   force =     0.00000064   -0.00000126   -0.00000037
     atom   21 type  1   force =     0.00000106   -0.00000039    0.00000011
     atom   22 type  1   force =     0.00000184    0.00000146    0.00000012
     atom   23 type  1   force =    -0.00000039    0.00000035    0.00000005
     atom   24 type  1   force =    -0.00000079   -0.00000038   -0.00000059
     atom   25 type  1   force =    -0.00000090    0.00000057   -0.00000034
     atom   26 type  1   force =    -0.00000047    0.00000113   -0.00000110
     atom   27 type  1   force =     0.00000067   -0.00000162   -0.00000007
     atom   28 type  1   force =    -0.00000082   -0.00000084    0.00000038
     atom   29 type  1   force =    -0.00000044    0.00000102    0.00000039
     atom   30 type  1   force =     0.00000016    0.00000163   -0.00000126
     atom   31 type  1   force =     0.00000056   -0.00000059   -0.00000020
     atom   32 type  1   force =     0.00000094   -0.00000140    0.00000083
     atom   33 type  1   force =    -0.00000001   -0.00000066   -0.00000161
     atom   34 type  1   force =    -0.00000168    0.00000125   -0.00000020
     atom   35 type  1   force =    -0.00000053   -0.00000047    0.00000081
     atom   36 type  1   force =     0.00000065   -0.00000104   -0.00000008
     atom   37 type  1   force =     0.00000100   -0.00000059   -0.00000057
     atom   38 type  1   force =     0.00000141    0.00000131   -0.00000078
     atom   39 type  1   force =    -0.00000054    0.00000053   -0.00000070
     atom   40 type  1   force =    -0.00000052   -0.00000036   -0.00000012
     atom   41 type  1   force =    -0.00000053    0.00000027   -0.00000019
     atom   42 type  1   force =    -0.00000031    0.00000081    0.00000091
     atom   43 type  1   force =     0.00000025   -0.00000133   -0.00000011
     atom   44 type  1   force =    -0.00000086   -0.00000049   -0.00000105
     atom   45 type  1   force =    -0.00000045    0.00000093   -0.00000114
     atom   46 type  1   force =     0.00000050    0.00000126    0.00000089
     atom   47 type  1   force =     0.00000092   -0.00000032    0.00000032
     atom   48 type  1   force =     0.00000072   -0.00000078   -0.00000128
     atom   49 type  3   force =    -0.00000017   -0.00000010   -0.00000079
     atom   50 type  3   force =     0.00000115    0.00000045   -0.00000075
     atom   51 type  3   force =     0.00000146   -0.00000048   -0.00000068
     atom   52 type  3   force =     0.00000082   -0.00000041   -0.00000038
     atom   53 type  3   force =     0.00000123   -0.00000042    0.00000063
     atom   54 type  4   force =     0.00000007   -0.00000012    0.00000045
     atom   55 type  5   force =     0.00000051   -0.00000008    0.00000084
     atom   56 type  6   force =     0.00000000   -0.00000001    0.00000008
     atom   57 type  6   force =     0.00000002    0.00000001    0.00000003
     atom   58 type  6   force =     0.00000001   -0.00000001    0.00000007

     DFT-D3 dispersion contribution to forces:
     atom    1 type  2   force =     0.00014030    0.00003169    0.00039726
     atom    2 type  2   force =     0.00011260    0.00016976    0.00049313
     atom    3 type  2   force =    -0.00045774   -0.00014015    0.00073667
     atom    4 type  2   force =    -0.00035297   -0.00038083    0.00063736
     atom    5 type  2   force =     0.00018455    0.00071943    0.00098283
     atom    6 type  2   force =     0.00101635    0.00070834    0.00248500
     atom    7 type  2   force =     0.00083703   -0.00018965    0.00138814
     atom    8 type  2   force =     0.00007452   -0.00002448    0.00022411
     atom    9 type  2   force =    -0.00025652    0.00054451    0.00078166
     atom   10 type  2   force =    -0.00005516    0.00100398    0.00259842
     atom   11 type  2   force =     0.00046686   -0.00069245    0.00379147
     atom   12 type  2   force =     0.00046896   -0.00064419    0.00104804
     atom   13 type  2   force =    -0.00004337   -0.00010702    0.00032928
     atom   14 type  2   force =    -0.00088235    0.00050356    0.00164642
     atom   15 type  2   force =    -0.00104026   -0.00052511    0.00341126
     atom   16 type  2   force =    -0.00015261   -0.00106691    0.00182871
     atom   17 type  1   force =     0.00008280    0.00024614   -0.00058045
     atom   18 type  1   force =     0.00080071    0.00058356   -0.00020468
     atom   19 type  1   force =     0.00034069   -0.00000720   -0.00034478
     atom   20 type  1   force =    -0.00035859   -0.00030556   -0.00058909
     atom   21 type  1   force =    -0.00006592    0.00064880   -0.00050850
     atom   22 type  1   force =     0.00016661    0.00115437   -0.00009419
     atom   23 type  1   force =     0.00134315   -0.00001088   -0.00027707
     atom   24 type  1   force =     0.00076528   -0.00060199   -0.00019091
     atom   25 type  1   force =     0.00005611   -0.00016156   -0.00059738
     atom   26 type  1   force =     0.00019349   -0.00024352   -0.00148283
     atom   27 type  1   force =    -0.00090465    0.00042984   -0.00274585
     atom   28 type  1   force =    -0.00021976   -0.00099883   -0.00033722
     atom   29 type  1   force =    -0.00005000   -0.00061176   -0.00054837
     atom   30 type  1   force =    -0.00043461    0.00032399   -0.00054745
     atom   31 type  1   force =    -0.00045834    0.00017237   -0.00112742
     atom   32 type  1   force =     0.00060184   -0.00057233   -0.00103944
     atom   33 type  1   force =     0.00001542    0.00001594    0.00095744
     atom   34 type  1   force =     0.00002742    0.00000324    0.00098754
     atom   35 type  1   force =    -0.00000981    0.00000172    0.00096886
     atom   36 type  1   force =     0.00001033    0.00001019    0.00093951
     atom   37 type  1   force =    -0.00001751   -0.00003641    0.00096603
     atom   38 type  1   force =     0.00000253    0.00001106    0.00119945
     atom   39 type  1   force =     0.00002159   -0.00001393    0.00120935
     atom   40 type  1   force =    -0.00003531    0.00001516    0.00097713
     atom   41 type  1   force =    -0.00000308   -0.00001634    0.00095926
     atom   42 type  1   force =    -0.00000789    0.00003142    0.00112346
     atom   43 type  1   force =     0.00000901    0.00001039    0.00143328
     atom   44 type  1   force =     0.00001666   -0.00002403    0.00118959
     atom   45 type  1   force =     0.00000591   -0.00000586    0.00097140
     atom   46 type  1   force =     0.00000648    0.00001492    0.00096224
     atom   47 type  1   force =    -0.00001250    0.00000469    0.00111201
     atom   48 type  1   force =    -0.00002887   -0.00002272    0.00111744
     atom   49 type  3   force =    -0.00085869    0.00011977   -0.00785556
     atom   50 type  3   force =    -0.00241158   -0.00340129   -0.00547838
     atom   51 type  3   force =     0.00139098    0.00051090   -0.00557096
     atom   52 type  3   force =    -0.00097628    0.00272273   -0.00646945
     atom   53 type  3   force =     0.00122610    0.00019519   -0.00199502
     atom   54 type  4   force =     0.00010074    0.00007732   -0.00074302
     atom   55 type  5   force =    -0.00032974    0.00004805   -0.00094738
     atom   56 type  6   force =     0.00004591    0.00012761    0.00020540
     atom   57 type  6   force =    -0.00021043   -0.00013879    0.00008099
     atom   58 type  6   force =     0.00010361   -0.00021684    0.00013524

     Total force =     0.028721     Total SCF correction =     0.000016

     DFT-D3 dispersion Force =     0.017435


     Computing stress (Cartesian axis) and pressure


     negative rho (up, down):  4.797E-03 5.165E-03
          total   stress  (Ry/bohr**3)                   (kbar)     P=       -1.36
  -0.00000748  -0.00000055   0.00000082           -1.10       -0.08        0.12
  -0.00000055  -0.00000940   0.00000017           -0.08       -1.38        0.02
   0.00000082   0.00000017  -0.00001082            0.12        0.02       -1.59

     kinetic stress (kbar)   7256.72     -1.11     -9.65
                               -1.11   7273.10     -0.32
                               -9.65     -0.32   7301.79

     local   stress (kbar)-135462.39    -64.25    516.91
                              -64.25-134009.69    220.41
                              516.91    220.41 134094.35

     nonloc. stress (kbar)  -1419.37     -0.13      0.29
                               -0.13  -1420.51      0.32
                                0.29      0.32  -1427.35

     hartree stress (kbar)  68217.20     29.54   -248.50
                               29.54  67562.65   -103.09
                             -248.50   -103.09 -63298.15

     exc-cor stress (kbar)   2000.73      0.01      0.01
                                0.01   2000.30     -0.04
                                0.01     -0.04   2000.25

     corecor stress (kbar)  -3626.56      0.04      0.05
                                0.04  -3626.83      0.01
                                0.05      0.01  -3627.24

     ewald   stress (kbar)  63036.83     35.81   -258.95
                               35.81  62223.82   -117.26
                             -258.95   -117.26 -75042.69

     hubbard stress (kbar)      0.00      0.00      0.00
                                0.00      0.00      0.00
                                0.00      0.00      0.00

     DFT-D   stress (kbar)     -4.26      0.03     -0.04
                                0.03     -4.22      0.01
                               -0.04      0.01     -2.55

     XDM     stress (kbar)      0.00      0.00      0.00
                                0.00      0.00      0.00
                                0.00      0.00      0.00

     dft-nl  stress (kbar)      0.00      0.00      0.00
                                0.00      0.00      0.00
                                0.00      0.00      0.00

     TS-vdW  stress (kbar)      0.00      0.00      0.00
                                0.00      0.00      0.00
                                0.00      0.00      0.00

     MDB     stress (kbar)      0.00      0.00      0.00
                                0.00      0.00      0.00
                                0.00      0.00      0.00

     3D-RISM stress (kbar)      0.00      0.00      0.00
                                0.00      0.00      0.00
                                0.00      0.00      0.00


     Writing all to output data dir ./Ag-WS2-H2NOH.save/ :
     XML data file, charge density, pseudopotentials, collected wavefunctions

     init_run     :    179.86s CPU    183.75s WALL (       1 calls)
     electrons    :  12397.20s CPU  12633.64s WALL (       1 calls)
     forces       :     44.58s CPU     46.35s WALL (       1 calls)
     force_dftd3  :      0.15s CPU      0.17s WALL (       1 calls)
     stress       :    163.96s CPU    168.67s WALL (       1 calls)
     stres_dftd3  :      0.14s CPU      0.16s WALL (       1 calls)

     Called by init_run:
     wfcinit      :    171.85s CPU    175.06s WALL (       1 calls)
     wfcinit:atom :      0.72s CPU      0.74s WALL (      26 calls)
     wfcinit:wfcr :    167.47s CPU    170.56s WALL (      26 calls)
     potinit      :      2.76s CPU      2.90s WALL (       1 calls)
     hinit0       :      1.69s CPU      1.79s WALL (       1 calls)

     Called by electrons:
     c_bands      :  10679.33s CPU  10864.56s WALL (      35 calls)
     sum_band     :   1595.33s CPU   1632.89s WALL (      35 calls)
     v_of_rho     :     20.51s CPU     21.73s WALL (      35 calls)
     v_h          :      0.94s CPU      1.05s WALL (      35 calls)
     v_xc         :     20.67s CPU     21.85s WALL (      37 calls)
     newd         :     57.77s CPU     68.99s WALL (      35 calls)
     PAW_pot      :     38.86s CPU     39.33s WALL (      35 calls)
     mix_rho      :      5.47s CPU      5.83s WALL (      35 calls)
     energy_dftd3 :      0.06s CPU      0.06s WALL (       1 calls)

     Called by c_bands:
     init_us_2    :    127.31s CPU    130.49s WALL (    1898 calls)
     cegterg      :  10511.85s CPU  10693.68s WALL (     910 calls)

     Called by sum_band:
     sum_band:wei :      0.01s CPU      0.01s WALL (      35 calls)
     sum_band:loo :   1487.76s CPU   1511.93s WALL (      35 calls)
     sum_band:buf :     11.13s CPU     11.39s WALL (     910 calls)
     sum_band:ini :     60.83s CPU     62.26s WALL (     910 calls)
     sum_band:cal :    311.95s CPU    321.07s WALL (     910 calls)
     sum_band:bec :      3.80s CPU      3.86s WALL (     910 calls)
     addusdens    :    103.91s CPU    117.11s WALL (      35 calls)
                                        0.00s GPU  (      35 calls)
     addusd:skk   :      1.58s CPU      1.69s WALL (     210 calls)
                                        0.00s GPU  (     210 calls)

     Called by *egterg:
     cdiaghg      :    534.57s CPU    555.48s WALL (    6114 calls)
     cegterg:over :    570.11s CPU    583.53s WALL (    5230 calls)
     cegterg:upda :    259.67s CPU    264.51s WALL (    5230 calls)
     cegterg:last :    500.09s CPU    508.95s WALL (    1839 calls)
     cdiaghg:chol :     44.74s CPU     45.11s WALL (    6114 calls)
     cdiaghg:inve :      7.83s CPU      7.92s WALL (    6114 calls)
     cdiaghg:para :    151.83s CPU    163.51s WALL (   12228 calls)
     h_psi        :   7902.00s CPU   8018.64s WALL (    6166 calls)
     s_psi        :    705.51s CPU    713.75s WALL (    6166 calls)
     g_psi        :     10.02s CPU     10.34s WALL (    5230 calls)

     Called by h_psi:
     h_psi:calbec :    946.22s CPU    971.52s WALL (    6166 calls)
     vloc_psi     :   6218.86s CPU   6298.90s WALL (    6166 calls)
     add_vuspsi   :    708.53s CPU    717.65s WALL (    6166 calls)

     General routines
     calbec       :   1407.68s CPU   1446.58s WALL (    7518 calls)
     fft          :     21.30s CPU     23.05s WALL (     915 calls)
     ffts         :      1.88s CPU      2.00s WALL (     140 calls)
     fftw         :   6754.61s CPU   6832.45s WALL ( 1324890 calls)
     interpolate  :      3.02s CPU      3.20s WALL (      70 calls)

     Parallel routines

     PAW routines
     PAW_pot      :     38.86s CPU     39.33s WALL (      35 calls)

     PWSCF        :  12797.23s CPU  13085.61s WALL


   This run was terminated on:   2:52:50   1Aug2026            

=------------------------------------------------------------------------------=
   JOB DONE.
=------------------------------------------------------------------------------=
