
     Program PWSCF v.7.4.1 starts on 31Jul2026 at 14:45:26 

     This program is part of the open-source Quantum ESPRESSO suite
     for quantum simulation of materials; please cite
         "P. Giannozzi et al., J. Phys.:Condens. Matter 21 395502 (2009);
         "P. Giannozzi et al., J. Phys.:Condens. Matter 29 465901 (2017);
         "P. Giannozzi et al., J. Chem. Phys. 152 154105 (2020);
          URL http://www.quantum-espresso.org", 
     in publications or presentations arising from this work. More details at
     http://www.quantum-espresso.org/quote

     Parallel version (MPI & OpenMP), running on      64 processor cores
     Number of MPI processes:                64
     Threads/MPI process:                     1

     MPI processes distributed on     1 nodes
     125520 MiB available memory on the printing compute node when the environment starts

     Reading input from disp_002_atom54_-1x.in

     Current dimensions of program PWSCF are:
     Max number of different atomic species (ntypx) = 10
     Max number of k-points (npk) =  40000
     Max angular momentum in pseudopotentials (lmaxx) =  4
     file S.pbe-n-kjpaw_psl.1.0.0.UPF: wavefunction(s)  3S 3P renormalized
     file W.pbe-spn-kjpaw_psl.1.0.0.UPF: wavefunction(s)  6S 5P 5D renormalized
     file Ag.pbe-n-kjpaw_psl.1.0.0.UPF: wavefunction(s)  5S 5P renormalized
     file N.pbe-n-kjpaw_psl.1.0.0.UPF: wavefunction(s)  2S renormalized
     file O.pbe-n-kjpaw_psl.1.0.0.UPF: wavefunction(s)  2S 2P renormalized
     file H.pbe-kjpaw_psl.1.0.0.UPF: wavefunction(s)  1S renormalized
     Message from routine setup:
     the system is metallic, specify occupations

     R & G space division:  proc/nbgrp/npool/nimage =      64
     Subspace diagonalization in iterative solution of the eigenvalue problem:
     one sub-group per band group will be used
     ELPA distributed-memory algorithm (size of sub-group:  2*  2 procs)


     Parallelization info
     --------------------
     sticks:   dense  smooth     PW     G-vecs:    dense   smooth      PW
     Min         247     123     32                39673    14017    1874
     Max         248     124     33                39680    14030    1885
     Sum       15841    7909   2065              2539249   897387  120111

     Using Slab Decomposition



     bravais-lattice index     =            0
     lattice parameter (alat)  =      23.9624  a.u.
     unit-cell volume          =   18794.0729 (a.u.)^3
     number of atoms/cell      =           58
     number of atomic types    =            6
     number of electrons       =       485.00 (up: 243.00, down: 242.00)
     number of Kohn-Sham states=          243
     kinetic-energy cutoff     =      50.0000  Ry
     charge density cutoff     =     400.0000  Ry
     scf convergence threshold =      1.0E-10
     mixing beta               =       0.4000
     number of iterations used =            8  plain     mixing
     Exchange-correlation= SLA  PW   PBX  PBC
                           (   1   4   3   4   0   0   0)

     celldm(1)=  23.962422  celldm(2)=   0.000000  celldm(3)=   0.000000
     celldm(4)=   0.000000  celldm(5)=   0.000000  celldm(6)=   0.000000

     crystal axes: (cart. coord. in units of alat)
               a(1) = (   1.000000   0.000000   0.000000 )  
               a(2) = (  -0.500000   0.866025   0.000000 )  
               a(3) = (   0.000000   0.000000   1.577241 )  

     reciprocal axes: (cart. coord. in units 2 pi/alat)
               b(1) = (  1.000000  0.577350 -0.000000 )  
               b(2) = (  0.000000  1.154701  0.000000 )  
               b(3) = (  0.000000 -0.000000  0.634018 )  


     PseudoPot. # 1 for S  read from file:
     /share/work_r640/fmigm008/pseudo/S.pbe-n-kjpaw_psl.1.0.0.UPF
     MD5 check sum: fb45dfebcf3e72a4e1bd4a866ec2e262
     Pseudo is Projector augmented-wave + core cor, Zval =  6.0
     Generated using &quot;atomic&quot; code by A. Dal Corso  v.6.3
     Shape of augmentation charge: PSQ
     Using radial grid of 1151 points,  6 beta functions with: 
                l(1) =   0
                l(2) =   0
                l(3) =   1
                l(4) =   1
                l(5) =   2
                l(6) =   2
     Q(r) pseudized with 0 coefficients 


     PseudoPot. # 2 for W  read from file:
     /share/work_r640/fmigm008/pseudo/W.pbe-spn-kjpaw_psl.1.0.0.UPF
     MD5 check sum: 03c3df5b60893f488392c7401945500a
     Pseudo is Projector augmented-wave + core cor, Zval = 14.0
     Generated using &quot;atomic&quot; code by A. Dal Corso  v.6.2.2
     Shape of augmentation charge: PSQ
     Using radial grid of 1273 points,  6 beta functions with: 
                l(1) =   0
                l(2) =   0
                l(3) =   1
                l(4) =   1
                l(5) =   2
                l(6) =   2
     Q(r) pseudized with 0 coefficients 


     PseudoPot. # 3 for Ag read from file:
     /share/work_r640/fmigm008/pseudo/Ag.pbe-n-kjpaw_psl.1.0.0.UPF
     MD5 check sum: 51099775af2a3182a6a1caffb86952a3
     Pseudo is Projector augmented-wave + core cor, Zval = 11.0
     Generated using &quot;atomic&quot; code by A. Dal Corso  v.6.2.2
     Shape of augmentation charge: PSQ
     Using radial grid of 1237 points,  6 beta functions with: 
                l(1) =   0
                l(2) =   0
                l(3) =   1
                l(4) =   1
                l(5) =   2
                l(6) =   2
     Q(r) pseudized with 0 coefficients 


     PseudoPot. # 4 for N  read from file:
     /share/work_r640/fmigm008/pseudo/N.pbe-n-kjpaw_psl.1.0.0.UPF
     MD5 check sum: 14c48229446f9f2d411169a3abcbc3fa
     Pseudo is Projector augmented-wave + core cor, Zval =  5.0
     Generated using &quot;atomic&quot; code by A. Dal Corso  v.6.3
     Shape of augmentation charge: PSQ
     Using radial grid of 1085 points,  4 beta functions with: 
                l(1) =   0
                l(2) =   0
                l(3) =   1
                l(4) =   1
     Q(r) pseudized with 0 coefficients 


     PseudoPot. # 5 for O  read from file:
     /share/work_r640/fmigm008/pseudo/O.pbe-n-kjpaw_psl.1.0.0.UPF
     MD5 check sum: e99d9cef9b487d1ca56f5b95ecd0fd7a
     Pseudo is Projector augmented-wave + core cor, Zval =  6.0
     Generated using &quot;atomic&quot; code by A. Dal Corso  v.6.3
     Shape of augmentation charge: PSQ
     Using radial grid of 1095 points,  4 beta functions with: 
                l(1) =   0
                l(2) =   0
                l(3) =   1
                l(4) =   1
     Q(r) pseudized with 0 coefficients 


     PseudoPot. # 6 for H  read from file:
     /share/work_r640/fmigm008/pseudo/H.pbe-kjpaw_psl.1.0.0.UPF
     MD5 check sum: d81a744832360e4a8af0b0b5b123bc2a
     Pseudo is Projector augmented-wave, Zval =  1.0
     Generated using &quot;atomic&quot; code by A. Dal Corso  v.6.3MaX
     Shape of augmentation charge: PSQ
     Using radial grid of  929 points,  2 beta functions with: 
                l(1) =   0
                l(2) =   0
     Q(r) pseudized with 0 coefficients 


     atomic species   valence    mass     pseudopotential
     S                 6.00    32.06500     S ( 1.00)
     W                14.00   183.84000     W ( 1.00)
     Ag               11.00   107.87000     Ag( 1.00)
     N                 5.00    14.00700     N ( 1.00)
     O                 6.00    15.99900     O ( 1.00)
     H                 1.00     1.00800     H ( 1.00)

     Starting magnetic structure 
     atomic species   magnetization
     S               0.000
     W               0.000
     Ag              0.000
     N               0.000
     O               0.000
     H               0.000

     No symmetry found


                                    s                        frac. trans.

      isym =  1     identity                                     

 cryst.   s( 1) = (     1          0          0      )
                  (     0          1          0      )
                  (     0          0          1      )

 cart.    s( 1) = (  1.0000000  0.0000000  0.0000000 )
                  (  0.0000000  1.0000000  0.0000000 )
                  (  0.0000000  0.0000000  1.0000000 )


   Cartesian axes

     site n.     atom                  positions (alat units)
         1        W      tau(   1) = (  -0.0028587   0.1395947   0.2444812  )
         2        W      tau(   2) = (  -0.1282026   0.3564836   0.2443568  )
         3        W      tau(   3) = (  -0.2537731   0.5727289   0.2442261  )
         4        W      tau(   4) = (  -0.3783723   0.7888166   0.2441498  )
         5        W      tau(   5) = (   0.2469096   0.1395426   0.2440120  )
         6        W      tau(   6) = (   0.1225026   0.3570726   0.2432304  )
         7        W      tau(   7) = (  -0.0034888   0.5727502   0.2429844  )
         8        W      tau(   8) = (  -0.1283671   0.7891505   0.2439766  )
         9        W      tau(   9) = (   0.4969194   0.1397378   0.2430413  )
        10        W      tau(  10) = (   0.3721499   0.3552416   0.2405337  )
        11        W      tau(  11) = (   0.2452295   0.5727639   0.2402480  )
        12        W      tau(  12) = (   0.1220165   0.7890246   0.2436243  )
        13        W      tau(  13) = (   0.7467445   0.1394449   0.2440642  )
        14        W      tau(  14) = (   0.6211264   0.3563823   0.2436826  )
        15        W      tau(  15) = (   0.4971469   0.5732720   0.2421413  )
        16        W      tau(  16) = (   0.3721785   0.7886524   0.2428338  )
        17        S      tau(  17) = (   0.1219502   0.0672380   0.3684592  )
        18        S      tau(  18) = (  -0.0024014   0.2846735   0.3681910  )
        19        S      tau(  19) = (  -0.1281525   0.5008469   0.3682441  )
        20        S      tau(  20) = (  -0.2533258   0.7170167   0.3685687  )
        21        S      tau(  21) = (   0.3722606   0.0676427   0.3679766  )
        22        S      tau(  22) = (   0.2484890   0.2849851   0.3676532  )
        23        S      tau(  23) = (   0.1218721   0.5017515   0.3660861  )
        24        S      tau(  24) = (  -0.0030403   0.7167922   0.3679041  )
        25        S      tau(  25) = (   0.6215745   0.0674060   0.3678624  )
        26        S      tau(  26) = (   0.4959803   0.2843589   0.3667029  )
        27        S      tau(  27) = (   0.3710177   0.5007270   0.3638206  )
        28        S      tau(  28) = (   0.2481984   0.7153351   0.3669892  )
        29        S      tau(  29) = (   0.8717811   0.0668114   0.3679626  )
        30        S      tau(  30) = (   0.7463862   0.2840842   0.3681041  )
        31        S      tau(  31) = (   0.6195449   0.5004430   0.3687043  )
        32        S      tau(  32) = (   0.4956231   0.7159829   0.3681683  )
        33        S      tau(  33) = (   0.1218639   0.0672424   0.1203644  )
        34        S      tau(  34) = (  -0.0031686   0.2839920   0.1203246  )
        35        S      tau(  35) = (  -0.1290559   0.5005458   0.1199474  )
        36        S      tau(  36) = (  -0.2533637   0.7168463   0.1201865  )
        37        S      tau(  37) = (   0.3715067   0.0672515   0.1197328  )
        38        S      tau(  38) = (   0.2459712   0.2831895   0.1185177  )
        39        S      tau(  39) = (   0.1200987   0.4999851   0.1172124  )
        40        S      tau(  40) = (  -0.0034124   0.7174366   0.1195727  )
        41        S      tau(  41) = (   0.6220409   0.0671938   0.1195919  )
        42        S      tau(  42) = (   0.4978914   0.2834015   0.1177695  )
        43        S      tau(  43) = (   0.3720771   0.5008174   0.1169455  )
        44        S      tau(  44) = (   0.2466393   0.7180153   0.1180007  )
        45        S      tau(  45) = (   0.8722199   0.0680125   0.1199081  )
        46        S      tau(  46) = (   0.7469729   0.2840633   0.1202901  )
        47        S      tau(  47) = (   0.6222799   0.5003741   0.1191499  )
        48        S      tau(  48) = (   0.4972527   0.7176301   0.1185580  )
        49        Ag     tau(  49) = (   0.1547683   0.5150674   0.5753024  )
        50        Ag     tau(  50) = (   0.3069329   0.3595674   0.5464056  )
        51        Ag     tau(  51) = (   0.5024756   0.4743393   0.5615070  )
        52        Ag     tau(  52) = (   0.3399570   0.6321033   0.5430870  )
        53        Ag     tau(  53) = (   0.3428646   0.4953663   0.7084671  )
        54        N      tau(  54) = (   0.2581053   0.4648737   0.8674395  )
        55        O      tau(  55) = (   0.1477385   0.4509631   0.8500100  )
        56        H      tau(  56) = (   0.2650389   0.5234661   0.9229976  )
        57        H      tau(  57) = (   0.1408570   0.4629232   0.7729758  )
        58        H      tau(  58) = (   0.2837088   0.3964009   0.9032094  )

     --------------------------------------------
     DFT-D3 Dispersion Correction (3-body terms):
     --------------------------------------------
       Reference C6 values for interpolation: 

         atom   Coordination number   C6
         H          0.912             6.05
         H          0.000            15.18
         N          0.000            50.54
         N          0.994            44.25
         N          2.014            39.35
         N          2.990            31.16
         O          0.000            31.01
         O          0.993            25.63
         O          1.989            20.74
         S          0.000           268.01
         S          0.995           261.99
         S          1.990           251.62
         Ag         0.000           853.49
         Ag         0.968           537.23
         W          0.000          1628.72
         W          1.929          1086.81
         W         10.915           796.19

       Values used:

         atom   Coordination number  R0_AB[au]  C6      C8
         W          9.805            3.766    796.19 128250.55
         W          9.806            3.766    796.19 128250.55
         W          9.854            3.766    796.19 128250.55
         W          9.866            3.766    796.19 128250.55
         W          9.842            3.766    796.19 128250.55
         W          9.851            3.766    796.19 128250.55
         W          9.870            3.766    796.19 128250.55
         W          9.833            3.766    796.19 128250.55
         W          9.854            3.766    796.19 128250.55
         W          9.880            3.766    796.19 128250.55
         W          9.879            3.766    796.19 128250.55
         W          9.846            3.766    796.19 128250.55
         W          9.811            3.766    796.19 128250.55
         W          9.849            3.766    796.19 128250.55
         W          9.870            3.766    796.19 128250.55
         W          9.855            3.766    796.19 128250.55
         S          3.670            3.128    251.62  12327.25
         S          3.672            3.128    251.62  12327.25
         S          3.679            3.128    251.62  12327.25
         S          3.675            3.128    251.62  12327.25
         S          3.690            3.128    251.62  12327.25
         S          4.579            3.128    251.62  12327.25
         S          4.512            3.128    251.62  12327.25
         S          3.693            3.128    251.62  12327.25
         S          3.676            3.128    251.62  12327.25
         S          3.843            3.128    251.62  12327.25
         S          4.976            3.128    251.62  12327.25
         S          4.443            3.128    251.62  12327.25
         S          3.677            3.128    251.62  12327.25
         S          3.672            3.128    251.62  12327.25
         S          4.198            3.128    251.62  12327.25
         S          3.918            3.128    251.62  12327.25
         S          3.700            3.128    251.62  12327.25
         S          3.699            3.128    251.62  12327.25
         S          3.697            3.128    251.62  12327.25
         S          3.697            3.128    251.62  12327.25
         S          3.689            3.128    251.62  12327.25
         S          3.673            3.128    251.62  12327.25
         S          3.669            3.128    251.62  12327.25
         S          3.689            3.128    251.62  12327.25
         S          3.693            3.128    251.62  12327.25
         S          3.672            3.128    251.62  12327.25
         S          3.662            3.128    251.62  12327.25
         S          3.672            3.128    251.62  12327.25
         S          3.693            3.128    251.62  12327.25
         S          3.697            3.128    251.62  12327.25
         S          3.686            3.128    251.62  12327.25
         S          3.680            3.128    251.62  12327.25
         Ag         3.221            3.147    537.23  47741.54
         Ag         3.973            3.147    537.23  47741.54
         Ag         3.317            3.147    537.23  47741.54
         Ag         4.158            3.147    537.23  47741.54
         Ag         4.110            3.147    537.23  47741.54
         N          3.745            2.478     31.16    687.50
         O          2.006            2.345     20.81    420.06
         H          1.005            2.062      6.18     74.66
         H          1.031            2.062      6.16     74.41
         H          1.006            2.062      6.18     74.65

         Molecular C6 ( Ry / a.u.^6 ) =   1190030.78


   Crystallographic axes

     site n.     atom                  positions (cryst. coord.)
         1        W      tau(   1) = (  0.0777364  0.1611901  0.1550056  )
         2        W      tau(   2) = (  0.0776133  0.4116318  0.1549267  )
         3        W      tau(   3) = (  0.0768921  0.6613303  0.1548438  )
         4        W      tau(   4) = (  0.0770512  0.9108469  0.1547955  )
         5        W      tau(   5) = (  0.3274746  0.1611299  0.1547081  )
         6        W      tau(   6) = (  0.3286586  0.4123119  0.1542125  )
         7        W      tau(   7) = (  0.3271886  0.6613549  0.1540566  )
         8        W      tau(   8) = (  0.3272492  0.9112326  0.1546856  )
         9        W      tau(   9) = (  0.5775970  0.1613553  0.1540926  )
        10        W      tau(  10) = (  0.5772488  0.4101977  0.1525028  )
        11        W      tau(  11) = (  0.5759149  0.6613708  0.1523217  )
        12        W      tau(  12) = (  0.5775601  0.9110871  0.1544623  )
        13        W      tau(  13) = (  0.8272530  0.1610171  0.1547412  )
        14        W      tau(  14) = (  0.8268839  0.4115149  0.1544993  )
        15        W      tau(  15) = (  0.8281256  0.6619575  0.1535220  )
        16        W      tau(  16) = (  0.8275072  0.9106573  0.1539611  )
        17        S      tau(  17) = (  0.1607701  0.0776397  0.2336099  )
        18        S      tau(  18) = (  0.1619549  0.3287126  0.2334399  )
        19        S      tau(  19) = (  0.1610116  0.5783281  0.2334735  )
        20        S      tau(  20) = (  0.1606439  0.8279395  0.2336794  )
        21        S      tau(  21) = (  0.4113141  0.0781070  0.2333040  )
        22        S      tau(  22) = (  0.4130252  0.3290725  0.2330989  )
        23        S      tau(  23) = (  0.4115585  0.5793727  0.2321053  )
        24        S      tau(  24) = (  0.4107998  0.8276803  0.2332579  )
        25        S      tau(  25) = (  0.6604913  0.0778337  0.2332315  )
        26        S      tau(  26) = (  0.6601550  0.3283494  0.2324963  )
        27        S      tau(  27) = (  0.6601125  0.5781897  0.2306689  )
        28        S      tau(  28) = (  0.6611973  0.8259978  0.2326779  )
        29        S      tau(  29) = (  0.9103547  0.0771472  0.2332950  )
        30        S      tau(  30) = (  0.9104023  0.3280322  0.2333848  )
        31        S      tau(  31) = (  0.9084758  0.5778618  0.2337653  )
        32        S      tau(  32) = (  0.9089960  0.8267459  0.2334255  )
        33        S      tau(  33) = (  0.1606863  0.0776448  0.0763132  )
        34        S      tau(  34) = (  0.1607942  0.3279257  0.0762880  )
        35        S      tau(  35) = (  0.1599344  0.5779805  0.0760488  )
        36        S      tau(  36) = (  0.1605077  0.8277428  0.0762004  )
        37        S      tau(  37) = (  0.4103343  0.0776554  0.0759128  )
        38        S      tau(  38) = (  0.4094707  0.3269991  0.0751424  )
        39        S      tau(  39) = (  0.4087652  0.5773330  0.0743148  )
        40        S      tau(  40) = (  0.4107999  0.8284245  0.0758113  )
        41        S      tau(  41) = (  0.6608352  0.0775887  0.0758235  )
        42        S      tau(  42) = (  0.6615133  0.3272438  0.0746680  )
        43        S      tau(  43) = (  0.6612241  0.5782941  0.0741456  )
        44        S      tau(  44) = (  0.6611856  0.8290927  0.0748146  )
        45        S      tau(  45) = (  0.9114869  0.0785340  0.0760239  )
        46        S      tau(  46) = (  0.9109769  0.3280081  0.0762661  )
        47        S      tau(  47) = (  0.9111710  0.5777822  0.0755432  )
        48        S      tau(  48) = (  0.9115766  0.8286478  0.0751680  )
        49        Ag     tau(  49) = (  0.4521427  0.5947486  0.3647523  )
        50        Ag     tau(  50) = (  0.5145293  0.4151927  0.3464312  )
        51        Ag     tau(  51) = (  0.7763355  0.5477198  0.3560058  )
        52        Ag     tau(  52) = (  0.7049020  0.7298900  0.3443271  )
        53        Ag     tau(  53) = (  0.6288645  0.5719998  0.4491812  )
        54        N      tau(  54) = (  0.5265002  0.5367899  0.5499726  )
        55        O      tau(  55) = (  0.4081021  0.5207274  0.5389220  )
        56        H      tau(  56) = (  0.5672622  0.6044466  0.5851974  )
        57        H      tau(  57) = (  0.4081259  0.5345377  0.4900809  )
        58        H      tau(  58) = (  0.5125710  0.4577243  0.5726514  )

     number of k points=    13
                       cart. coord. in units 2pi/alat
        k(    1) = (   0.0000000   0.0000000   0.0000000), wk =   0.0400000
        k(    2) = (   0.0000000   0.2309401   0.0000000), wk =   0.0800000
        k(    3) = (   0.0000000   0.4618802   0.0000000), wk =   0.0800000
        k(    4) = (   0.2000000   0.3464102   0.0000000), wk =   0.0800000
        k(    5) = (   0.2000000   0.5773503   0.0000000), wk =   0.0800000
        k(    6) = (  -0.2000000   0.1154701   0.0000000), wk =   0.0800000
        k(    7) = (   0.2000000   0.1154701   0.0000000), wk =   0.0800000
        k(    8) = (  -0.4000000   0.2309401   0.0000000), wk =   0.0800000
        k(    9) = (   0.4000000   0.2309401   0.0000000), wk =   0.0800000
        k(   10) = (  -0.2000000   0.3464102   0.0000000), wk =   0.0800000
        k(   11) = (   0.4000000  -0.0000000   0.0000000), wk =   0.0800000
        k(   12) = (  -0.4000000   0.4618802   0.0000000), wk =   0.0800000
        k(   13) = (   0.6000000   0.1154701   0.0000000), wk =   0.0800000

                       cryst. coord.
        k(    1) = (   0.0000000   0.0000000   0.0000000), wk =   0.0400000
        k(    2) = (   0.0000000   0.2000000   0.0000000), wk =   0.0800000
        k(    3) = (   0.0000000   0.4000000   0.0000000), wk =   0.0800000
        k(    4) = (   0.2000000   0.2000000   0.0000000), wk =   0.0800000
        k(    5) = (   0.2000000   0.4000000   0.0000000), wk =   0.0800000
        k(    6) = (  -0.2000000   0.2000000   0.0000000), wk =   0.0800000
        k(    7) = (   0.2000000   0.0000000   0.0000000), wk =   0.0800000
        k(    8) = (  -0.4000000   0.4000000   0.0000000), wk =   0.0800000
        k(    9) = (   0.4000000   0.0000000   0.0000000), wk =   0.0800000
        k(   10) = (  -0.2000000   0.4000000   0.0000000), wk =   0.0800000
        k(   11) = (   0.4000000  -0.2000000   0.0000000), wk =   0.0800000
        k(   12) = (  -0.4000000   0.6000000   0.0000000), wk =   0.0800000
        k(   13) = (   0.6000000  -0.2000000   0.0000000), wk =   0.0800000

     Dense  grid:  2539249 G-vectors     FFT dimensions: ( 160, 160, 243)

     Smooth grid:   897387 G-vectors     FFT dimensions: ( 108, 108, 180)

     Dynamical RAM for                 wfc:       6.50 MB

     Dynamical RAM for     wfc (w. buffer):     175.50 MB

     Dynamical RAM for           str. fact:       3.63 MB

     Dynamical RAM for           local pot:       0.00 MB

     Dynamical RAM for          nlocal pot:      26.11 MB

     Dynamical RAM for                qrad:       9.63 MB

     Dynamical RAM for          rho,v,vnew:       8.32 MB

     Dynamical RAM for               rhoin:       2.77 MB

     Dynamical RAM for            rho*nmix:      19.38 MB

     Dynamical RAM for           G-vectors:       2.38 MB

     Dynamical RAM for          h,s,v(r/c):       2.70 MB

     Dynamical RAM for          <psi|beta>:       3.62 MB

     Dynamical RAM for                 psi:      13.00 MB

     Dynamical RAM for                hpsi:      13.00 MB

     Dynamical RAM for                spsi:      13.00 MB

     Dynamical RAM for      wfcinit/wfcrot:      14.35 MB

     Dynamical RAM for           addusdens:     132.60 MB

     Dynamical RAM for          addusforce:     170.39 MB

     Dynamical RAM for         addusstress:     122.61 MB

     Estimated static dynamical RAM per process >     237.27 MB

     Estimated max dynamical RAM per process >     427.03 MB

     Estimated total dynamical RAM >      26.69 GB
     Generating pointlists ...
     new r_m :   0.0782 (alat units)  1.8731 (a.u.) for type    1
     new r_m :   0.0782 (alat units)  1.8731 (a.u.) for type    2
     new r_m :   0.0754 (alat units)  1.8061 (a.u.) for type    3
     new r_m :   0.0334 (alat units)  0.8011 (a.u.) for type    4
     new r_m :   0.0323 (alat units)  0.7736 (a.u.) for type    5
     new r_m :   0.0323 (alat units)  0.7736 (a.u.) for type    6

     Initial potential from superposition of free atoms

     starting charge     484.9880, renormalised to     485.0000

     negative rho (up, down):  1.010E-03 1.010E-03
     Starting wfcs are  392 randomized atomic wfcs
     Checking if some PAW data can be deallocated... 
       PAW data deallocated on   32 nodes for type:  1
       PAW data deallocated on   42 nodes for type:  2
       PAW data deallocated on   59 nodes for type:  3
       PAW data deallocated on   63 nodes for type:  4
       PAW data deallocated on   63 nodes for type:  5
       PAW data deallocated on   61 nodes for type:  6

     total cpu time spent up to now is      185.8 secs

     per-process dynamical memory:   308.7 Mb

     Self-consistent Calculation

     iteration #  1     ecut=    50.00 Ry     beta= 0.40
     Davidson diagonalization with overlap

---- Real-time Memory Report at c_bands before calling an iterative solver
           366 MiB given to the printing process from OS
           301 MiB allocation reported by mallinfo(arena+hblkhd)
         91512 MiB available memory on the node where the printing process lives
------------------
     ethr =  1.00E-02,  avg # of iterations =  2.0

     Threshold (ethr) on eigenvalues was too large:
     Diagonalizing with lowered threshold

     Davidson diagonalization with overlap

---- Real-time Memory Report at c_bands before calling an iterative solver
           470 MiB given to the printing process from OS
           304 MiB allocation reported by mallinfo(arena+hblkhd)
         89869 MiB available memory on the node where the printing process lives
------------------
     ethr =  4.34E-04,  avg # of iterations =  4.8

     negative rho (up, down):  1.026E-02 6.715E-03

     total cpu time spent up to now is      926.3 secs

     total energy              =  -16138.22328236 Ry
     estimated scf accuracy    <       2.44462650 Ry

     total magnetization       =     1.00 Bohr mag/cell
     absolute magnetization    =     4.14 Bohr mag/cell

     iteration #  2     ecut=    50.00 Ry     beta= 0.40
     Davidson diagonalization with overlap

---- Real-time Memory Report at c_bands before calling an iterative solver
           478 MiB given to the printing process from OS
           311 MiB allocation reported by mallinfo(arena+hblkhd)
         82548 MiB available memory on the node where the printing process lives
------------------
     ethr =  5.04E-04,  avg # of iterations =  7.3

     negative rho (up, down):  3.209E-02 2.296E-02

     total cpu time spent up to now is     1313.5 secs

     total energy              =  -16138.44677581 Ry
     estimated scf accuracy    <       0.41162544 Ry

     total magnetization       =     1.00 Bohr mag/cell
     absolute magnetization    =     3.06 Bohr mag/cell

     iteration #  3     ecut=    50.00 Ry     beta= 0.40
     Davidson diagonalization with overlap

---- Real-time Memory Report at c_bands before calling an iterative solver
           480 MiB given to the printing process from OS
           312 MiB allocation reported by mallinfo(arena+hblkhd)
         89911 MiB available memory on the node where the printing process lives
------------------
     ethr =  8.49E-05,  avg # of iterations =  8.4

     negative rho (up, down):  3.680E-02 2.750E-02

     total cpu time spent up to now is     1719.1 secs

     total energy              =  -16138.51360227 Ry
     estimated scf accuracy    <       0.22202549 Ry

     total magnetization       =     1.00 Bohr mag/cell
     absolute magnetization    =     2.37 Bohr mag/cell

     iteration #  4     ecut=    50.00 Ry     beta= 0.40
     Davidson diagonalization with overlap

---- Real-time Memory Report at c_bands before calling an iterative solver
           481 MiB given to the printing process from OS
           314 MiB allocation reported by mallinfo(arena+hblkhd)
         89908 MiB available memory on the node where the printing process lives
------------------
     ethr =  4.58E-05,  avg # of iterations =  9.9

     negative rho (up, down):  3.084E-02 2.399E-02

     total cpu time spent up to now is     2092.1 secs

     total energy              =  -16138.54443086 Ry
     estimated scf accuracy    <       0.05234698 Ry

     total magnetization       =     1.00 Bohr mag/cell
     absolute magnetization    =     1.98 Bohr mag/cell

     iteration #  5     ecut=    50.00 Ry     beta= 0.40
     Davidson diagonalization with overlap

---- Real-time Memory Report at c_bands before calling an iterative solver
           511 MiB given to the printing process from OS
           346 MiB allocation reported by mallinfo(arena+hblkhd)
         86301 MiB available memory on the node where the printing process lives
------------------
     ethr =  1.08E-05,  avg # of iterations =  7.3

     negative rho (up, down):  2.137E-02 1.700E-02

     total cpu time spent up to now is     2478.8 secs

     total energy              =  -16138.54961108 Ry
     estimated scf accuracy    <       0.03174190 Ry

     total magnetization       =     1.00 Bohr mag/cell
     absolute magnetization    =     1.71 Bohr mag/cell

     iteration #  6     ecut=    50.00 Ry     beta= 0.40
     Davidson diagonalization with overlap

---- Real-time Memory Report at c_bands before calling an iterative solver
           514 MiB given to the printing process from OS
           347 MiB allocation reported by mallinfo(arena+hblkhd)
         85126 MiB available memory on the node where the printing process lives
------------------
     ethr =  6.54E-06,  avg # of iterations =  7.3

     negative rho (up, down):  1.387E-02 1.146E-02

     total cpu time spent up to now is     2832.9 secs

     total energy              =  -16138.55284233 Ry
     estimated scf accuracy    <       0.01658193 Ry

     total magnetization       =     1.00 Bohr mag/cell
     absolute magnetization    =     1.49 Bohr mag/cell

     iteration #  7     ecut=    50.00 Ry     beta= 0.40
     Davidson diagonalization with overlap

---- Real-time Memory Report at c_bands before calling an iterative solver
           515 MiB given to the printing process from OS
           349 MiB allocation reported by mallinfo(arena+hblkhd)
         85143 MiB available memory on the node where the printing process lives
------------------
     ethr =  3.42E-06,  avg # of iterations =  5.4

     negative rho (up, down):  2.023E-02 2.081E-02

     total cpu time spent up to now is     3167.6 secs

     total energy              =  -16138.55137326 Ry
     estimated scf accuracy    <       0.00830748 Ry

     total magnetization       =     1.00 Bohr mag/cell
     absolute magnetization    =     1.34 Bohr mag/cell

     iteration #  8     ecut=    50.00 Ry     beta= 0.40
     Davidson diagonalization with overlap

---- Real-time Memory Report at c_bands before calling an iterative solver
           516 MiB given to the printing process from OS
           350 MiB allocation reported by mallinfo(arena+hblkhd)
         84943 MiB available memory on the node where the printing process lives
------------------
     ethr =  1.71E-06,  avg # of iterations =  8.0

     negative rho (up, down):  2.097E-02 2.212E-02

     total cpu time spent up to now is     3506.4 secs

     total energy              =  -16138.55112530 Ry
     estimated scf accuracy    <       0.00211272 Ry

     total magnetization       =     1.00 Bohr mag/cell
     absolute magnetization    =     1.22 Bohr mag/cell

     iteration #  9     ecut=    50.00 Ry     beta= 0.40
     Davidson diagonalization with overlap

---- Real-time Memory Report at c_bands before calling an iterative solver
           517 MiB given to the printing process from OS
           351 MiB allocation reported by mallinfo(arena+hblkhd)
         84993 MiB available memory on the node where the printing process lives
------------------
     ethr =  4.36E-07,  avg # of iterations =  7.8

     negative rho (up, down):  1.519E-02 1.613E-02

     total cpu time spent up to now is     3901.0 secs

     total energy              =  -16138.55303212 Ry
     estimated scf accuracy    <       0.00048446 Ry

     total magnetization       =     1.00 Bohr mag/cell
     absolute magnetization    =     1.17 Bohr mag/cell

     iteration # 10     ecut=    50.00 Ry     beta= 0.40
     Davidson diagonalization with overlap

---- Real-time Memory Report at c_bands before calling an iterative solver
           518 MiB given to the printing process from OS
           353 MiB allocation reported by mallinfo(arena+hblkhd)
         85157 MiB available memory on the node where the printing process lives
------------------
     ethr =  9.99E-08,  avg # of iterations =  7.2

     negative rho (up, down):  1.096E-02 1.173E-02

     total cpu time spent up to now is     4306.7 secs

     total energy              =  -16138.55410308 Ry
     estimated scf accuracy    <       0.00015580 Ry

     total magnetization       =     1.00 Bohr mag/cell
     absolute magnetization    =     1.15 Bohr mag/cell

     iteration # 11     ecut=    50.00 Ry     beta= 0.40
     Davidson diagonalization with overlap

---- Real-time Memory Report at c_bands before calling an iterative solver
           520 MiB given to the printing process from OS
           354 MiB allocation reported by mallinfo(arena+hblkhd)
         84879 MiB available memory on the node where the printing process lives
------------------
     ethr =  3.21E-08,  avg # of iterations =  7.8

     negative rho (up, down):  7.883E-03 8.483E-03

     total cpu time spent up to now is     4744.9 secs

     total energy              =  -16138.55470327 Ry
     estimated scf accuracy    <       0.00010457 Ry

     total magnetization       =     1.00 Bohr mag/cell
     absolute magnetization    =     1.14 Bohr mag/cell

     iteration # 12     ecut=    50.00 Ry     beta= 0.40
     Davidson diagonalization with overlap

---- Real-time Memory Report at c_bands before calling an iterative solver
           520 MiB given to the printing process from OS
           354 MiB allocation reported by mallinfo(arena+hblkhd)
         84955 MiB available memory on the node where the printing process lives
------------------
     ethr =  2.16E-08,  avg # of iterations =  6.6

     negative rho (up, down):  6.032E-03 6.497E-03

     total cpu time spent up to now is     5139.1 secs

     total energy              =  -16138.55496804 Ry
     estimated scf accuracy    <       0.00002903 Ry

     total magnetization       =     1.00 Bohr mag/cell
     absolute magnetization    =     1.13 Bohr mag/cell

     iteration # 13     ecut=    50.00 Ry     beta= 0.40
     Davidson diagonalization with overlap

---- Real-time Memory Report at c_bands before calling an iterative solver
           520 MiB given to the printing process from OS
           354 MiB allocation reported by mallinfo(arena+hblkhd)
         85047 MiB available memory on the node where the printing process lives
------------------
     ethr =  5.98E-09,  avg # of iterations =  7.0

     negative rho (up, down):  5.192E-03 5.597E-03

     total cpu time spent up to now is     5555.9 secs

     total energy              =  -16138.55506394 Ry
     estimated scf accuracy    <       0.00001584 Ry

     total magnetization       =     1.00 Bohr mag/cell
     absolute magnetization    =     1.12 Bohr mag/cell

     iteration # 14     ecut=    50.00 Ry     beta= 0.40
     Davidson diagonalization with overlap

---- Real-time Memory Report at c_bands before calling an iterative solver
           520 MiB given to the printing process from OS
           354 MiB allocation reported by mallinfo(arena+hblkhd)
         85022 MiB available memory on the node where the printing process lives
------------------
     ethr =  3.27E-09,  avg # of iterations =  2.0

     negative rho (up, down):  4.863E-03 5.242E-03

     total cpu time spent up to now is     5861.4 secs

     total energy              =  -16138.55510121 Ry
     estimated scf accuracy    <       0.00001082 Ry

     total magnetization       =     1.00 Bohr mag/cell
     absolute magnetization    =     1.12 Bohr mag/cell

     iteration # 15     ecut=    50.00 Ry     beta= 0.40
     Davidson diagonalization with overlap

---- Real-time Memory Report at c_bands before calling an iterative solver
           520 MiB given to the printing process from OS
           354 MiB allocation reported by mallinfo(arena+hblkhd)
         84812 MiB available memory on the node where the printing process lives
------------------
     ethr =  2.23E-09,  avg # of iterations =  2.0

     negative rho (up, down):  4.870E-03 5.243E-03

     total cpu time spent up to now is     6153.9 secs

     total energy              =  -16138.55510149 Ry
     estimated scf accuracy    <       0.00000962 Ry

     total magnetization       =     1.00 Bohr mag/cell
     absolute magnetization    =     1.12 Bohr mag/cell

     iteration # 16     ecut=    50.00 Ry     beta= 0.40
     Davidson diagonalization with overlap

---- Real-time Memory Report at c_bands before calling an iterative solver
           520 MiB given to the printing process from OS
           354 MiB allocation reported by mallinfo(arena+hblkhd)
         84837 MiB available memory on the node where the printing process lives
------------------
     ethr =  1.98E-09,  avg # of iterations =  1.0

     negative rho (up, down):  4.843E-03 5.213E-03

     total cpu time spent up to now is     6431.5 secs

     total energy              =  -16138.55510350 Ry
     estimated scf accuracy    <       0.00001171 Ry

     total magnetization       =     1.00 Bohr mag/cell
     absolute magnetization    =     1.12 Bohr mag/cell

     iteration # 17     ecut=    50.00 Ry     beta= 0.40
     Davidson diagonalization with overlap

---- Real-time Memory Report at c_bands before calling an iterative solver
           520 MiB given to the printing process from OS
           354 MiB allocation reported by mallinfo(arena+hblkhd)
         84893 MiB available memory on the node where the printing process lives
------------------
     ethr =  1.98E-09,  avg # of iterations = 10.9

     negative rho (up, down):  5.292E-03 5.685E-03

     total cpu time spent up to now is     6900.6 secs

     total energy              =  -16138.55505889 Ry
     estimated scf accuracy    <       0.00003026 Ry

     total magnetization       =     1.00 Bohr mag/cell
     absolute magnetization    =     1.12 Bohr mag/cell

     iteration # 18     ecut=    50.00 Ry     beta= 0.40
     Davidson diagonalization with overlap

---- Real-time Memory Report at c_bands before calling an iterative solver
           520 MiB given to the printing process from OS
           354 MiB allocation reported by mallinfo(arena+hblkhd)
         84697 MiB available memory on the node where the printing process lives
------------------
     ethr =  1.98E-09,  avg # of iterations =  5.7

     negative rho (up, down):  5.978E-03 6.403E-03

     total cpu time spent up to now is     7229.9 secs

     total energy              =  -16138.55498988 Ry
     estimated scf accuracy    <       0.00002433 Ry

     total magnetization       =     1.00 Bohr mag/cell
     absolute magnetization    =     1.12 Bohr mag/cell

     iteration # 19     ecut=    50.00 Ry     beta= 0.40
     Davidson diagonalization with overlap

---- Real-time Memory Report at c_bands before calling an iterative solver
           520 MiB given to the printing process from OS
           354 MiB allocation reported by mallinfo(arena+hblkhd)
         84826 MiB available memory on the node where the printing process lives
------------------
     ethr =  1.98E-09,  avg # of iterations =  7.5

     negative rho (up, down):  6.766E-03 7.234E-03

     total cpu time spent up to now is     7581.8 secs

     total energy              =  -16138.55490179 Ry
     estimated scf accuracy    <       0.00002520 Ry

     total magnetization       =     1.00 Bohr mag/cell
     absolute magnetization    =     1.12 Bohr mag/cell

     iteration # 20     ecut=    50.00 Ry     beta= 0.40
     Davidson diagonalization with overlap

---- Real-time Memory Report at c_bands before calling an iterative solver
           520 MiB given to the printing process from OS
           354 MiB allocation reported by mallinfo(arena+hblkhd)
         84753 MiB available memory on the node where the printing process lives
------------------
     ethr =  1.98E-09,  avg # of iterations =  2.0

     negative rho (up, down):  7.475E-03 7.981E-03

     total cpu time spent up to now is     7871.9 secs

     total energy              =  -16138.55481195 Ry
     estimated scf accuracy    <       0.00003500 Ry

     total magnetization       =     1.00 Bohr mag/cell
     absolute magnetization    =     1.12 Bohr mag/cell

     iteration # 21     ecut=    50.00 Ry     beta= 0.40
     Davidson diagonalization with overlap

---- Real-time Memory Report at c_bands before calling an iterative solver
           520 MiB given to the printing process from OS
           354 MiB allocation reported by mallinfo(arena+hblkhd)
         84824 MiB available memory on the node where the printing process lives
------------------
     ethr =  1.98E-09,  avg # of iterations =  2.0

     negative rho (up, down):  8.511E-03 9.070E-03

     total cpu time spent up to now is     8168.0 secs

     total energy              =  -16138.55466164 Ry
     estimated scf accuracy    <       0.00004615 Ry

     total magnetization       =     1.00 Bohr mag/cell
     absolute magnetization    =     1.13 Bohr mag/cell

     iteration # 22     ecut=    50.00 Ry     beta= 0.40
     Davidson diagonalization with overlap

---- Real-time Memory Report at c_bands before calling an iterative solver
           520 MiB given to the printing process from OS
           354 MiB allocation reported by mallinfo(arena+hblkhd)
         84879 MiB available memory on the node where the printing process lives
------------------
     ethr =  1.98E-09,  avg # of iterations =  8.1

     negative rho (up, down):  9.244E-03 9.821E-03

     total cpu time spent up to now is     8506.2 secs

     total energy              =  -16138.55454205 Ry
     estimated scf accuracy    <       0.00007417 Ry

     total magnetization       =     1.00 Bohr mag/cell
     absolute magnetization    =     1.13 Bohr mag/cell

     iteration # 23     ecut=    50.00 Ry     beta= 0.40
     Davidson diagonalization with overlap

---- Real-time Memory Report at c_bands before calling an iterative solver
           520 MiB given to the printing process from OS
           354 MiB allocation reported by mallinfo(arena+hblkhd)
         84775 MiB available memory on the node where the printing process lives
------------------
     ethr =  1.98E-09,  avg # of iterations =  2.0

     negative rho (up, down):  8.531E-03 9.071E-03

     total cpu time spent up to now is     8799.8 secs

     total energy              =  -16138.55466067 Ry
     estimated scf accuracy    <       0.00008210 Ry

     total magnetization       =     1.00 Bohr mag/cell
     absolute magnetization    =     1.13 Bohr mag/cell

     iteration # 24     ecut=    50.00 Ry     beta= 0.40
     Davidson diagonalization with overlap

---- Real-time Memory Report at c_bands before calling an iterative solver
           520 MiB given to the printing process from OS
           354 MiB allocation reported by mallinfo(arena+hblkhd)
         84728 MiB available memory on the node where the printing process lives
------------------
     ethr =  1.98E-09,  avg # of iterations =  3.4

     negative rho (up, down):  5.792E-03 6.187E-03

     total cpu time spent up to now is     9106.2 secs

     total energy              =  -16138.55500888 Ry
     estimated scf accuracy    <       0.00006897 Ry

     total magnetization       =     1.00 Bohr mag/cell
     absolute magnetization    =     1.13 Bohr mag/cell

     iteration # 25     ecut=    50.00 Ry     beta= 0.40
     Davidson diagonalization with overlap

---- Real-time Memory Report at c_bands before calling an iterative solver
           520 MiB given to the printing process from OS
           354 MiB allocation reported by mallinfo(arena+hblkhd)
         84834 MiB available memory on the node where the printing process lives
------------------
     ethr =  1.98E-09,  avg # of iterations =  7.9

     negative rho (up, down):  5.518E-03 5.905E-03

     total cpu time spent up to now is     9498.9 secs

     total energy              =  -16138.55503576 Ry
     estimated scf accuracy    <       0.00002525 Ry

     total magnetization       =     1.00 Bohr mag/cell
     absolute magnetization    =     1.12 Bohr mag/cell

     iteration # 26     ecut=    50.00 Ry     beta= 0.40
     Davidson diagonalization with overlap

---- Real-time Memory Report at c_bands before calling an iterative solver
           520 MiB given to the printing process from OS
           354 MiB allocation reported by mallinfo(arena+hblkhd)
         82636 MiB available memory on the node where the printing process lives
------------------
     ethr =  1.98E-09,  avg # of iterations =  2.3

     negative rho (up, down):  5.430E-03 5.819E-03

     total cpu time spent up to now is     9795.7 secs

     total energy              =  -16138.55504380 Ry
     estimated scf accuracy    <       0.00001545 Ry

     total magnetization       =     1.00 Bohr mag/cell
     absolute magnetization    =     1.12 Bohr mag/cell

     iteration # 27     ecut=    50.00 Ry     beta= 0.40
     Davidson diagonalization with overlap

---- Real-time Memory Report at c_bands before calling an iterative solver
           520 MiB given to the printing process from OS
           354 MiB allocation reported by mallinfo(arena+hblkhd)
         84616 MiB available memory on the node where the printing process lives
------------------
     ethr =  1.98E-09,  avg # of iterations =  3.8

     negative rho (up, down):  5.197E-03 5.580E-03

     total cpu time spent up to now is    10093.5 secs

     total energy              =  -16138.55506521 Ry
     estimated scf accuracy    <       0.00001093 Ry

     total magnetization       =     1.00 Bohr mag/cell
     absolute magnetization    =     1.12 Bohr mag/cell

     iteration # 28     ecut=    50.00 Ry     beta= 0.40
     Davidson diagonalization with overlap

---- Real-time Memory Report at c_bands before calling an iterative solver
           520 MiB given to the printing process from OS
           354 MiB allocation reported by mallinfo(arena+hblkhd)
         84686 MiB available memory on the node where the printing process lives
------------------
     ethr =  1.98E-09,  avg # of iterations =  9.0

     negative rho (up, down):  4.940E-03 5.313E-03

     total cpu time spent up to now is    10425.0 secs

     total energy              =  -16138.55509046 Ry
     estimated scf accuracy    <       0.00000389 Ry

     total magnetization       =     1.00 Bohr mag/cell
     absolute magnetization    =     1.12 Bohr mag/cell

     iteration # 29     ecut=    50.00 Ry     beta= 0.40
     Davidson diagonalization with overlap

---- Real-time Memory Report at c_bands before calling an iterative solver
           520 MiB given to the printing process from OS
           354 MiB allocation reported by mallinfo(arena+hblkhd)
         84732 MiB available memory on the node where the printing process lives
------------------
     ethr =  8.02E-10,  avg # of iterations =  9.7

     negative rho (up, down):  4.850E-03 5.222E-03

     total cpu time spent up to now is    10896.4 secs

     total energy              =  -16138.55510172 Ry
     estimated scf accuracy    <       0.00000606 Ry

     total magnetization       =     1.00 Bohr mag/cell
     absolute magnetization    =     1.12 Bohr mag/cell

     iteration # 30     ecut=    50.00 Ry     beta= 0.40
     Davidson diagonalization with overlap

---- Real-time Memory Report at c_bands before calling an iterative solver
           521 MiB given to the printing process from OS
           354 MiB allocation reported by mallinfo(arena+hblkhd)
         84673 MiB available memory on the node where the printing process lives
------------------
     ethr =  8.02E-10,  avg # of iterations =  2.0

     negative rho (up, down):  4.817E-03 5.189E-03

     total cpu time spent up to now is    11189.2 secs

     total energy              =  -16138.55510523 Ry
     estimated scf accuracy    <       0.00000326 Ry

     total magnetization       =     1.00 Bohr mag/cell
     absolute magnetization    =     1.12 Bohr mag/cell

     iteration # 31     ecut=    50.00 Ry     beta= 0.40
     Davidson diagonalization with overlap

---- Real-time Memory Report at c_bands before calling an iterative solver
           521 MiB given to the printing process from OS
           354 MiB allocation reported by mallinfo(arena+hblkhd)
         84748 MiB available memory on the node where the printing process lives
------------------
     ethr =  6.71E-10,  avg # of iterations =  7.9

     negative rho (up, down):  4.808E-03 5.179E-03

     total cpu time spent up to now is    11644.9 secs

     total energy              =  -16138.55510753 Ry
     estimated scf accuracy    <       0.00000410 Ry

     total magnetization       =     1.00 Bohr mag/cell
     absolute magnetization    =     1.12 Bohr mag/cell

     iteration # 32     ecut=    50.00 Ry     beta= 0.40
     Davidson diagonalization with overlap

---- Real-time Memory Report at c_bands before calling an iterative solver
           522 MiB given to the printing process from OS
           355 MiB allocation reported by mallinfo(arena+hblkhd)
         84620 MiB available memory on the node where the printing process lives
------------------
     ethr =  6.71E-10,  avg # of iterations =  2.0

     negative rho (up, down):  4.804E-03 5.174E-03

     total cpu time spent up to now is    11940.1 secs

     total energy              =  -16138.55510782 Ry
     estimated scf accuracy    <       0.00000213 Ry

     total magnetization       =     1.00 Bohr mag/cell
     absolute magnetization    =     1.12 Bohr mag/cell

     iteration # 33     ecut=    50.00 Ry     beta= 0.40
     Davidson diagonalization with overlap

---- Real-time Memory Report at c_bands before calling an iterative solver
           522 MiB given to the printing process from OS
           355 MiB allocation reported by mallinfo(arena+hblkhd)
         84674 MiB available memory on the node where the printing process lives
------------------
     ethr =  4.39E-10,  avg # of iterations =  6.4

     negative rho (up, down):  4.799E-03 5.168E-03

     total cpu time spent up to now is    12264.1 secs

     total energy              =  -16138.55510813 Ry
     estimated scf accuracy    <       0.00000045 Ry

     total magnetization       =     1.00 Bohr mag/cell
     absolute magnetization    =     1.12 Bohr mag/cell

     iteration # 34     ecut=    50.00 Ry     beta= 0.40
     Davidson diagonalization with overlap

---- Real-time Memory Report at c_bands before calling an iterative solver
           522 MiB given to the printing process from OS
           355 MiB allocation reported by mallinfo(arena+hblkhd)
         84664 MiB available memory on the node where the printing process lives
------------------
     ethr =  9.22E-11,  avg # of iterations = 10.6

     negative rho (up, down):  4.798E-03 5.167E-03

     total cpu time spent up to now is    12812.7 secs

     total energy              =  -16138.55510854 Ry
     estimated scf accuracy    <       0.00000150 Ry

     total magnetization       =     1.00 Bohr mag/cell
     absolute magnetization    =     1.12 Bohr mag/cell

     iteration # 35     ecut=    50.00 Ry     beta= 0.40
     Davidson diagonalization with overlap

---- Real-time Memory Report at c_bands before calling an iterative solver
           522 MiB given to the printing process from OS
           355 MiB allocation reported by mallinfo(arena+hblkhd)
         84484 MiB available memory on the node where the printing process lives
------------------
     ethr =  9.22E-11,  avg # of iterations =  7.6

     negative rho (up, down):  4.797E-03 5.166E-03

     total cpu time spent up to now is    13245.6 secs

     total energy              =  -16138.55510876 Ry
     estimated scf accuracy    <       0.00000001 Ry

     total magnetization       =     1.00 Bohr mag/cell
     absolute magnetization    =     1.12 Bohr mag/cell

     iteration # 36     ecut=    50.00 Ry     beta= 0.40
     Davidson diagonalization with overlap

---- Real-time Memory Report at c_bands before calling an iterative solver
           522 MiB given to the printing process from OS
           355 MiB allocation reported by mallinfo(arena+hblkhd)
         84378 MiB available memory on the node where the printing process lives
------------------
     ethr =  2.90E-12,  avg # of iterations =  5.1

     negative rho (up, down):  4.796E-03 5.165E-03

     total cpu time spent up to now is    13731.6 secs

     total energy              =  -16138.55510884 Ry
     estimated scf accuracy    <          5.9E-09 Ry

     total magnetization       =     1.00 Bohr mag/cell
     absolute magnetization    =     1.12 Bohr mag/cell

     iteration # 37     ecut=    50.00 Ry     beta= 0.40
     Davidson diagonalization with overlap

---- Real-time Memory Report at c_bands before calling an iterative solver
           522 MiB given to the printing process from OS
           355 MiB allocation reported by mallinfo(arena+hblkhd)
         79369 MiB available memory on the node where the printing process lives
------------------
     ethr =  1.21E-12,  avg # of iterations = 10.9

     negative rho (up, down):  4.796E-03 5.164E-03

     total cpu time spent up to now is    14237.3 secs

     total energy              =  -16138.55510885 Ry
     estimated scf accuracy    <       0.00000003 Ry

     total magnetization       =     1.00 Bohr mag/cell
     absolute magnetization    =     1.12 Bohr mag/cell

     iteration # 38     ecut=    50.00 Ry     beta= 0.40
     Davidson diagonalization with overlap

---- Real-time Memory Report at c_bands before calling an iterative solver
           522 MiB given to the printing process from OS
           355 MiB allocation reported by mallinfo(arena+hblkhd)
         75844 MiB available memory on the node where the printing process lives
------------------
     ethr =  1.21E-12,  avg # of iterations =  7.3

     negative rho (up, down):  4.796E-03 5.164E-03

     total cpu time spent up to now is    14567.9 secs

     total energy              =  -16138.55510884 Ry
     estimated scf accuracy    <       0.00000002 Ry

     total magnetization       =     1.00 Bohr mag/cell
     absolute magnetization    =     1.12 Bohr mag/cell

     iteration # 39     ecut=    50.00 Ry     beta= 0.40
     Davidson diagonalization with overlap

---- Real-time Memory Report at c_bands before calling an iterative solver
           531 MiB given to the printing process from OS
           355 MiB allocation reported by mallinfo(arena+hblkhd)
         76972 MiB available memory on the node where the printing process lives
------------------
     ethr =  1.21E-12,  avg # of iterations =  8.9

     negative rho (up, down):  4.796E-03 5.164E-03

     total cpu time spent up to now is    15026.4 secs

     total energy              =  -16138.55510885 Ry
     estimated scf accuracy    <          3.5E-09 Ry

     total magnetization       =     1.00 Bohr mag/cell
     absolute magnetization    =     1.12 Bohr mag/cell

     iteration # 40     ecut=    50.00 Ry     beta= 0.40
     Davidson diagonalization with overlap

---- Real-time Memory Report at c_bands before calling an iterative solver
           531 MiB given to the printing process from OS
           355 MiB allocation reported by mallinfo(arena+hblkhd)
         76929 MiB available memory on the node where the printing process lives
------------------
     ethr =  7.14E-13,  avg # of iterations =  6.1

     negative rho (up, down):  4.796E-03 5.164E-03

     total cpu time spent up to now is    15343.5 secs

     total energy              =  -16138.55510886 Ry
     estimated scf accuracy    <          1.1E-09 Ry

     total magnetization       =     1.00 Bohr mag/cell
     absolute magnetization    =     1.12 Bohr mag/cell

     iteration # 41     ecut=    50.00 Ry     beta= 0.40
     Davidson diagonalization with overlap

---- Real-time Memory Report at c_bands before calling an iterative solver
           531 MiB given to the printing process from OS
           355 MiB allocation reported by mallinfo(arena+hblkhd)
         73450 MiB available memory on the node where the printing process lives
------------------
     ethr =  2.37E-13,  avg # of iterations =  7.2

     negative rho (up, down):  4.796E-03 5.163E-03

     total cpu time spent up to now is    15790.2 secs

     total energy              =  -16138.55510886 Ry
     estimated scf accuracy    <          8.3E-10 Ry

     total magnetization       =     1.00 Bohr mag/cell
     absolute magnetization    =     1.12 Bohr mag/cell

     iteration # 42     ecut=    50.00 Ry     beta= 0.40
     Davidson diagonalization with overlap

---- Real-time Memory Report at c_bands before calling an iterative solver
           531 MiB given to the printing process from OS
           355 MiB allocation reported by mallinfo(arena+hblkhd)
         74169 MiB available memory on the node where the printing process lives
------------------
     ethr =  1.71E-13,  avg # of iterations =  2.8

     negative rho (up, down):  4.796E-03 5.163E-03

     total cpu time spent up to now is    16094.2 secs

     total energy              =  -16138.55510886 Ry
     estimated scf accuracy    <          2.5E-10 Ry

     total magnetization       =     1.00 Bohr mag/cell
     absolute magnetization    =     1.12 Bohr mag/cell

     iteration # 43     ecut=    50.00 Ry     beta= 0.40
     Davidson diagonalization with overlap

---- Real-time Memory Report at c_bands before calling an iterative solver
           531 MiB given to the printing process from OS
           355 MiB allocation reported by mallinfo(arena+hblkhd)
         74095 MiB available memory on the node where the printing process lives
------------------
     ethr =  1.00E-13,  avg # of iterations =  2.9

     negative rho (up, down):  4.796E-03 5.163E-03

     total cpu time spent up to now is    16397.1 secs

     total energy              =  -16138.55510886 Ry
     estimated scf accuracy    <          1.5E-10 Ry

     total magnetization       =     1.00 Bohr mag/cell
     absolute magnetization    =     1.12 Bohr mag/cell

     iteration # 44     ecut=    50.00 Ry     beta= 0.40
     Davidson diagonalization with overlap

---- Real-time Memory Report at c_bands before calling an iterative solver
           531 MiB given to the printing process from OS
           355 MiB allocation reported by mallinfo(arena+hblkhd)
         74152 MiB available memory on the node where the printing process lives
------------------
     ethr =  1.00E-13,  avg # of iterations =  2.0

     negative rho (up, down):  4.796E-03 5.163E-03

     Magnetic moment per site  (integrated on atomic sphere of radius R)
     atom   1 (R=0.078)  charge= 10.3731  magn=  0.0015
     atom   2 (R=0.078)  charge= 10.3731  magn=  0.0080
     atom   3 (R=0.078)  charge= 10.3740  magn= -0.0007
     atom   4 (R=0.078)  charge= 10.3743  magn=  0.0148
     atom   5 (R=0.078)  charge= 10.3763  magn=  0.0111
     atom   6 (R=0.078)  charge= 10.3757  magn=  0.0063
     atom   7 (R=0.078)  charge= 10.3783  magn=  0.0052
     atom   8 (R=0.078)  charge= 10.3749  magn=  0.0108
     atom   9 (R=0.078)  charge= 10.3753  magn=  0.0033
     atom  10 (R=0.078)  charge= 10.3820  magn=  0.0365
     atom  11 (R=0.078)  charge= 10.3836  magn=  0.0167
     atom  12 (R=0.078)  charge= 10.3743  magn=  0.0164
     atom  13 (R=0.078)  charge= 10.3731  magn=  0.0029
     atom  14 (R=0.078)  charge= 10.3740  magn= -0.0006
     atom  15 (R=0.078)  charge= 10.3816  magn=  0.0171
     atom  16 (R=0.078)  charge= 10.3760  magn=  0.0042
     atom  17 (R=0.078)  charge=  4.1591  magn=  0.0027
     atom  18 (R=0.078)  charge=  4.1558  magn=  0.0017
     atom  19 (R=0.078)  charge=  4.1586  magn= -0.0000
     atom  20 (R=0.078)  charge=  4.1590  magn=  0.0028
     atom  21 (R=0.078)  charge=  4.1594  magn=  0.0025
     atom  22 (R=0.078)  charge=  4.1750  magn=  0.0122
     atom  23 (R=0.078)  charge=  4.1787  magn=  0.0050
     atom  24 (R=0.078)  charge=  4.1586  magn=  0.0036
     atom  25 (R=0.078)  charge=  4.1591  magn=  0.0022
     atom  26 (R=0.078)  charge=  4.1626  magn=  0.0026
     atom  27 (R=0.078)  charge=  4.1805  magn=  0.0068
     atom  28 (R=0.078)  charge=  4.1668  magn=  0.0125
     atom  29 (R=0.078)  charge=  4.1578  magn=  0.0030
     atom  30 (R=0.078)  charge=  4.1574  magn=  0.0007
     atom  31 (R=0.078)  charge=  4.1566  magn=  0.0017
     atom  32 (R=0.078)  charge=  4.1575  magn=  0.0062
     atom  33 (R=0.078)  charge=  4.1610  magn=  0.0008
     atom  34 (R=0.078)  charge=  4.1591  magn=  0.0009
     atom  35 (R=0.078)  charge=  4.1606  magn= -0.0002
     atom  36 (R=0.078)  charge=  4.1609  magn=  0.0001
     atom  37 (R=0.078)  charge=  4.1601  magn=  0.0005
     atom  38 (R=0.078)  charge=  4.1589  magn=  0.0036
     atom  39 (R=0.078)  charge=  4.1568  magn=  0.0010
     atom  40 (R=0.078)  charge=  4.1595  magn= -0.0001
     atom  41 (R=0.078)  charge=  4.1602  magn=  0.0005
     atom  42 (R=0.078)  charge=  4.1579  magn=  0.0018
     atom  43 (R=0.078)  charge=  4.1526  magn=  0.0025
     atom  44 (R=0.078)  charge=  4.1584  magn=  0.0032
     atom  45 (R=0.078)  charge=  4.1594  magn=  0.0015
     atom  46 (R=0.078)  charge=  4.1597  magn=  0.0002
     atom  47 (R=0.078)  charge=  4.1603  magn=  0.0006
     atom  48 (R=0.078)  charge=  4.1598  magn=  0.0022
     atom  49 (R=0.075)  charge=  8.4011  magn=  0.0118
     atom  50 (R=0.075)  charge=  8.3970  magn=  0.0316
     atom  51 (R=0.075)  charge=  8.4007  magn=  0.0134
     atom  52 (R=0.075)  charge=  8.3971  magn=  0.0338
     atom  53 (R=0.075)  charge=  8.3867  magn=  0.0187
     atom  54 (R=0.033)  charge=  1.3322  magn= -0.0002
     atom  55 (R=0.032)  charge=  2.0258  magn=  0.0004
     atom  56 (R=0.032)  charge=  0.4167  magn=  0.0002
     atom  57 (R=0.032)  charge=  0.4030  magn=  0.0001
     atom  58 (R=0.032)  charge=  0.4134  magn=  0.0001

     total cpu time spent up to now is    16689.6 secs

     End of self-consistent calculation

 ------ SPIN UP ------------


          k = 0.0000 0.0000 0.0000 (112117 PWs)   bands (ev):

   -73.8176 -73.8141 -73.8111 -73.8086 -73.8066 -73.8057 -73.8031 -73.8011
   -73.7963 -73.7944 -73.7916 -73.7896 -73.7878 -73.7550 -73.7502 -73.7407
   -38.2255 -38.2206 -38.2194 -38.1645 -38.1637 -38.1588 -38.1584 -38.1520
   -38.1442 -38.0604 -38.0575 -38.0549 -38.0543 -38.0492 -38.0471 -38.0453
   -38.0318 -38.0301 -38.0275 -38.0269 -38.0231 -38.0224 -38.0201 -38.0180
   -38.0174 -38.0145 -38.0129 -38.0051 -37.9962 -37.9932 -37.9919 -37.9889
   -37.9873 -37.9831 -37.9694 -37.9592 -37.9579 -37.9550 -37.9524 -37.9470
   -37.9259 -37.9190 -37.9145 -37.9139 -37.9101 -37.9052 -37.8709 -37.8676
   -21.6884 -15.3459 -14.5996 -13.7129 -13.6997 -13.6756 -13.6452 -13.6320
   -13.6217 -12.9842 -12.7145 -12.6789 -12.6566 -12.6408 -12.6043 -12.5825
   -12.5411 -12.5083 -12.4743 -12.4580 -12.4468 -12.4447 -12.4234 -12.4221
   -12.4172 -12.2248 -12.2028 -12.1915 -12.1758 -12.1588 -12.1549 -12.1512
   -12.1481 -12.1455  -7.8951  -7.6879  -6.3445  -6.3289  -6.3107  -6.2873
    -6.2082  -5.6168  -5.5754  -5.5534  -5.5350  -5.5299  -5.4961  -5.4475
    -5.4168  -5.3940  -5.3163  -5.2862  -5.2641  -5.1083  -5.0962  -5.0669
    -5.0619  -5.0574  -5.0563  -5.0018  -5.0004  -4.9914  -4.5270  -4.4441
    -4.4046  -4.3498  -4.2967  -4.2868  -4.2708  -4.2498  -4.2356  -4.1853
    -4.0832  -4.0134  -3.9814  -3.9653  -3.9392  -3.7981  -3.7632  -3.7610
    -3.7051  -3.6808  -3.6773  -3.6026  -3.5167  -3.4766  -3.4098  -3.4052
    -3.3757  -3.3688  -3.2960  -3.2276  -3.1996  -3.1857  -3.1669  -3.1459
    -3.1360  -3.1278  -3.1143  -3.1108  -3.0648  -2.9639  -2.8233  -2.7612
    -2.7257  -2.6805  -2.6516  -2.5947  -2.5860  -2.5211  -2.5059  -2.4687
    -2.4633  -2.4365  -2.4357  -2.4294  -2.3993  -2.3428  -2.2957  -2.2119
    -2.1328  -2.0861  -1.9830  -1.9802  -1.9565  -1.9356  -1.8730  -1.8402
    -1.8173  -1.7851  -1.7718  -1.7687  -1.7554  -1.7544  -1.7461  -1.7432
    -1.7404  -1.7120  -1.7015  -1.6694  -1.6629  -1.6483  -1.6383  -1.6127
    -1.5844  -1.5345  -1.5267  -1.5090  -1.4561  -1.4209  -1.3763  -1.3598
    -1.3139  -1.2767  -1.2043  -1.1007  -1.0502  -1.0326  -1.0171  -0.9977
    -0.7296  -0.6961  -0.6918  -0.6898  -0.6804  -0.6766  -0.6514  -0.6483
    -0.6321  -0.3992  -0.3905  -0.3790  -0.3640  -0.3517  -0.3434  -0.3233
     0.1952   1.2537   1.5335

     occupation numbers 
     1.0000   1.0000   1.0000   1.0000   1.0000   1.0000   1.0000   1.0000
     1.0000   1.0000   1.0000   1.0000   1.0000   1.0000   1.0000   1.0000
     1.0000   1.0000   1.0000   1.0000   1.0000   1.0000   1.0000   1.0000
     1.0000   1.0000   1.0000   1.0000   1.0000   1.0000   1.0000   1.0000
     1.0000   1.0000   1.0000   1.0000   1.0000   1.0000   1.0000   1.0000
     1.0000   1.0000   1.0000   1.0000   1.0000   1.0000   1.0000   1.0000
     1.0000   1.0000   1.0000   1.0000   1.0000   1.0000   1.0000   1.0000
     1.0000   1.0000   1.0000   1.0000   1.0000   1.0000   1.0000   1.0000
     1.0000   1.0000   1.0000   1.0000   1.0000   1.0000   1.0000   1.0000
     1.0000   1.0000   1.0000   1.0000   1.0000   1.0000   1.0000   1.0000
     1.0000   1.0000   1.0000   1.0000   1.0000   1.0000   1.0000   1.0000
     1.0000   1.0000   1.0000   1.0000   1.0000   1.0000   1.0000   1.0000
     1.0000   1.0000   1.0000   1.0000   1.0000   1.0000   1.0000   1.0000
     1.0000   1.0000   1.0000   1.0000   1.0000   1.0000   1.0000   1.0000
     1.0000   1.0000   1.0000   1.0000   1.0000   1.0000   1.0000   1.0000
     1.0000   1.0000   1.0000   1.0000   1.0000   1.0000   1.0000   1.0000
     1.0000   1.0000   1.0000   1.0000   1.0000   1.0000   1.0000   1.0000
     1.0000   1.0000   1.0000   1.0000   1.0000   1.0000   1.0000   1.0000
     1.0000   1.0000   1.0000   1.0000   1.0000   1.0000   1.0000   1.0000
     1.0000   1.0000   1.0000   1.0000   1.0000   1.0000   1.0000   1.0000
     1.0000   1.0000   1.0000   1.0000   1.0000   1.0000   1.0000   1.0000
     1.0000   1.0000   1.0000   1.0000   1.0000   1.0000   1.0000   1.0000
     1.0000   1.0000   1.0000   1.0000   1.0000   1.0000   1.0000   1.0000
     1.0000   1.0000   1.0000   1.0000   1.0000   1.0000   1.0000   1.0000
     1.0000   1.0000   1.0000   1.0000   1.0000   1.0000   1.0000   1.0000
     1.0000   1.0000   1.0000   1.0000   1.0000   1.0000   1.0000   1.0000
     1.0000   1.0000   1.0000   1.0000   1.0000   1.0000   1.0000   1.0000
     1.0000   1.0000   1.0000   1.0000   1.0000   1.0000   1.0000   1.0000
     1.0000   1.0000   1.0000   1.0000   1.0000   1.0000   1.0000   1.0000
     1.0000   1.0000   1.0000   1.0000   1.0000   1.0000   1.0000   1.0000
     1.0000   1.0000   1.0000

          k = 0.0000 0.2309 0.0000 (112171 PWs)   bands (ev):

   -73.8174 -73.8143 -73.8111 -73.8088 -73.8064 -73.8057 -73.8031 -73.8011
   -73.7965 -73.7944 -73.7915 -73.7896 -73.7877 -73.7550 -73.7502 -73.7407
   -38.2203 -38.2153 -38.2131 -38.1710 -38.1663 -38.1629 -38.1560 -38.1485
   -38.1415 -38.1042 -38.0795 -38.0774 -38.0534 -38.0498 -38.0462 -38.0333
   -38.0299 -38.0271 -38.0248 -38.0222 -38.0190 -38.0169 -38.0140 -38.0122
   -38.0051 -37.9997 -37.9979 -37.9965 -37.9946 -37.9928 -37.9892 -37.9878
   -37.9864 -37.9830 -37.9697 -37.9625 -37.9603 -37.9554 -37.9524 -37.9471
   -37.9331 -37.9235 -37.9225 -37.9121 -37.9089 -37.9016 -37.8783 -37.8691
   -21.6884 -15.3459 -14.5580 -13.9783 -13.8035 -13.7864 -13.4954 -13.4624
   -13.3257 -12.9682 -12.8081 -12.7364 -12.6986 -12.6887 -12.6561 -12.5887
   -12.5561 -12.5442 -12.4955 -12.4779 -12.4581 -12.4383 -12.4245 -12.3180
   -12.2862 -12.2644 -12.2452 -12.2152 -12.1864 -12.1755 -12.1691 -12.1536
   -12.0963 -12.0811  -7.8951  -7.6879  -6.2832  -6.2719  -6.2440  -6.2379
    -6.2029  -5.6721  -5.6488  -5.6316  -5.5612  -5.5200  -5.4907  -5.4726
    -5.4316  -5.4195  -5.3974  -5.3225  -5.3183  -5.2889  -5.2718  -5.0748
    -5.0677  -5.0196  -5.0036  -4.9577  -4.7410  -4.7357  -4.5933  -4.4869
    -4.4553  -4.3877  -4.3245  -4.2903  -4.2115  -4.1628  -4.1484  -4.1220
    -4.1013  -4.0644  -4.0451  -4.0028  -3.9866  -3.9143  -3.9112  -3.9026
    -3.6668  -3.5735  -3.5432  -3.5094  -3.4708  -3.4429  -3.4398  -3.3853
    -3.3654  -3.3153  -3.2980  -3.2802  -3.2765  -3.2100  -3.1961  -3.1510
    -3.1044  -2.9985  -2.9668  -2.9360  -2.8587  -2.7890  -2.7781  -2.7501
    -2.7252  -2.7183  -2.7009  -2.6884  -2.6599  -2.6366  -2.6118  -2.5462
    -2.5180  -2.5012  -2.4788  -2.4366  -2.3635  -2.3173  -2.2060  -2.1655
    -2.1250  -2.0863  -2.0199  -2.0057  -1.9865  -1.9700  -1.9391  -1.9126
    -1.8929  -1.8654  -1.8546  -1.8205  -1.7935  -1.7650  -1.7481  -1.7357
    -1.7239  -1.7060  -1.6913  -1.6679  -1.6525  -1.6113  -1.5875  -1.5542
    -1.5380  -1.4970  -1.4862  -1.4629  -1.4354  -1.3746  -1.3382  -1.3288
    -1.2988  -1.2832  -1.2487  -1.2269  -1.1656  -1.0738  -1.0464  -1.0224
    -0.8981  -0.7810  -0.7640  -0.7515  -0.5741  -0.5665  -0.5541  -0.5363
    -0.5233  -0.5134  -0.4141  -0.3788  -0.3675  -0.2673  -0.1723  -0.1473
     0.1761   1.2601   1.5648

     occupation numbers 
     1.0000   1.0000   1.0000   1.0000   1.0000   1.0000   1.0000   1.0000
     1.0000   1.0000   1.0000   1.0000   1.0000   1.0000   1.0000   1.0000
     1.0000   1.0000   1.0000   1.0000   1.0000   1.0000   1.0000   1.0000
     1.0000   1.0000   1.0000   1.0000   1.0000   1.0000   1.0000   1.0000
     1.0000   1.0000   1.0000   1.0000   1.0000   1.0000   1.0000   1.0000
     1.0000   1.0000   1.0000   1.0000   1.0000   1.0000   1.0000   1.0000
     1.0000   1.0000   1.0000   1.0000   1.0000   1.0000   1.0000   1.0000
     1.0000   1.0000   1.0000   1.0000   1.0000   1.0000   1.0000   1.0000
     1.0000   1.0000   1.0000   1.0000   1.0000   1.0000   1.0000   1.0000
     1.0000   1.0000   1.0000   1.0000   1.0000   1.0000   1.0000   1.0000
     1.0000   1.0000   1.0000   1.0000   1.0000   1.0000   1.0000   1.0000
     1.0000   1.0000   1.0000   1.0000   1.0000   1.0000   1.0000   1.0000
     1.0000   1.0000   1.0000   1.0000   1.0000   1.0000   1.0000   1.0000
     1.0000   1.0000   1.0000   1.0000   1.0000   1.0000   1.0000   1.0000
     1.0000   1.0000   1.0000   1.0000   1.0000   1.0000   1.0000   1.0000
     1.0000   1.0000   1.0000   1.0000   1.0000   1.0000   1.0000   1.0000
     1.0000   1.0000   1.0000   1.0000   1.0000   1.0000   1.0000   1.0000
     1.0000   1.0000   1.0000   1.0000   1.0000   1.0000   1.0000   1.0000
     1.0000   1.0000   1.0000   1.0000   1.0000   1.0000   1.0000   1.0000
     1.0000   1.0000   1.0000   1.0000   1.0000   1.0000   1.0000   1.0000
     1.0000   1.0000   1.0000   1.0000   1.0000   1.0000   1.0000   1.0000
     1.0000   1.0000   1.0000   1.0000   1.0000   1.0000   1.0000   1.0000
     1.0000   1.0000   1.0000   1.0000   1.0000   1.0000   1.0000   1.0000
     1.0000   1.0000   1.0000   1.0000   1.0000   1.0000   1.0000   1.0000
     1.0000   1.0000   1.0000   1.0000   1.0000   1.0000   1.0000   1.0000
     1.0000   1.0000   1.0000   1.0000   1.0000   1.0000   1.0000   1.0000
     1.0000   1.0000   1.0000   1.0000   1.0000   1.0000   1.0000   1.0000
     1.0000   1.0000   1.0000   1.0000   1.0000   1.0000   1.0000   1.0000
     1.0000   1.0000   1.0000   1.0000   1.0000   1.0000   1.0000   1.0000
     1.0000   1.0000   1.0000   1.0000   1.0000   1.0000   1.0000   1.0000
     1.0000   1.0000   1.0000

          k = 0.0000 0.4619 0.0000 (112236 PWs)   bands (ev):

   -73.8171 -73.8147 -73.8112 -73.8090 -73.8062 -73.8056 -73.8031 -73.8010
   -73.7967 -73.7944 -73.7913 -73.7898 -73.7877 -73.7550 -73.7502 -73.7407
   -38.2071 -38.2045 -38.1911 -38.1885 -38.1765 -38.1669 -38.1605 -38.1476
   -38.1316 -38.1268 -38.1062 -38.1017 -38.0644 -38.0591 -38.0479 -38.0391
   -38.0320 -38.0211 -38.0175 -38.0132 -38.0099 -38.0072 -38.0035 -38.0012
   -37.9993 -37.9979 -37.9974 -37.9918 -37.9890 -37.9862 -37.9829 -37.9793
   -37.9742 -37.9707 -37.9675 -37.9660 -37.9537 -37.9521 -37.9500 -37.9483
   -37.9436 -37.9369 -37.9322 -37.9166 -37.9117 -37.8958 -37.8942 -37.8720
   -21.6884 -15.3459 -14.4363 -14.2349 -13.8733 -13.8545 -13.2665 -13.2312
   -13.0215 -13.0006 -12.9713 -12.9185 -12.8340 -12.7320 -12.7056 -12.6900
   -12.5228 -12.5156 -12.4640 -12.4508 -12.4379 -12.4256 -12.3834 -12.3701
   -12.3515 -12.2852 -12.2174 -12.2027 -12.1782 -12.1599 -12.1580 -12.1536
   -12.0571 -12.0403  -7.8951  -7.6879  -6.2173  -6.1306  -6.1155  -6.0936
    -6.0284  -5.8744  -5.8621  -5.8397  -5.7158  -5.5360  -5.5013  -5.4899
    -5.4617  -5.4472  -5.4388  -5.3950  -5.3753  -5.3276  -5.3031  -5.0681
    -5.0648  -5.0320  -5.0105  -4.8124  -4.6339  -4.5310  -4.4882  -4.4419
    -4.3958  -4.3769  -4.3508  -4.3152  -4.2467  -4.2335  -4.1931  -4.1621
    -4.1311  -4.1204  -4.1045  -4.0783  -4.0669  -4.0535  -4.0440  -3.6893
    -3.5740  -3.5113  -3.4835  -3.4447  -3.4206  -3.3935  -3.3691  -3.3118
    -3.2964  -3.2838  -3.2637  -3.2416  -3.2224  -3.1895  -3.1654  -3.1092
    -3.0676  -3.0624  -3.0113  -2.9728  -2.9540  -2.9173  -2.8658  -2.7715
    -2.7537  -2.7096  -2.6702  -2.6406  -2.6125  -2.5728  -2.5306  -2.4914
    -2.4523  -2.4336  -2.3980  -2.3209  -2.2802  -2.2566  -2.2437  -2.1882
    -2.1290  -2.0952  -2.0477  -2.0217  -2.0122  -2.0020  -1.9838  -1.9562
    -1.9341  -1.9104  -1.8821  -1.8753  -1.8575  -1.8452  -1.8410  -1.8291
    -1.7759  -1.7681  -1.7262  -1.7183  -1.6988  -1.6716  -1.6354  -1.6223
    -1.5958  -1.5564  -1.5355  -1.5064  -1.4357  -1.3918  -1.3034  -1.2913
    -1.2378  -1.2051  -1.1925  -1.1507  -1.1204  -1.0992  -1.0506  -1.0024
    -0.9785  -0.8951  -0.7354  -0.7243  -0.6428  -0.6267  -0.4956  -0.4591
    -0.4455  -0.4352  -0.3997  -0.3823  -0.3143  -0.0960   0.0002   0.0234
     0.1265   1.2698   1.6173

     occupation numbers 
     1.0000   1.0000   1.0000   1.0000   1.0000   1.0000   1.0000   1.0000
     1.0000   1.0000   1.0000   1.0000   1.0000   1.0000   1.0000   1.0000
     1.0000   1.0000   1.0000   1.0000   1.0000   1.0000   1.0000   1.0000
     1.0000   1.0000   1.0000   1.0000   1.0000   1.0000   1.0000   1.0000
     1.0000   1.0000   1.0000   1.0000   1.0000   1.0000   1.0000   1.0000
     1.0000   1.0000   1.0000   1.0000   1.0000   1.0000   1.0000   1.0000
     1.0000   1.0000   1.0000   1.0000   1.0000   1.0000   1.0000   1.0000
     1.0000   1.0000   1.0000   1.0000   1.0000   1.0000   1.0000   1.0000
     1.0000   1.0000   1.0000   1.0000   1.0000   1.0000   1.0000   1.0000
     1.0000   1.0000   1.0000   1.0000   1.0000   1.0000   1.0000   1.0000
     1.0000   1.0000   1.0000   1.0000   1.0000   1.0000   1.0000   1.0000
     1.0000   1.0000   1.0000   1.0000   1.0000   1.0000   1.0000   1.0000
     1.0000   1.0000   1.0000   1.0000   1.0000   1.0000   1.0000   1.0000
     1.0000   1.0000   1.0000   1.0000   1.0000   1.0000   1.0000   1.0000
     1.0000   1.0000   1.0000   1.0000   1.0000   1.0000   1.0000   1.0000
     1.0000   1.0000   1.0000   1.0000   1.0000   1.0000   1.0000   1.0000
     1.0000   1.0000   1.0000   1.0000   1.0000   1.0000   1.0000   1.0000
     1.0000   1.0000   1.0000   1.0000   1.0000   1.0000   1.0000   1.0000
     1.0000   1.0000   1.0000   1.0000   1.0000   1.0000   1.0000   1.0000
     1.0000   1.0000   1.0000   1.0000   1.0000   1.0000   1.0000   1.0000
     1.0000   1.0000   1.0000   1.0000   1.0000   1.0000   1.0000   1.0000
     1.0000   1.0000   1.0000   1.0000   1.0000   1.0000   1.0000   1.0000
     1.0000   1.0000   1.0000   1.0000   1.0000   1.0000   1.0000   1.0000
     1.0000   1.0000   1.0000   1.0000   1.0000   1.0000   1.0000   1.0000
     1.0000   1.0000   1.0000   1.0000   1.0000   1.0000   1.0000   1.0000
     1.0000   1.0000   1.0000   1.0000   1.0000   1.0000   1.0000   1.0000
     1.0000   1.0000   1.0000   1.0000   1.0000   1.0000   1.0000   1.0000
     1.0000   1.0000   1.0000   1.0000   1.0000   1.0000   1.0000   1.0000
     1.0000   1.0000   1.0000   1.0000   1.0000   1.0000   1.0000   1.0000
     1.0000   1.0000   1.0000   1.0000   1.0000   1.0000   1.0000   1.0000
     1.0000   1.0000   1.0000

          k = 0.2000 0.3464 0.0000 (112231 PWs)   bands (ev):

   -73.8171 -73.8148 -73.8111 -73.8088 -73.8063 -73.8055 -73.8033 -73.8011
   -73.7964 -73.7945 -73.7913 -73.7898 -73.7877 -73.7550 -73.7502 -73.7407
   -38.2125 -38.2038 -38.2005 -38.1797 -38.1767 -38.1649 -38.1562 -38.1487
   -38.1328 -38.1243 -38.1170 -38.0781 -38.0602 -38.0565 -38.0481 -38.0378
   -38.0327 -38.0296 -38.0258 -38.0202 -38.0165 -38.0100 -38.0036 -38.0007
   -37.9960 -37.9932 -37.9915 -37.9897 -37.9874 -37.9847 -37.9832 -37.9819
   -37.9768 -37.9732 -37.9697 -37.9664 -37.9596 -37.9556 -37.9524 -37.9478
   -37.9417 -37.9325 -37.9267 -37.9216 -37.9056 -37.9005 -37.8872 -37.8727
   -21.6884 -15.3459 -14.4762 -14.1046 -14.0598 -13.5681 -13.5652 -13.1758
   -13.1194 -13.0105 -12.9364 -12.8111 -12.7907 -12.7115 -12.6724 -12.6065
   -12.5960 -12.5774 -12.5725 -12.4586 -12.4256 -12.3922 -12.3778 -12.3143
   -12.2910 -12.2740 -12.2530 -12.2333 -12.2214 -12.1557 -12.1512 -12.1087
   -12.0960 -12.0365  -7.8951  -7.6879  -6.2193  -6.1788  -6.1555  -6.1299
    -6.1063  -5.7675  -5.7384  -5.7221  -5.6825  -5.6453  -5.6029  -5.5676
    -5.5063  -5.4748  -5.3566  -5.3356  -5.2853  -5.2770  -5.2444  -5.2298
    -5.0964  -4.9066  -4.8910  -4.8171  -4.7521  -4.6078  -4.4925  -4.4718
    -4.3993  -4.3682  -4.3390  -4.3056  -4.2771  -4.2642  -4.2359  -4.2279
    -4.1741  -4.1238  -4.1086  -4.0932  -4.0566  -3.7654  -3.7371  -3.7277
    -3.7198  -3.6947  -3.6014  -3.4992  -3.4313  -3.4018  -3.3521  -3.3235
    -3.2957  -3.2467  -3.2266  -3.2076  -3.1702  -3.1511  -3.1091  -3.0926
    -3.0424  -3.0162  -2.9913  -2.9526  -2.9449  -2.9270  -2.9169  -2.9016
    -2.8178  -2.7398  -2.7202  -2.6551  -2.6371  -2.5585  -2.5154  -2.4779
    -2.4631  -2.4391  -2.3882  -2.3625  -2.3165  -2.2209  -2.1860  -2.1659
    -2.1322  -2.1257  -2.0960  -2.0873  -2.0193  -2.0002  -1.9826  -1.9525
    -1.9293  -1.9072  -1.8847  -1.8585  -1.8390  -1.8297  -1.8010  -1.7512
    -1.7381  -1.7202  -1.7130  -1.6803  -1.6730  -1.6237  -1.5970  -1.5764
    -1.5676  -1.5428  -1.5385  -1.5097  -1.4292  -1.3942  -1.3820  -1.3671
    -1.2926  -1.2272  -1.2082  -1.1863  -1.1570  -1.1177  -1.0327  -1.0101
    -0.8755  -0.8492  -0.6822  -0.6733  -0.6397  -0.6325  -0.6170  -0.5428
    -0.5339  -0.4385  -0.3769  -0.2567  -0.2122  -0.2010  -0.1601   0.0704
     0.1393   1.2827   1.5895

     occupation numbers 
     1.0000   1.0000   1.0000   1.0000   1.0000   1.0000   1.0000   1.0000
     1.0000   1.0000   1.0000   1.0000   1.0000   1.0000   1.0000   1.0000
     1.0000   1.0000   1.0000   1.0000   1.0000   1.0000   1.0000   1.0000
     1.0000   1.0000   1.0000   1.0000   1.0000   1.0000   1.0000   1.0000
     1.0000   1.0000   1.0000   1.0000   1.0000   1.0000   1.0000   1.0000
     1.0000   1.0000   1.0000   1.0000   1.0000   1.0000   1.0000   1.0000
     1.0000   1.0000   1.0000   1.0000   1.0000   1.0000   1.0000   1.0000
     1.0000   1.0000   1.0000   1.0000   1.0000   1.0000   1.0000   1.0000
     1.0000   1.0000   1.0000   1.0000   1.0000   1.0000   1.0000   1.0000
     1.0000   1.0000   1.0000   1.0000   1.0000   1.0000   1.0000   1.0000
     1.0000   1.0000   1.0000   1.0000   1.0000   1.0000   1.0000   1.0000
     1.0000   1.0000   1.0000   1.0000   1.0000   1.0000   1.0000   1.0000
     1.0000   1.0000   1.0000   1.0000   1.0000   1.0000   1.0000   1.0000
     1.0000   1.0000   1.0000   1.0000   1.0000   1.0000   1.0000   1.0000
     1.0000   1.0000   1.0000   1.0000   1.0000   1.0000   1.0000   1.0000
     1.0000   1.0000   1.0000   1.0000   1.0000   1.0000   1.0000   1.0000
     1.0000   1.0000   1.0000   1.0000   1.0000   1.0000   1.0000   1.0000
     1.0000   1.0000   1.0000   1.0000   1.0000   1.0000   1.0000   1.0000
     1.0000   1.0000   1.0000   1.0000   1.0000   1.0000   1.0000   1.0000
     1.0000   1.0000   1.0000   1.0000   1.0000   1.0000   1.0000   1.0000
     1.0000   1.0000   1.0000   1.0000   1.0000   1.0000   1.0000   1.0000
     1.0000   1.0000   1.0000   1.0000   1.0000   1.0000   1.0000   1.0000
     1.0000   1.0000   1.0000   1.0000   1.0000   1.0000   1.0000   1.0000
     1.0000   1.0000   1.0000   1.0000   1.0000   1.0000   1.0000   1.0000
     1.0000   1.0000   1.0000   1.0000   1.0000   1.0000   1.0000   1.0000
     1.0000   1.0000   1.0000   1.0000   1.0000   1.0000   1.0000   1.0000
     1.0000   1.0000   1.0000   1.0000   1.0000   1.0000   1.0000   1.0000
     1.0000   1.0000   1.0000   1.0000   1.0000   1.0000   1.0000   1.0000
     1.0000   1.0000   1.0000   1.0000   1.0000   1.0000   1.0000   1.0000
     1.0000   1.0000   1.0000   1.0000   1.0000   1.0000   1.0000   1.0000
     1.0000   1.0000   1.0000

          k = 0.2000 0.5774 0.0000 (112237 PWs)   bands (ev):

   -73.8170 -73.8148 -73.8112 -73.8090 -73.8062 -73.8054 -73.8032 -73.8010
   -73.7966 -73.7945 -73.7913 -73.7898 -73.7877 -73.7550 -73.7502 -73.7407
   -38.2014 -38.1975 -38.1873 -38.1840 -38.1772 -38.1717 -38.1659 -38.1511
   -38.1478 -38.1334 -38.0933 -38.0917 -38.0876 -38.0515 -38.0460 -38.0405
   -38.0344 -38.0311 -38.0181 -38.0178 -38.0080 -38.0055 -38.0032 -38.0015
   -38.0004 -37.9977 -37.9927 -37.9890 -37.9863 -37.9827 -37.9756 -37.9712
   -37.9698 -37.9672 -37.9623 -37.9596 -37.9568 -37.9536 -37.9509 -37.9466
   -37.9431 -37.9383 -37.9324 -37.9296 -37.9181 -37.8980 -37.8890 -37.8757
   -21.6884 -15.3459 -14.3372 -14.2937 -14.1155 -13.5964 -13.3027 -13.2944
   -12.9552 -12.9495 -12.8894 -12.8543 -12.8427 -12.8029 -12.7936 -12.6591
   -12.6318 -12.6039 -12.4930 -12.4851 -12.3849 -12.3732 -12.3597 -12.3242
   -12.3104 -12.2977 -12.2595 -12.2341 -12.2330 -12.1314 -12.1213 -12.1191
   -12.0794 -12.0170  -7.8951  -7.6879  -6.2158  -6.0605  -6.0104  -5.9872
    -5.9223  -5.8971  -5.8769  -5.8509  -5.8102  -5.7444  -5.6880  -5.6251
    -5.6139  -5.5418  -5.3646  -5.2676  -5.2560  -5.2204  -5.2052  -5.1718
    -5.1558  -4.8572  -4.8330  -4.7546  -4.6350  -4.5796  -4.5491  -4.5224
    -4.4756  -4.4193  -4.3998  -4.3202  -4.3129  -4.2401  -4.2336  -4.2137
    -4.1898  -4.1660  -4.1232  -4.0962  -3.9546  -3.9509  -3.7920  -3.6634
    -3.6440  -3.5629  -3.4426  -3.3931  -3.3619  -3.3297  -3.3069  -3.2871
    -3.2737  -3.2615  -3.2454  -3.2350  -3.2166  -3.2012  -3.1444  -3.1244
    -3.1025  -3.0810  -3.0628  -3.0358  -3.0084  -2.9595  -2.8798  -2.8294
    -2.7534  -2.7234  -2.6984  -2.6729  -2.6331  -2.5447  -2.5143  -2.4570
    -2.3974  -2.3334  -2.3207  -2.3089  -2.2553  -2.2072  -2.1805  -2.1342
    -2.1210  -2.1093  -2.0790  -2.0624  -2.0185  -1.9875  -1.9674  -1.9567
    -1.9394  -1.9190  -1.8981  -1.8816  -1.8707  -1.8570  -1.8444  -1.8362
    -1.8245  -1.7833  -1.7644  -1.7396  -1.7080  -1.6895  -1.6811  -1.6521
    -1.6191  -1.5737  -1.5618  -1.5086  -1.4795  -1.4673  -1.4149  -1.3345
    -1.2856  -1.1965  -1.1597  -1.1447  -1.0956  -1.0818  -1.0075  -0.9918
    -0.8147  -0.7995  -0.7030  -0.6922  -0.6609  -0.6464  -0.5936  -0.5839
    -0.5672  -0.4143  -0.2799  -0.2712  -0.1898  -0.1261  -0.0677   0.0894
     0.1873   1.2919   1.6058

     occupation numbers 
     1.0000   1.0000   1.0000   1.0000   1.0000   1.0000   1.0000   1.0000
     1.0000   1.0000   1.0000   1.0000   1.0000   1.0000   1.0000   1.0000
     1.0000   1.0000   1.0000   1.0000   1.0000   1.0000   1.0000   1.0000
     1.0000   1.0000   1.0000   1.0000   1.0000   1.0000   1.0000   1.0000
     1.0000   1.0000   1.0000   1.0000   1.0000   1.0000   1.0000   1.0000
     1.0000   1.0000   1.0000   1.0000   1.0000   1.0000   1.0000   1.0000
     1.0000   1.0000   1.0000   1.0000   1.0000   1.0000   1.0000   1.0000
     1.0000   1.0000   1.0000   1.0000   1.0000   1.0000   1.0000   1.0000
     1.0000   1.0000   1.0000   1.0000   1.0000   1.0000   1.0000   1.0000
     1.0000   1.0000   1.0000   1.0000   1.0000   1.0000   1.0000   1.0000
     1.0000   1.0000   1.0000   1.0000   1.0000   1.0000   1.0000   1.0000
     1.0000   1.0000   1.0000   1.0000   1.0000   1.0000   1.0000   1.0000
     1.0000   1.0000   1.0000   1.0000   1.0000   1.0000   1.0000   1.0000
     1.0000   1.0000   1.0000   1.0000   1.0000   1.0000   1.0000   1.0000
     1.0000   1.0000   1.0000   1.0000   1.0000   1.0000   1.0000   1.0000
     1.0000   1.0000   1.0000   1.0000   1.0000   1.0000   1.0000   1.0000
     1.0000   1.0000   1.0000   1.0000   1.0000   1.0000   1.0000   1.0000
     1.0000   1.0000   1.0000   1.0000   1.0000   1.0000   1.0000   1.0000
     1.0000   1.0000   1.0000   1.0000   1.0000   1.0000   1.0000   1.0000
     1.0000   1.0000   1.0000   1.0000   1.0000   1.0000   1.0000   1.0000
     1.0000   1.0000   1.0000   1.0000   1.0000   1.0000   1.0000   1.0000
     1.0000   1.0000   1.0000   1.0000   1.0000   1.0000   1.0000   1.0000
     1.0000   1.0000   1.0000   1.0000   1.0000   1.0000   1.0000   1.0000
     1.0000   1.0000   1.0000   1.0000   1.0000   1.0000   1.0000   1.0000
     1.0000   1.0000   1.0000   1.0000   1.0000   1.0000   1.0000   1.0000
     1.0000   1.0000   1.0000   1.0000   1.0000   1.0000   1.0000   1.0000
     1.0000   1.0000   1.0000   1.0000   1.0000   1.0000   1.0000   1.0000
     1.0000   1.0000   1.0000   1.0000   1.0000   1.0000   1.0000   1.0000
     1.0000   1.0000   1.0000   1.0000   1.0000   1.0000   1.0000   1.0000
     1.0000   1.0000   1.0000   1.0000   1.0000   1.0000   1.0000   1.0000
     1.0000   1.0000   1.0000

          k =-0.2000 0.1155 0.0000 (112171 PWs)   bands (ev):

   -73.8174 -73.8142 -73.8111 -73.8090 -73.8064 -73.8054 -73.8032 -73.8011
   -73.7963 -73.7945 -73.7916 -73.7896 -73.7878 -73.7550 -73.7502 -73.7407
   -38.2203 -38.2155 -38.2127 -38.1695 -38.1657 -38.1645 -38.1596 -38.1469
   -38.1403 -38.1036 -38.0808 -38.0767 -38.0518 -38.0492 -38.0452 -38.0350
   -38.0288 -38.0283 -38.0257 -38.0245 -38.0173 -38.0165 -38.0143 -38.0129
   -38.0047 -38.0013 -37.9982 -37.9968 -37.9940 -37.9924 -37.9888 -37.9870
   -37.9861 -37.9829 -37.9696 -37.9629 -37.9604 -37.9548 -37.9524 -37.9471
   -37.9334 -37.9253 -37.9214 -37.9112 -37.9091 -37.9010 -37.8754 -37.8722
   -21.6884 -15.3459 -14.5580 -13.9771 -13.8036 -13.7892 -13.4803 -13.4756
   -13.3263 -12.9686 -12.7932 -12.7604 -12.6930 -12.6832 -12.6585 -12.5884
   -12.5662 -12.5227 -12.4989 -12.4799 -12.4710 -12.4335 -12.4228 -12.3091
   -12.2957 -12.2627 -12.2453 -12.2145 -12.1877 -12.1767 -12.1687 -12.1515
   -12.0960 -12.0819  -7.8951  -7.6879  -6.2871  -6.2668  -6.2476  -6.2356
    -6.2028  -5.6804  -5.6411  -5.6267  -5.5510  -5.5332  -5.4941  -5.4705
    -5.4403  -5.4217  -5.3855  -5.3297  -5.3122  -5.2839  -5.2780  -5.0835
    -5.0643  -5.0173  -5.0011  -4.9530  -4.7419  -4.7368  -4.5751  -4.5170
    -4.4520  -4.3740  -4.3418  -4.2820  -4.2098  -4.1637  -4.1491  -4.1243
    -4.1014  -4.0677  -4.0418  -3.9978  -3.9854  -3.9169  -3.9071  -3.8984
    -3.6608  -3.5895  -3.5356  -3.5044  -3.4800  -3.4612  -3.4463  -3.3766
    -3.3673  -3.3155  -3.2970  -3.2805  -3.2656  -3.2077  -3.1959  -3.1563
    -3.1038  -2.9875  -2.9666  -2.9305  -2.8352  -2.7995  -2.7770  -2.7515
    -2.7310  -2.7164  -2.7001  -2.6917  -2.6754  -2.6544  -2.6063  -2.5485
    -2.5161  -2.4824  -2.4714  -2.4397  -2.3699  -2.3144  -2.1991  -2.1773
    -2.1336  -2.0881  -2.0234  -2.0073  -1.9812  -1.9675  -1.9466  -1.9095
    -1.8870  -1.8681  -1.8437  -1.8224  -1.8078  -1.7754  -1.7452  -1.7299
    -1.7119  -1.7023  -1.6863  -1.6689  -1.6550  -1.6104  -1.5784  -1.5576
    -1.5301  -1.5073  -1.4973  -1.4373  -1.4282  -1.3751  -1.3535  -1.3315
    -1.3153  -1.2780  -1.2581  -1.2249  -1.1626  -1.0823  -1.0448  -1.0108
    -0.9018  -0.7773  -0.7606  -0.7424  -0.5864  -0.5708  -0.5539  -0.5349
    -0.5204  -0.5119  -0.4164  -0.3848  -0.3607  -0.2653  -0.1740  -0.1470
     0.1749   1.2819   1.5409

     occupation numbers 
     1.0000   1.0000   1.0000   1.0000   1.0000   1.0000   1.0000   1.0000
     1.0000   1.0000   1.0000   1.0000   1.0000   1.0000   1.0000   1.0000
     1.0000   1.0000   1.0000   1.0000   1.0000   1.0000   1.0000   1.0000
     1.0000   1.0000   1.0000   1.0000   1.0000   1.0000   1.0000   1.0000
     1.0000   1.0000   1.0000   1.0000   1.0000   1.0000   1.0000   1.0000
     1.0000   1.0000   1.0000   1.0000   1.0000   1.0000   1.0000   1.0000
     1.0000   1.0000   1.0000   1.0000   1.0000   1.0000   1.0000   1.0000
     1.0000   1.0000   1.0000   1.0000   1.0000   1.0000   1.0000   1.0000
     1.0000   1.0000   1.0000   1.0000   1.0000   1.0000   1.0000   1.0000
     1.0000   1.0000   1.0000   1.0000   1.0000   1.0000   1.0000   1.0000
     1.0000   1.0000   1.0000   1.0000   1.0000   1.0000   1.0000   1.0000
     1.0000   1.0000   1.0000   1.0000   1.0000   1.0000   1.0000   1.0000
     1.0000   1.0000   1.0000   1.0000   1.0000   1.0000   1.0000   1.0000
     1.0000   1.0000   1.0000   1.0000   1.0000   1.0000   1.0000   1.0000
     1.0000   1.0000   1.0000   1.0000   1.0000   1.0000   1.0000   1.0000
     1.0000   1.0000   1.0000   1.0000   1.0000   1.0000   1.0000   1.0000
     1.0000   1.0000   1.0000   1.0000   1.0000   1.0000   1.0000   1.0000
     1.0000   1.0000   1.0000   1.0000   1.0000   1.0000   1.0000   1.0000
     1.0000   1.0000   1.0000   1.0000   1.0000   1.0000   1.0000   1.0000
     1.0000   1.0000   1.0000   1.0000   1.0000   1.0000   1.0000   1.0000
     1.0000   1.0000   1.0000   1.0000   1.0000   1.0000   1.0000   1.0000
     1.0000   1.0000   1.0000   1.0000   1.0000   1.0000   1.0000   1.0000
     1.0000   1.0000   1.0000   1.0000   1.0000   1.0000   1.0000   1.0000
     1.0000   1.0000   1.0000   1.0000   1.0000   1.0000   1.0000   1.0000
     1.0000   1.0000   1.0000   1.0000   1.0000   1.0000   1.0000   1.0000
     1.0000   1.0000   1.0000   1.0000   1.0000   1.0000   1.0000   1.0000
     1.0000   1.0000   1.0000   1.0000   1.0000   1.0000   1.0000   1.0000
     1.0000   1.0000   1.0000   1.0000   1.0000   1.0000   1.0000   1.0000
     1.0000   1.0000   1.0000   1.0000   1.0000   1.0000   1.0000   1.0000
     1.0000   1.0000   1.0000   1.0000   1.0000   1.0000   1.0000   1.0000
     1.0000   1.0000   1.0000

          k = 0.2000 0.1155 0.0000 (112171 PWs)   bands (ev):

   -73.8174 -73.8144 -73.8111 -73.8087 -73.8065 -73.8055 -73.8032 -73.8012
   -73.7962 -73.7946 -73.7915 -73.7897 -73.7877 -73.7550 -73.7502 -73.7407
   -38.2200 -38.2161 -38.2124 -38.1702 -38.1666 -38.1634 -38.1584 -38.1471
   -38.1405 -38.1038 -38.0806 -38.0770 -38.0520 -38.0495 -38.0458 -38.0350
   -38.0289 -38.0269 -38.0259 -38.0240 -38.0176 -38.0156 -38.0148 -38.0131
   -38.0050 -38.0004 -37.9983 -37.9968 -37.9942 -37.9920 -37.9900 -37.9870
   -37.9860 -37.9828 -37.9695 -37.9623 -37.9611 -37.9550 -37.9523 -37.9471
   -37.9334 -37.9246 -37.9209 -37.9132 -37.9083 -37.9012 -37.8770 -37.8706
   -21.6884 -15.3459 -14.5580 -13.9773 -13.8027 -13.7897 -13.4795 -13.4772
   -13.3255 -12.9686 -12.7934 -12.7597 -12.6926 -12.6844 -12.6588 -12.5884
   -12.5674 -12.5211 -12.4966 -12.4818 -12.4706 -12.4358 -12.4221 -12.3045
   -12.2954 -12.2657 -12.2483 -12.2096 -12.1933 -12.1736 -12.1718 -12.1490
   -12.0932 -12.0844  -7.8951  -7.6879  -6.2816  -6.2688  -6.2495  -6.2378
    -6.2028  -5.6743  -5.6446  -5.6243  -5.5521  -5.5376  -5.4911  -5.4731
    -5.4460  -5.4254  -5.3726  -5.3291  -5.3156  -5.2845  -5.2769  -5.0792
    -5.0721  -5.0152  -5.0048  -4.9476  -4.7427  -4.7375  -4.5708  -4.5128
    -4.4493  -4.3958  -4.3408  -4.2756  -4.2089  -4.1642  -4.1511  -4.1245
    -4.1010  -4.0579  -4.0418  -4.0048  -3.9838  -3.9143  -3.9112  -3.9008
    -3.6525  -3.5721  -3.5490  -3.5112  -3.4699  -3.4586  -3.4418  -3.3855
    -3.3732  -3.3108  -3.3021  -3.2837  -3.2584  -3.2146  -3.1982  -3.1488
    -3.1101  -3.0034  -2.9615  -2.9140  -2.8309  -2.8079  -2.7817  -2.7541
    -2.7397  -2.7131  -2.6990  -2.6937  -2.6680  -2.6399  -2.6006  -2.5519
    -2.5290  -2.4991  -2.4711  -2.4280  -2.3661  -2.3079  -2.2042  -2.1826
    -2.1229  -2.0908  -2.0211  -2.0019  -1.9741  -1.9704  -1.9322  -1.9101
    -1.9025  -1.8796  -1.8403  -1.8274  -1.8091  -1.7830  -1.7454  -1.7380
    -1.7127  -1.6952  -1.6822  -1.6602  -1.6421  -1.6280  -1.5921  -1.5466
    -1.5344  -1.5066  -1.4616  -1.4471  -1.4267  -1.4065  -1.3582  -1.3129
    -1.3071  -1.2985  -1.2524  -1.2116  -1.1701  -1.0636  -1.0454  -1.0247
    -0.9006  -0.7678  -0.7595  -0.7564  -0.5980  -0.5638  -0.5496  -0.5344
    -0.5228  -0.5170  -0.4116  -0.3855  -0.3569  -0.2660  -0.1702  -0.1510
     0.1756   1.2765   1.5474

     occupation numbers 
     1.0000   1.0000   1.0000   1.0000   1.0000   1.0000   1.0000   1.0000
     1.0000   1.0000   1.0000   1.0000   1.0000   1.0000   1.0000   1.0000
     1.0000   1.0000   1.0000   1.0000   1.0000   1.0000   1.0000   1.0000
     1.0000   1.0000   1.0000   1.0000   1.0000   1.0000   1.0000   1.0000
     1.0000   1.0000   1.0000   1.0000   1.0000   1.0000   1.0000   1.0000
     1.0000   1.0000   1.0000   1.0000   1.0000   1.0000   1.0000   1.0000
     1.0000   1.0000   1.0000   1.0000   1.0000   1.0000   1.0000   1.0000
     1.0000   1.0000   1.0000   1.0000   1.0000   1.0000   1.0000   1.0000
     1.0000   1.0000   1.0000   1.0000   1.0000   1.0000   1.0000   1.0000
     1.0000   1.0000   1.0000   1.0000   1.0000   1.0000   1.0000   1.0000
     1.0000   1.0000   1.0000   1.0000   1.0000   1.0000   1.0000   1.0000
     1.0000   1.0000   1.0000   1.0000   1.0000   1.0000   1.0000   1.0000
     1.0000   1.0000   1.0000   1.0000   1.0000   1.0000   1.0000   1.0000
     1.0000   1.0000   1.0000   1.0000   1.0000   1.0000   1.0000   1.0000
     1.0000   1.0000   1.0000   1.0000   1.0000   1.0000   1.0000   1.0000
     1.0000   1.0000   1.0000   1.0000   1.0000   1.0000   1.0000   1.0000
     1.0000   1.0000   1.0000   1.0000   1.0000   1.0000   1.0000   1.0000
     1.0000   1.0000   1.0000   1.0000   1.0000   1.0000   1.0000   1.0000
     1.0000   1.0000   1.0000   1.0000   1.0000   1.0000   1.0000   1.0000
     1.0000   1.0000   1.0000   1.0000   1.0000   1.0000   1.0000   1.0000
     1.0000   1.0000   1.0000   1.0000   1.0000   1.0000   1.0000   1.0000
     1.0000   1.0000   1.0000   1.0000   1.0000   1.0000   1.0000   1.0000
     1.0000   1.0000   1.0000   1.0000   1.0000   1.0000   1.0000   1.0000
     1.0000   1.0000   1.0000   1.0000   1.0000   1.0000   1.0000   1.0000
     1.0000   1.0000   1.0000   1.0000   1.0000   1.0000   1.0000   1.0000
     1.0000   1.0000   1.0000   1.0000   1.0000   1.0000   1.0000   1.0000
     1.0000   1.0000   1.0000   1.0000   1.0000   1.0000   1.0000   1.0000
     1.0000   1.0000   1.0000   1.0000   1.0000   1.0000   1.0000   1.0000
     1.0000   1.0000   1.0000   1.0000   1.0000   1.0000   1.0000   1.0000
     1.0000   1.0000   1.0000   1.0000   1.0000   1.0000   1.0000   1.0000
     1.0000   1.0000   1.0000

          k =-0.4000 0.2309 0.0000 (112236 PWs)   bands (ev):

   -73.8172 -73.8145 -73.8112 -73.8094 -73.8063 -73.8049 -73.8034 -73.8011
   -73.7963 -73.7946 -73.7916 -73.7896 -73.7878 -73.7550 -73.7502 -73.7407
   -38.2083 -38.2025 -38.1910 -38.1847 -38.1837 -38.1649 -38.1618 -38.1477
   -38.1310 -38.1246 -38.1065 -38.1016 -38.0637 -38.0586 -38.0477 -38.0405
   -38.0298 -38.0253 -38.0151 -38.0129 -38.0101 -38.0088 -38.0048 -38.0003
   -37.9992 -37.9981 -37.9959 -37.9933 -37.9882 -37.9865 -37.9829 -37.9800
   -37.9758 -37.9701 -37.9667 -37.9659 -37.9539 -37.9519 -37.9500 -37.9474
   -37.9452 -37.9389 -37.9304 -37.9177 -37.9097 -37.8928 -37.8911 -37.8768
   -21.6884 -15.3459 -14.4368 -14.2337 -13.8706 -13.8588 -13.2505 -13.2449
   -13.0260 -12.9986 -12.9762 -12.9118 -12.8334 -12.7342 -12.7047 -12.6860
   -12.5375 -12.5103 -12.4627 -12.4538 -12.4314 -12.4241 -12.3874 -12.3643
   -12.3538 -12.2830 -12.2230 -12.2011 -12.1767 -12.1623 -12.1556 -12.1530
   -12.0571 -12.0409  -7.8951  -7.6879  -6.2170  -6.1357  -6.1173  -6.0907
    -6.0239  -5.8778  -5.8574  -5.8407  -5.7127  -5.5355  -5.5124  -5.4912
    -5.4555  -5.4479  -5.4386  -5.3902  -5.3808  -5.3184  -5.3110  -5.0836
    -5.0592  -5.0249  -5.0067  -4.8060  -4.6107  -4.5583  -4.4834  -4.4435
    -4.4151  -4.3747  -4.3536  -4.3126  -4.2478  -4.2238  -4.1969  -4.1630
    -4.1236  -4.1153  -4.1030  -4.0762  -4.0699  -4.0553  -4.0441  -3.6835
    -3.5690  -3.5243  -3.4795  -3.4603  -3.4266  -3.4001  -3.3601  -3.3198
    -3.2975  -3.2822  -3.2618  -3.2436  -3.2162  -3.2006  -3.1517  -3.1171
    -3.0742  -3.0486  -3.0160  -2.9740  -2.9396  -2.9074  -2.8412  -2.7819
    -2.7417  -2.7160  -2.6656  -2.6324  -2.6154  -2.5873  -2.5501  -2.4981
    -2.4325  -2.4280  -2.4001  -2.3378  -2.2871  -2.2552  -2.2458  -2.1784
    -2.1257  -2.1177  -2.0619  -2.0337  -2.0198  -1.9963  -1.9666  -1.9380
    -1.9197  -1.9026  -1.8921  -1.8717  -1.8666  -1.8537  -1.8405  -1.8257
    -1.7922  -1.7619  -1.7191  -1.7001  -1.6959  -1.6737  -1.6545  -1.6165
    -1.5941  -1.5657  -1.5073  -1.4797  -1.4539  -1.3616  -1.3338  -1.3039
    -1.2680  -1.2229  -1.1754  -1.1304  -1.1214  -1.1029  -1.0770  -0.9884
    -0.9687  -0.8814  -0.7376  -0.7219  -0.6429  -0.6256  -0.5102  -0.4577
    -0.4519  -0.4267  -0.4058  -0.3790  -0.3053  -0.1030  -0.0010   0.0294
     0.1211   1.3280   1.5529

     occupation numbers 
     1.0000   1.0000   1.0000   1.0000   1.0000   1.0000   1.0000   1.0000
     1.0000   1.0000   1.0000   1.0000   1.0000   1.0000   1.0000   1.0000
     1.0000   1.0000   1.0000   1.0000   1.0000   1.0000   1.0000   1.0000
     1.0000   1.0000   1.0000   1.0000   1.0000   1.0000   1.0000   1.0000
     1.0000   1.0000   1.0000   1.0000   1.0000   1.0000   1.0000   1.0000
     1.0000   1.0000   1.0000   1.0000   1.0000   1.0000   1.0000   1.0000
     1.0000   1.0000   1.0000   1.0000   1.0000   1.0000   1.0000   1.0000
     1.0000   1.0000   1.0000   1.0000   1.0000   1.0000   1.0000   1.0000
     1.0000   1.0000   1.0000   1.0000   1.0000   1.0000   1.0000   1.0000
     1.0000   1.0000   1.0000   1.0000   1.0000   1.0000   1.0000   1.0000
     1.0000   1.0000   1.0000   1.0000   1.0000   1.0000   1.0000   1.0000
     1.0000   1.0000   1.0000   1.0000   1.0000   1.0000   1.0000   1.0000
     1.0000   1.0000   1.0000   1.0000   1.0000   1.0000   1.0000   1.0000
     1.0000   1.0000   1.0000   1.0000   1.0000   1.0000   1.0000   1.0000
     1.0000   1.0000   1.0000   1.0000   1.0000   1.0000   1.0000   1.0000
     1.0000   1.0000   1.0000   1.0000   1.0000   1.0000   1.0000   1.0000
     1.0000   1.0000   1.0000   1.0000   1.0000   1.0000   1.0000   1.0000
     1.0000   1.0000   1.0000   1.0000   1.0000   1.0000   1.0000   1.0000
     1.0000   1.0000   1.0000   1.0000   1.0000   1.0000   1.0000   1.0000
     1.0000   1.0000   1.0000   1.0000   1.0000   1.0000   1.0000   1.0000
     1.0000   1.0000   1.0000   1.0000   1.0000   1.0000   1.0000   1.0000
     1.0000   1.0000   1.0000   1.0000   1.0000   1.0000   1.0000   1.0000
     1.0000   1.0000   1.0000   1.0000   1.0000   1.0000   1.0000   1.0000
     1.0000   1.0000   1.0000   1.0000   1.0000   1.0000   1.0000   1.0000
     1.0000   1.0000   1.0000   1.0000   1.0000   1.0000   1.0000   1.0000
     1.0000   1.0000   1.0000   1.0000   1.0000   1.0000   1.0000   1.0000
     1.0000   1.0000   1.0000   1.0000   1.0000   1.0000   1.0000   1.0000
     1.0000   1.0000   1.0000   1.0000   1.0000   1.0000   1.0000   1.0000
     1.0000   1.0000   1.0000   1.0000   1.0000   1.0000   1.0000   1.0000
     1.0000   1.0000   1.0000   1.0000   1.0000   1.0000   1.0000   1.0000
     1.0000   1.0000   1.0000

          k = 0.4000 0.2309 0.0000 (112236 PWs)   bands (ev):

   -73.8169 -73.8150 -73.8111 -73.8088 -73.8064 -73.8051 -73.8035 -73.8012
   -73.7960 -73.7948 -73.7913 -73.7898 -73.7877 -73.7550 -73.7502 -73.7407
   -38.2066 -38.2046 -38.1907 -38.1874 -38.1810 -38.1638 -38.1622 -38.1476
   -38.1305 -38.1251 -38.1071 -38.1020 -38.0632 -38.0596 -38.0475 -38.0407
   -38.0290 -38.0254 -38.0143 -38.0120 -38.0113 -38.0101 -38.0049 -38.0006
   -37.9984 -37.9971 -37.9954 -37.9921 -37.9901 -37.9866 -37.9827 -37.9800
   -37.9772 -37.9699 -37.9673 -37.9648 -37.9534 -37.9510 -37.9505 -37.9472
   -37.9453 -37.9379 -37.9305 -37.9185 -37.9101 -37.8946 -37.8922 -37.8744
   -21.6884 -15.3459 -14.4366 -14.2339 -13.8699 -13.8594 -13.2504 -13.2459
   -13.0226 -12.9986 -12.9782 -12.9110 -12.8343 -12.7318 -12.7066 -12.6868
   -12.5443 -12.5031 -12.4669 -12.4514 -12.4304 -12.4243 -12.3877 -12.3629
   -12.3514 -12.2829 -12.2298 -12.1990 -12.1786 -12.1613 -12.1561 -12.1505
   -12.0541 -12.0435  -7.8951  -7.6879  -6.2170  -6.1280  -6.1171  -6.0906
    -6.0378  -5.8705  -5.8571  -5.8374  -5.7177  -5.5366  -5.5109  -5.4941
    -5.4501  -5.4494  -5.4412  -5.3896  -5.3841  -5.3163  -5.3101  -5.0748
    -5.0709  -5.0232  -5.0115  -4.7782  -4.6241  -4.5622  -4.4919  -4.4537
    -4.4213  -4.3737  -4.3517  -4.3066  -4.2420  -4.2281  -4.1927  -4.1605
    -4.1270  -4.1168  -4.1042  -4.0780  -4.0649  -4.0529  -4.0446  -3.6690
    -3.5630  -3.5264  -3.4703  -3.4524  -3.4321  -3.4028  -3.3627  -3.3287
    -3.2929  -3.2819  -3.2565  -3.2415  -3.2206  -3.2064  -3.1413  -3.1202
    -3.0922  -3.0587  -3.0224  -2.9724  -2.9415  -2.9076  -2.8516  -2.7803
    -2.7466  -2.6928  -2.6593  -2.6319  -2.6222  -2.6022  -2.5202  -2.4954
    -2.4631  -2.4335  -2.3768  -2.3359  -2.2791  -2.2617  -2.2475  -2.1627
    -2.1253  -2.1186  -2.0469  -2.0182  -2.0124  -1.9888  -1.9813  -1.9658
    -1.9420  -1.9072  -1.8964  -1.8708  -1.8585  -1.8495  -1.8407  -1.8254
    -1.8087  -1.7485  -1.7341  -1.7129  -1.6986  -1.6518  -1.6375  -1.6290
    -1.6009  -1.5584  -1.5151  -1.5018  -1.4278  -1.3653  -1.3157  -1.2964
    -1.2633  -1.2391  -1.1944  -1.1366  -1.1206  -1.0670  -1.0515  -1.0011
    -0.9785  -0.8920  -0.7328  -0.7281  -0.6416  -0.6320  -0.5202  -0.4614
    -0.4506  -0.4249  -0.4068  -0.3691  -0.2988  -0.1047   0.0004   0.0253
     0.1242   1.3110   1.5736

     occupation numbers 
     1.0000   1.0000   1.0000   1.0000   1.0000   1.0000   1.0000   1.0000
     1.0000   1.0000   1.0000   1.0000   1.0000   1.0000   1.0000   1.0000
     1.0000   1.0000   1.0000   1.0000   1.0000   1.0000   1.0000   1.0000
     1.0000   1.0000   1.0000   1.0000   1.0000   1.0000   1.0000   1.0000
     1.0000   1.0000   1.0000   1.0000   1.0000   1.0000   1.0000   1.0000
     1.0000   1.0000   1.0000   1.0000   1.0000   1.0000   1.0000   1.0000
     1.0000   1.0000   1.0000   1.0000   1.0000   1.0000   1.0000   1.0000
     1.0000   1.0000   1.0000   1.0000   1.0000   1.0000   1.0000   1.0000
     1.0000   1.0000   1.0000   1.0000   1.0000   1.0000   1.0000   1.0000
     1.0000   1.0000   1.0000   1.0000   1.0000   1.0000   1.0000   1.0000
     1.0000   1.0000   1.0000   1.0000   1.0000   1.0000   1.0000   1.0000
     1.0000   1.0000   1.0000   1.0000   1.0000   1.0000   1.0000   1.0000
     1.0000   1.0000   1.0000   1.0000   1.0000   1.0000   1.0000   1.0000
     1.0000   1.0000   1.0000   1.0000   1.0000   1.0000   1.0000   1.0000
     1.0000   1.0000   1.0000   1.0000   1.0000   1.0000   1.0000   1.0000
     1.0000   1.0000   1.0000   1.0000   1.0000   1.0000   1.0000   1.0000
     1.0000   1.0000   1.0000   1.0000   1.0000   1.0000   1.0000   1.0000
     1.0000   1.0000   1.0000   1.0000   1.0000   1.0000   1.0000   1.0000
     1.0000   1.0000   1.0000   1.0000   1.0000   1.0000   1.0000   1.0000
     1.0000   1.0000   1.0000   1.0000   1.0000   1.0000   1.0000   1.0000
     1.0000   1.0000   1.0000   1.0000   1.0000   1.0000   1.0000   1.0000
     1.0000   1.0000   1.0000   1.0000   1.0000   1.0000   1.0000   1.0000
     1.0000   1.0000   1.0000   1.0000   1.0000   1.0000   1.0000   1.0000
     1.0000   1.0000   1.0000   1.0000   1.0000   1.0000   1.0000   1.0000
     1.0000   1.0000   1.0000   1.0000   1.0000   1.0000   1.0000   1.0000
     1.0000   1.0000   1.0000   1.0000   1.0000   1.0000   1.0000   1.0000
     1.0000   1.0000   1.0000   1.0000   1.0000   1.0000   1.0000   1.0000
     1.0000   1.0000   1.0000   1.0000   1.0000   1.0000   1.0000   1.0000
     1.0000   1.0000   1.0000   1.0000   1.0000   1.0000   1.0000   1.0000
     1.0000   1.0000   1.0000   1.0000   1.0000   1.0000   1.0000   1.0000
     1.0000   1.0000   1.0000

          k =-0.2000 0.3464 0.0000 (112231 PWs)   bands (ev):

   -73.8172 -73.8145 -73.8112 -73.8092 -73.8062 -73.8053 -73.8032 -73.8010
   -73.7965 -73.7945 -73.7915 -73.7897 -73.7877 -73.7550 -73.7502 -73.7407
   -38.2128 -38.2027 -38.2013 -38.1798 -38.1762 -38.1649 -38.1561 -38.1499
   -38.1334 -38.1261 -38.1136 -38.0776 -38.0615 -38.0561 -38.0485 -38.0378
   -38.0328 -38.0291 -38.0257 -38.0209 -38.0167 -38.0088 -38.0041 -38.0003
   -37.9968 -37.9938 -37.9919 -37.9890 -37.9869 -37.9845 -37.9828 -37.9816
   -37.9772 -37.9741 -37.9701 -37.9657 -37.9589 -37.9559 -37.9524 -37.9477
   -37.9421 -37.9330 -37.9273 -37.9221 -37.9040 -37.8991 -37.8872 -37.8738
   -21.6884 -15.3459 -14.4762 -14.1038 -14.0606 -13.5749 -13.5579 -13.1765
   -13.1200 -13.0105 -12.9362 -12.8093 -12.7923 -12.7074 -12.6735 -12.6208
   -12.5861 -12.5777 -12.5697 -12.4559 -12.4270 -12.3947 -12.3803 -12.3112
   -12.2927 -12.2749 -12.2523 -12.2275 -12.2237 -12.1575 -12.1507 -12.1092
   -12.0963 -12.0363  -7.8951  -7.6879  -6.2196  -6.1888  -6.1515  -6.1234
    -6.1043  -5.7702  -5.7392  -5.7180  -5.7008  -5.6275  -5.6035  -5.5651
    -5.5089  -5.4772  -5.3575  -5.3323  -5.3013  -5.2666  -5.2432  -5.2224
    -5.0989  -4.9153  -4.8959  -4.7980  -4.7571  -4.6104  -4.5189  -4.4493
    -4.3969  -4.3459  -4.3366  -4.3107  -4.2818  -4.2620  -4.2470  -4.2288
    -4.1655  -4.1314  -4.1125  -4.0944  -4.0553  -3.7741  -3.7413  -3.7300
    -3.7098  -3.6933  -3.6029  -3.5095  -3.4243  -3.3839  -3.3745  -3.3091
    -3.2922  -3.2431  -3.2343  -3.2053  -3.1679  -3.1487  -3.1285  -3.0852
    -3.0637  -3.0136  -2.9757  -2.9468  -2.9343  -2.9283  -2.9244  -2.9032
    -2.7991  -2.7396  -2.7202  -2.6781  -2.6310  -2.5577  -2.5284  -2.4781
    -2.4630  -2.4106  -2.3918  -2.3630  -2.3235  -2.2226  -2.1988  -2.1587
    -2.1385  -2.1249  -2.1093  -2.0814  -2.0395  -1.9917  -1.9849  -1.9454
    -1.9216  -1.9031  -1.8708  -1.8568  -1.8276  -1.8194  -1.7986  -1.7767
    -1.7482  -1.7114  -1.7053  -1.6820  -1.6571  -1.6403  -1.5909  -1.5852
    -1.5627  -1.5498  -1.5327  -1.5129  -1.4443  -1.3988  -1.3869  -1.3480
    -1.2916  -1.2500  -1.1978  -1.1748  -1.1598  -1.1191  -1.0479  -0.9977
    -0.8776  -0.8390  -0.6886  -0.6728  -0.6394  -0.6295  -0.6118  -0.5445
    -0.5378  -0.4284  -0.3872  -0.2593  -0.2079  -0.2006  -0.1624   0.0711
     0.1377   1.2907   1.5795

     occupation numbers 
     1.0000   1.0000   1.0000   1.0000   1.0000   1.0000   1.0000   1.0000
     1.0000   1.0000   1.0000   1.0000   1.0000   1.0000   1.0000   1.0000
     1.0000   1.0000   1.0000   1.0000   1.0000   1.0000   1.0000   1.0000
     1.0000   1.0000   1.0000   1.0000   1.0000   1.0000   1.0000   1.0000
     1.0000   1.0000   1.0000   1.0000   1.0000   1.0000   1.0000   1.0000
     1.0000   1.0000   1.0000   1.0000   1.0000   1.0000   1.0000   1.0000
     1.0000   1.0000   1.0000   1.0000   1.0000   1.0000   1.0000   1.0000
     1.0000   1.0000   1.0000   1.0000   1.0000   1.0000   1.0000   1.0000
     1.0000   1.0000   1.0000   1.0000   1.0000   1.0000   1.0000   1.0000
     1.0000   1.0000   1.0000   1.0000   1.0000   1.0000   1.0000   1.0000
     1.0000   1.0000   1.0000   1.0000   1.0000   1.0000   1.0000   1.0000
     1.0000   1.0000   1.0000   1.0000   1.0000   1.0000   1.0000   1.0000
     1.0000   1.0000   1.0000   1.0000   1.0000   1.0000   1.0000   1.0000
     1.0000   1.0000   1.0000   1.0000   1.0000   1.0000   1.0000   1.0000
     1.0000   1.0000   1.0000   1.0000   1.0000   1.0000   1.0000   1.0000
     1.0000   1.0000   1.0000   1.0000   1.0000   1.0000   1.0000   1.0000
     1.0000   1.0000   1.0000   1.0000   1.0000   1.0000   1.0000   1.0000
     1.0000   1.0000   1.0000   1.0000   1.0000   1.0000   1.0000   1.0000
     1.0000   1.0000   1.0000   1.0000   1.0000   1.0000   1.0000   1.0000
     1.0000   1.0000   1.0000   1.0000   1.0000   1.0000   1.0000   1.0000
     1.0000   1.0000   1.0000   1.0000   1.0000   1.0000   1.0000   1.0000
     1.0000   1.0000   1.0000   1.0000   1.0000   1.0000   1.0000   1.0000
     1.0000   1.0000   1.0000   1.0000   1.0000   1.0000   1.0000   1.0000
     1.0000   1.0000   1.0000   1.0000   1.0000   1.0000   1.0000   1.0000
     1.0000   1.0000   1.0000   1.0000   1.0000   1.0000   1.0000   1.0000
     1.0000   1.0000   1.0000   1.0000   1.0000   1.0000   1.0000   1.0000
     1.0000   1.0000   1.0000   1.0000   1.0000   1.0000   1.0000   1.0000
     1.0000   1.0000   1.0000   1.0000   1.0000   1.0000   1.0000   1.0000
     1.0000   1.0000   1.0000   1.0000   1.0000   1.0000   1.0000   1.0000
     1.0000   1.0000   1.0000   1.0000   1.0000   1.0000   1.0000   1.0000
     1.0000   1.0000   1.0000

          k = 0.4000-0.0000 0.0000 (112231 PWs)   bands (ev):

   -73.8171 -73.8146 -73.8112 -73.8091 -73.8064 -73.8050 -73.8035 -73.8011
   -73.7961 -73.7947 -73.7915 -73.7897 -73.7877 -73.7550 -73.7502 -73.7407
   -38.2128 -38.2034 -38.2002 -38.1796 -38.1764 -38.1662 -38.1566 -38.1500
   -38.1326 -38.1246 -38.1131 -38.0774 -38.0623 -38.0567 -38.0483 -38.0384
   -38.0313 -38.0293 -38.0258 -38.0224 -38.0146 -38.0098 -38.0045 -37.9991
   -37.9967 -37.9941 -37.9918 -37.9895 -37.9883 -37.9857 -37.9826 -37.9806
   -37.9757 -37.9752 -37.9699 -37.9660 -37.9589 -37.9554 -37.9521 -37.9474
   -37.9427 -37.9323 -37.9284 -37.9227 -37.9022 -37.8988 -37.8861 -37.8757
   -21.6884 -15.3459 -14.4764 -14.1002 -14.0642 -13.5693 -13.5642 -13.1715
   -13.1233 -13.0144 -12.9300 -12.8053 -12.7964 -12.7120 -12.6826 -12.6031
   -12.6002 -12.5748 -12.5617 -12.4576 -12.4243 -12.4135 -12.3655 -12.3083
   -12.2938 -12.2718 -12.2550 -12.2354 -12.2208 -12.1583 -12.1482 -12.1071
   -12.0978 -12.0367  -7.8951  -7.6879  -6.2191  -6.1825  -6.1580  -6.1204
    -6.1097  -5.7597  -5.7440  -5.7220  -5.6890  -5.6379  -5.6099  -5.5627
    -5.5068  -5.4744  -5.3530  -5.3362  -5.2939  -5.2729  -5.2457  -5.2306
    -5.0985  -4.9031  -4.8878  -4.8115  -4.7573  -4.5735  -4.5404  -4.4672
    -4.4111  -4.3480  -4.3392  -4.3145  -4.2768  -4.2656  -4.2448  -4.2120
    -4.1764  -4.1188  -4.1114  -4.0911  -4.0554  -3.7632  -3.7359  -3.7288
    -3.7090  -3.6998  -3.6167  -3.4842  -3.4318  -3.4038  -3.3736  -3.3263
    -3.2855  -3.2474  -3.2377  -3.2038  -3.1780  -3.1457  -3.1285  -3.0830
    -3.0448  -3.0064  -2.9705  -2.9532  -2.9424  -2.9243  -2.9091  -2.9015
    -2.7906  -2.7526  -2.7239  -2.6624  -2.6340  -2.5779  -2.5416  -2.4710
    -2.4645  -2.4216  -2.3883  -2.3478  -2.3212  -2.2282  -2.1820  -2.1625
    -2.1328  -2.1259  -2.1071  -2.1011  -2.0148  -1.9959  -1.9780  -1.9515
    -1.9284  -1.9022  -1.8844  -1.8663  -1.8543  -1.8232  -1.7929  -1.7698
    -1.7345  -1.7151  -1.6954  -1.6762  -1.6627  -1.6307  -1.5969  -1.5742
    -1.5585  -1.5489  -1.5344  -1.5071  -1.4512  -1.4140  -1.3714  -1.3417
    -1.2894  -1.2686  -1.2033  -1.1800  -1.1525  -1.1089  -1.0495  -0.9960
    -0.8691  -0.8512  -0.6832  -0.6761  -0.6404  -0.6244  -0.6162  -0.5424
    -0.5369  -0.4429  -0.3846  -0.2540  -0.2087  -0.1955  -0.1640   0.0684
     0.1376   1.3204   1.5485

     occupation numbers 
     1.0000   1.0000   1.0000   1.0000   1.0000   1.0000   1.0000   1.0000
     1.0000   1.0000   1.0000   1.0000   1.0000   1.0000   1.0000   1.0000
     1.0000   1.0000   1.0000   1.0000   1.0000   1.0000   1.0000   1.0000
     1.0000   1.0000   1.0000   1.0000   1.0000   1.0000   1.0000   1.0000
     1.0000   1.0000   1.0000   1.0000   1.0000   1.0000   1.0000   1.0000
     1.0000   1.0000   1.0000   1.0000   1.0000   1.0000   1.0000   1.0000
     1.0000   1.0000   1.0000   1.0000   1.0000   1.0000   1.0000   1.0000
     1.0000   1.0000   1.0000   1.0000   1.0000   1.0000   1.0000   1.0000
     1.0000   1.0000   1.0000   1.0000   1.0000   1.0000   1.0000   1.0000
     1.0000   1.0000   1.0000   1.0000   1.0000   1.0000   1.0000   1.0000
     1.0000   1.0000   1.0000   1.0000   1.0000   1.0000   1.0000   1.0000
     1.0000   1.0000   1.0000   1.0000   1.0000   1.0000   1.0000   1.0000
     1.0000   1.0000   1.0000   1.0000   1.0000   1.0000   1.0000   1.0000
     1.0000   1.0000   1.0000   1.0000   1.0000   1.0000   1.0000   1.0000
     1.0000   1.0000   1.0000   1.0000   1.0000   1.0000   1.0000   1.0000
     1.0000   1.0000   1.0000   1.0000   1.0000   1.0000   1.0000   1.0000
     1.0000   1.0000   1.0000   1.0000   1.0000   1.0000   1.0000   1.0000
     1.0000   1.0000   1.0000   1.0000   1.0000   1.0000   1.0000   1.0000
     1.0000   1.0000   1.0000   1.0000   1.0000   1.0000   1.0000   1.0000
     1.0000   1.0000   1.0000   1.0000   1.0000   1.0000   1.0000   1.0000
     1.0000   1.0000   1.0000   1.0000   1.0000   1.0000   1.0000   1.0000
     1.0000   1.0000   1.0000   1.0000   1.0000   1.0000   1.0000   1.0000
     1.0000   1.0000   1.0000   1.0000   1.0000   1.0000   1.0000   1.0000
     1.0000   1.0000   1.0000   1.0000   1.0000   1.0000   1.0000   1.0000
     1.0000   1.0000   1.0000   1.0000   1.0000   1.0000   1.0000   1.0000
     1.0000   1.0000   1.0000   1.0000   1.0000   1.0000   1.0000   1.0000
     1.0000   1.0000   1.0000   1.0000   1.0000   1.0000   1.0000   1.0000
     1.0000   1.0000   1.0000   1.0000   1.0000   1.0000   1.0000   1.0000
     1.0000   1.0000   1.0000   1.0000   1.0000   1.0000   1.0000   1.0000
     1.0000   1.0000   1.0000   1.0000   1.0000   1.0000   1.0000   1.0000
     1.0000   1.0000   1.0000

          k =-0.4000 0.4619 0.0000 (112237 PWs)   bands (ev):

   -73.8170 -73.8147 -73.8112 -73.8093 -73.8062 -73.8049 -73.8035 -73.8011
   -73.7963 -73.7946 -73.7915 -73.7897 -73.7877 -73.7550 -73.7502 -73.7407
   -38.2024 -38.1956 -38.1862 -38.1828 -38.1802 -38.1739 -38.1665 -38.1496
   -38.1468 -38.1332 -38.0949 -38.0907 -38.0855 -38.0526 -38.0453 -38.0418
   -38.0336 -38.0318 -38.0216 -38.0134 -38.0087 -38.0058 -38.0041 -38.0007
   -37.9996 -37.9969 -37.9941 -37.9886 -37.9864 -37.9827 -37.9753 -37.9722
   -37.9701 -37.9685 -37.9617 -37.9583 -37.9552 -37.9535 -37.9504 -37.9483
   -37.9461 -37.9387 -37.9344 -37.9275 -37.9154 -37.8966 -37.8859 -37.8801
   -21.6884 -15.3459 -14.3400 -14.2900 -14.1165 -13.5973 -13.2992 -13.2955
   -12.9624 -12.9503 -12.8874 -12.8575 -12.8284 -12.8018 -12.7970 -12.6664
   -12.6350 -12.5968 -12.4948 -12.4843 -12.3887 -12.3763 -12.3489 -12.3267
   -12.3101 -12.2979 -12.2618 -12.2355 -12.2301 -12.1346 -12.1206 -12.1156
   -12.0806 -12.0171  -7.8951  -7.6879  -6.2156  -6.0620  -6.0260  -5.9704
    -5.9160  -5.8913  -5.8783  -5.8604  -5.8089  -5.7455  -5.6902  -5.6267
    -5.6112  -5.5421  -5.3587  -5.2875  -5.2485  -5.2176  -5.2027  -5.1696
    -5.1585  -4.8554  -4.8337  -4.7469  -4.6212  -4.5911  -4.5455  -4.5261
    -4.4924  -4.4277  -4.3854  -4.3268  -4.3093  -4.2430  -4.2280  -4.2099
    -4.1944  -4.1648  -4.1211  -4.0953  -3.9580  -3.9479  -3.7920  -3.6697
    -3.6176  -3.5897  -3.4344  -3.3962  -3.3638  -3.3266  -3.3074  -3.2818
    -3.2781  -3.2679  -3.2426  -3.2323  -3.2205  -3.2146  -3.1499  -3.1219
    -3.0981  -3.0851  -3.0597  -3.0465  -2.9978  -2.9535  -2.8518  -2.8121
    -2.7438  -2.7315  -2.7119  -2.6828  -2.6314  -2.5795  -2.5098  -2.4190
    -2.3981  -2.3317  -2.3235  -2.3179  -2.2689  -2.1995  -2.1748  -2.1572
    -2.1466  -2.0901  -2.0795  -2.0530  -2.0294  -1.9798  -1.9694  -1.9495
    -1.9333  -1.9186  -1.8954  -1.8847  -1.8692  -1.8557  -1.8457  -1.8429
    -1.8191  -1.7958  -1.7583  -1.7281  -1.7053  -1.6950  -1.6735  -1.6546
    -1.6277  -1.5863  -1.5368  -1.5058  -1.4851  -1.4622  -1.4217  -1.3186
    -1.2846  -1.2372  -1.1707  -1.1172  -1.0934  -1.0726  -1.0442  -0.9674
    -0.8152  -0.7890  -0.7034  -0.6926  -0.6589  -0.6471  -0.6007  -0.5845
    -0.5683  -0.4135  -0.2819  -0.2756  -0.1802  -0.1203  -0.0784   0.0897
     0.1860   1.3288   1.5657

     occupation numbers 
     1.0000   1.0000   1.0000   1.0000   1.0000   1.0000   1.0000   1.0000
     1.0000   1.0000   1.0000   1.0000   1.0000   1.0000   1.0000   1.0000
     1.0000   1.0000   1.0000   1.0000   1.0000   1.0000   1.0000   1.0000
     1.0000   1.0000   1.0000   1.0000   1.0000   1.0000   1.0000   1.0000
     1.0000   1.0000   1.0000   1.0000   1.0000   1.0000   1.0000   1.0000
     1.0000   1.0000   1.0000   1.0000   1.0000   1.0000   1.0000   1.0000
     1.0000   1.0000   1.0000   1.0000   1.0000   1.0000   1.0000   1.0000
     1.0000   1.0000   1.0000   1.0000   1.0000   1.0000   1.0000   1.0000
     1.0000   1.0000   1.0000   1.0000   1.0000   1.0000   1.0000   1.0000
     1.0000   1.0000   1.0000   1.0000   1.0000   1.0000   1.0000   1.0000
     1.0000   1.0000   1.0000   1.0000   1.0000   1.0000   1.0000   1.0000
     1.0000   1.0000   1.0000   1.0000   1.0000   1.0000   1.0000   1.0000
     1.0000   1.0000   1.0000   1.0000   1.0000   1.0000   1.0000   1.0000
     1.0000   1.0000   1.0000   1.0000   1.0000   1.0000   1.0000   1.0000
     1.0000   1.0000   1.0000   1.0000   1.0000   1.0000   1.0000   1.0000
     1.0000   1.0000   1.0000   1.0000   1.0000   1.0000   1.0000   1.0000
     1.0000   1.0000   1.0000   1.0000   1.0000   1.0000   1.0000   1.0000
     1.0000   1.0000   1.0000   1.0000   1.0000   1.0000   1.0000   1.0000
     1.0000   1.0000   1.0000   1.0000   1.0000   1.0000   1.0000   1.0000
     1.0000   1.0000   1.0000   1.0000   1.0000   1.0000   1.0000   1.0000
     1.0000   1.0000   1.0000   1.0000   1.0000   1.0000   1.0000   1.0000
     1.0000   1.0000   1.0000   1.0000   1.0000   1.0000   1.0000   1.0000
     1.0000   1.0000   1.0000   1.0000   1.0000   1.0000   1.0000   1.0000
     1.0000   1.0000   1.0000   1.0000   1.0000   1.0000   1.0000   1.0000
     1.0000   1.0000   1.0000   1.0000   1.0000   1.0000   1.0000   1.0000
     1.0000   1.0000   1.0000   1.0000   1.0000   1.0000   1.0000   1.0000
     1.0000   1.0000   1.0000   1.0000   1.0000   1.0000   1.0000   1.0000
     1.0000   1.0000   1.0000   1.0000   1.0000   1.0000   1.0000   1.0000
     1.0000   1.0000   1.0000   1.0000   1.0000   1.0000   1.0000   1.0000
     1.0000   1.0000   1.0000   1.0000   1.0000   1.0000   1.0000   1.0000
     1.0000   1.0000   1.0000

          k = 0.6000 0.1155 0.0000 (112237 PWs)   bands (ev):

   -73.8169 -73.8150 -73.8112 -73.8089 -73.8063 -73.8050 -73.8035 -73.8011
   -73.7962 -73.7947 -73.7913 -73.7898 -73.7877 -73.7550 -73.7502 -73.7407
   -38.2011 -38.1972 -38.1870 -38.1843 -38.1774 -38.1739 -38.1660 -38.1494
   -38.1476 -38.1330 -38.0943 -38.0927 -38.0851 -38.0522 -38.0454 -38.0415
   -38.0337 -38.0320 -38.0212 -38.0127 -38.0095 -38.0065 -38.0035 -38.0011
   -38.0001 -37.9954 -37.9938 -37.9895 -37.9866 -37.9826 -37.9752 -37.9723
   -37.9700 -37.9693 -37.9615 -37.9582 -37.9556 -37.9537 -37.9508 -37.9481
   -37.9422 -37.9394 -37.9326 -37.9299 -37.9165 -37.8974 -37.8874 -37.8778
   -21.6884 -15.3459 -14.3393 -14.2908 -14.1163 -13.5973 -13.3065 -13.2883
   -12.9684 -12.9443 -12.8824 -12.8610 -12.8287 -12.8022 -12.7976 -12.6690
   -12.6339 -12.5950 -12.5047 -12.4742 -12.3954 -12.3729 -12.3450 -12.3221
   -12.3110 -12.3001 -12.2650 -12.2359 -12.2310 -12.1325 -12.1215 -12.1160
   -12.0798 -12.0174  -7.8951  -7.6879  -6.2156  -6.0590  -6.0209  -5.9695
    -5.9295  -5.9076  -5.8777  -5.8360  -5.8081  -5.7506  -5.6921  -5.6245
    -5.6134  -5.5386  -5.3576  -5.2838  -5.2571  -5.2264  -5.1979  -5.1734
    -5.1493  -4.8574  -4.8404  -4.6968  -4.6482  -4.6108  -4.5526  -4.5154
    -4.4954  -4.4366  -4.3859  -4.3224  -4.3032  -4.2430  -4.2324  -4.2006
    -4.1928  -4.1685  -4.1208  -4.0969  -3.9588  -3.9482  -3.7885  -3.6676
    -3.6185  -3.5806  -3.4351  -3.3770  -3.3682  -3.3328  -3.3023  -3.2878
    -3.2855  -3.2612  -3.2453  -3.2352  -3.2218  -3.2038  -3.1803  -3.1440
    -3.0879  -3.0796  -3.0540  -3.0220  -3.0066  -2.9664  -2.8485  -2.8114
    -2.7514  -2.7314  -2.7260  -2.6586  -2.6408  -2.5423  -2.5158  -2.4683
    -2.3957  -2.3367  -2.3169  -2.2963  -2.2472  -2.2155  -2.1750  -2.1501
    -2.1272  -2.1048  -2.0779  -2.0492  -2.0205  -1.9847  -1.9692  -1.9599
    -1.9389  -1.9134  -1.9039  -1.8829  -1.8735  -1.8632  -1.8543  -1.8451
    -1.8123  -1.7989  -1.7487  -1.7345  -1.7084  -1.6939  -1.6670  -1.6449
    -1.6276  -1.6060  -1.5398  -1.5219  -1.4773  -1.4351  -1.4073  -1.3306
    -1.2934  -1.2308  -1.1604  -1.1402  -1.0957  -1.0566  -1.0195  -0.9873
    -0.8114  -0.7955  -0.6989  -0.6972  -0.6600  -0.6534  -0.6016  -0.5958
    -0.5538  -0.4149  -0.2838  -0.2687  -0.1775  -0.1253  -0.0777   0.0905
     0.1864   1.3186   1.5781

     occupation numbers 
     1.0000   1.0000   1.0000   1.0000   1.0000   1.0000   1.0000   1.0000
     1.0000   1.0000   1.0000   1.0000   1.0000   1.0000   1.0000   1.0000
     1.0000   1.0000   1.0000   1.0000   1.0000   1.0000   1.0000   1.0000
     1.0000   1.0000   1.0000   1.0000   1.0000   1.0000   1.0000   1.0000
     1.0000   1.0000   1.0000   1.0000   1.0000   1.0000   1.0000   1.0000
     1.0000   1.0000   1.0000   1.0000   1.0000   1.0000   1.0000   1.0000
     1.0000   1.0000   1.0000   1.0000   1.0000   1.0000   1.0000   1.0000
     1.0000   1.0000   1.0000   1.0000   1.0000   1.0000   1.0000   1.0000
     1.0000   1.0000   1.0000   1.0000   1.0000   1.0000   1.0000   1.0000
     1.0000   1.0000   1.0000   1.0000   1.0000   1.0000   1.0000   1.0000
     1.0000   1.0000   1.0000   1.0000   1.0000   1.0000   1.0000   1.0000
     1.0000   1.0000   1.0000   1.0000   1.0000   1.0000   1.0000   1.0000
     1.0000   1.0000   1.0000   1.0000   1.0000   1.0000   1.0000   1.0000
     1.0000   1.0000   1.0000   1.0000   1.0000   1.0000   1.0000   1.0000
     1.0000   1.0000   1.0000   1.0000   1.0000   1.0000   1.0000   1.0000
     1.0000   1.0000   1.0000   1.0000   1.0000   1.0000   1.0000   1.0000
     1.0000   1.0000   1.0000   1.0000   1.0000   1.0000   1.0000   1.0000
     1.0000   1.0000   1.0000   1.0000   1.0000   1.0000   1.0000   1.0000
     1.0000   1.0000   1.0000   1.0000   1.0000   1.0000   1.0000   1.0000
     1.0000   1.0000   1.0000   1.0000   1.0000   1.0000   1.0000   1.0000
     1.0000   1.0000   1.0000   1.0000   1.0000   1.0000   1.0000   1.0000
     1.0000   1.0000   1.0000   1.0000   1.0000   1.0000   1.0000   1.0000
     1.0000   1.0000   1.0000   1.0000   1.0000   1.0000   1.0000   1.0000
     1.0000   1.0000   1.0000   1.0000   1.0000   1.0000   1.0000   1.0000
     1.0000   1.0000   1.0000   1.0000   1.0000   1.0000   1.0000   1.0000
     1.0000   1.0000   1.0000   1.0000   1.0000   1.0000   1.0000   1.0000
     1.0000   1.0000   1.0000   1.0000   1.0000   1.0000   1.0000   1.0000
     1.0000   1.0000   1.0000   1.0000   1.0000   1.0000   1.0000   1.0000
     1.0000   1.0000   1.0000   1.0000   1.0000   1.0000   1.0000   1.0000
     1.0000   1.0000   1.0000   1.0000   1.0000   1.0000   1.0000   1.0000
     1.0000   1.0000   1.0000

 ------ SPIN DOWN ----------


          k = 0.0000 0.0000 0.0000 (112117 PWs)   bands (ev):

   -73.8142 -73.8097 -73.8067 -73.8049 -73.8027 -73.8020 -73.7987 -73.7963
   -73.7941 -73.7891 -73.7882 -73.7866 -73.7825 -73.7416 -73.7319 -73.7289
   -38.2164 -38.2152 -38.2131 -38.1571 -38.1564 -38.1523 -38.1477 -38.1465
   -38.1352 -38.0561 -38.0510 -38.0484 -38.0478 -38.0418 -38.0388 -38.0375
   -38.0247 -38.0228 -38.0209 -38.0197 -38.0171 -38.0168 -38.0154 -38.0125
   -38.0093 -38.0060 -38.0046 -37.9997 -37.9928 -37.9893 -37.9868 -37.9853
   -37.9838 -37.9767 -37.9526 -37.9517 -37.9488 -37.9451 -37.9358 -37.9252
   -37.9192 -37.9083 -37.9060 -37.9045 -37.9021 -37.8913 -37.8588 -37.8568
   -21.6871 -15.3447 -14.5950 -13.7062 -13.6916 -13.6716 -13.6429 -13.6289
   -13.6197 -12.9796 -12.7055 -12.6749 -12.6508 -12.6362 -12.6011 -12.5803
   -12.5329 -12.5041 -12.4682 -12.4554 -12.4438 -12.4420 -12.4209 -12.4194
   -12.4156 -12.2207 -12.1985 -12.1887 -12.1720 -12.1564 -12.1525 -12.1482
   -12.1462 -12.1438  -7.8932  -7.6860  -6.3363  -6.3231  -6.3055  -6.2771
    -6.2063  -5.6004  -5.5689  -5.5448  -5.5290  -5.5249  -5.4923  -5.4382
    -5.4054  -5.3866  -5.3113  -5.2801  -5.2601  -5.0993  -5.0903  -5.0622
    -5.0575  -5.0535  -5.0528  -4.9968  -4.9961  -4.9877  -4.5118  -4.4325
    -4.3926  -4.3434  -4.2896  -4.2806  -4.2646  -4.2434  -4.2301  -4.1762
    -4.0773  -4.0067  -3.9756  -3.9605  -3.9342  -3.7884  -3.7559  -3.7519
    -3.6973  -3.6762  -3.6733  -3.5825  -3.5066  -3.4677  -3.4029  -3.3983
    -3.3708  -3.3651  -3.2692  -3.2184  -3.1928  -3.1793  -3.1575  -3.1399
    -3.1265  -3.1214  -3.1078  -3.1053  -3.0378  -2.9240  -2.7901  -2.7356
    -2.6869  -2.6658  -2.6200  -2.5859  -2.5728  -2.4939  -2.4838  -2.4628
    -2.4569  -2.4298  -2.4279  -2.4219  -2.3845  -2.3273  -2.2715  -2.1852
    -2.1119  -2.0520  -1.9640  -1.9591  -1.9290  -1.9164  -1.8654  -1.8226
    -1.7981  -1.7742  -1.7639  -1.7616  -1.7494  -1.7472  -1.7412  -1.7364
    -1.7320  -1.6992  -1.6908  -1.6556  -1.6462  -1.6343  -1.6313  -1.5984
    -1.5723  -1.5258  -1.5158  -1.4886  -1.4481  -1.4089  -1.3695  -1.3521
    -1.2895  -1.2596  -1.1789  -1.0870  -1.0294  -1.0212  -1.0091  -0.9878
    -0.7202  -0.6872  -0.6831  -0.6826  -0.6696  -0.6651  -0.6430  -0.6365
    -0.6200  -0.3928  -0.3814  -0.3714  -0.3563  -0.3395  -0.3300  -0.2923
     0.2183   1.3016   1.6760

     occupation numbers 
     1.0000   1.0000   1.0000   1.0000   1.0000   1.0000   1.0000   1.0000
     1.0000   1.0000   1.0000   1.0000   1.0000   1.0000   1.0000   1.0000
     1.0000   1.0000   1.0000   1.0000   1.0000   1.0000   1.0000   1.0000
     1.0000   1.0000   1.0000   1.0000   1.0000   1.0000   1.0000   1.0000
     1.0000   1.0000   1.0000   1.0000   1.0000   1.0000   1.0000   1.0000
     1.0000   1.0000   1.0000   1.0000   1.0000   1.0000   1.0000   1.0000
     1.0000   1.0000   1.0000   1.0000   1.0000   1.0000   1.0000   1.0000
     1.0000   1.0000   1.0000   1.0000   1.0000   1.0000   1.0000   1.0000
     1.0000   1.0000   1.0000   1.0000   1.0000   1.0000   1.0000   1.0000
     1.0000   1.0000   1.0000   1.0000   1.0000   1.0000   1.0000   1.0000
     1.0000   1.0000   1.0000   1.0000   1.0000   1.0000   1.0000   1.0000
     1.0000   1.0000   1.0000   1.0000   1.0000   1.0000   1.0000   1.0000
     1.0000   1.0000   1.0000   1.0000   1.0000   1.0000   1.0000   1.0000
     1.0000   1.0000   1.0000   1.0000   1.0000   1.0000   1.0000   1.0000
     1.0000   1.0000   1.0000   1.0000   1.0000   1.0000   1.0000   1.0000
     1.0000   1.0000   1.0000   1.0000   1.0000   1.0000   1.0000   1.0000
     1.0000   1.0000   1.0000   1.0000   1.0000   1.0000   1.0000   1.0000
     1.0000   1.0000   1.0000   1.0000   1.0000   1.0000   1.0000   1.0000
     1.0000   1.0000   1.0000   1.0000   1.0000   1.0000   1.0000   1.0000
     1.0000   1.0000   1.0000   1.0000   1.0000   1.0000   1.0000   1.0000
     1.0000   1.0000   1.0000   1.0000   1.0000   1.0000   1.0000   1.0000
     1.0000   1.0000   1.0000   1.0000   1.0000   1.0000   1.0000   1.0000
     1.0000   1.0000   1.0000   1.0000   1.0000   1.0000   1.0000   1.0000
     1.0000   1.0000   1.0000   1.0000   1.0000   1.0000   1.0000   1.0000
     1.0000   1.0000   1.0000   1.0000   1.0000   1.0000   1.0000   1.0000
     1.0000   1.0000   1.0000   1.0000   1.0000   1.0000   1.0000   1.0000
     1.0000   1.0000   1.0000   1.0000   1.0000   1.0000   1.0000   1.0000
     1.0000   1.0000   1.0000   1.0000   1.0000   1.0000   1.0000   1.0000
     1.0000   1.0000   1.0000   1.0000   1.0000   1.0000   1.0000   1.0000
     1.0000   1.0000   1.0000   1.0000   1.0000   1.0000   1.0000   1.0000
     1.0000   1.0000   0.0000

          k = 0.0000 0.2309 0.0000 (112171 PWs)   bands (ev):

   -73.8141 -73.8098 -73.8069 -73.8048 -73.8029 -73.8017 -73.7987 -73.7963
   -73.7942 -73.7891 -73.7882 -73.7867 -73.7825 -73.7416 -73.7319 -73.7289
   -38.2116 -38.2097 -38.2067 -38.1607 -38.1592 -38.1578 -38.1506 -38.1400
   -38.1320 -38.0967 -38.0714 -38.0700 -38.0466 -38.0427 -38.0380 -38.0271
   -38.0257 -38.0205 -38.0176 -38.0163 -38.0135 -38.0106 -38.0090 -38.0056
   -37.9996 -37.9948 -37.9944 -37.9909 -37.9883 -37.9870 -37.9842 -37.9834
   -37.9796 -37.9766 -37.9557 -37.9533 -37.9492 -37.9459 -37.9359 -37.9262
   -37.9256 -37.9148 -37.9109 -37.9030 -37.8991 -37.8898 -37.8645 -37.8595
   -21.6871 -15.3447 -14.5534 -13.9732 -13.7990 -13.7830 -13.4890 -13.4591
   -13.3222 -12.9636 -12.8004 -12.7324 -12.6932 -12.6849 -12.6530 -12.5833
   -12.5523 -12.5394 -12.4920 -12.4753 -12.4541 -12.4333 -12.4222 -12.3140
   -12.2829 -12.2606 -12.2421 -12.2128 -12.1833 -12.1728 -12.1659 -12.1511
   -12.0941 -12.0784  -7.8932  -7.6860  -6.2753  -6.2647  -6.2365  -6.2320
    -6.1993  -5.6594  -5.6399  -5.6233  -5.5533  -5.5146  -5.4861  -5.4672
    -5.4230  -5.4127  -5.3903  -5.3177  -5.3135  -5.2829  -5.2661  -5.0689
    -5.0641  -5.0132  -4.9994  -4.9513  -4.7360  -4.7314  -4.5805  -4.4735
    -4.4447  -4.3809  -4.3182  -4.2808  -4.2030  -4.1574  -4.1424  -4.1163
    -4.0962  -4.0580  -4.0399  -3.9979  -3.9817  -3.9075  -3.9051  -3.8975
    -3.6451  -3.5621  -3.5334  -3.5001  -3.4625  -3.4358  -3.4320  -3.3798
    -3.3607  -3.3085  -3.2884  -3.2746  -3.2571  -3.2022  -3.1883  -3.1462
    -3.0714  -2.9806  -2.9369  -2.9210  -2.8399  -2.7690  -2.7549  -2.7406
    -2.7153  -2.7051  -2.6919  -2.6683  -2.6416  -2.6239  -2.5823  -2.5380
    -2.4968  -2.4847  -2.4617  -2.4198  -2.3457  -2.3007  -2.1843  -2.1560
    -2.1013  -2.0584  -2.0084  -1.9926  -1.9673  -1.9481  -1.9222  -1.9004
    -1.8810  -1.8516  -1.8397  -1.8105  -1.7767  -1.7507  -1.7363  -1.7252
    -1.7155  -1.6936  -1.6775  -1.6510  -1.6361  -1.5996  -1.5784  -1.5380
    -1.5228  -1.4882  -1.4765  -1.4475  -1.4285  -1.3642  -1.3310  -1.3186
    -1.2934  -1.2721  -1.2321  -1.2128  -1.1435  -1.0613  -1.0368  -0.9952
    -0.8864  -0.7727  -0.7551  -0.7386  -0.5631  -0.5592  -0.5413  -0.5282
    -0.5151  -0.5023  -0.4020  -0.3717  -0.3562  -0.2412  -0.1655  -0.1351
     0.2004   1.3074   1.7071

     occupation numbers 
     1.0000   1.0000   1.0000   1.0000   1.0000   1.0000   1.0000   1.0000
     1.0000   1.0000   1.0000   1.0000   1.0000   1.0000   1.0000   1.0000
     1.0000   1.0000   1.0000   1.0000   1.0000   1.0000   1.0000   1.0000
     1.0000   1.0000   1.0000   1.0000   1.0000   1.0000   1.0000   1.0000
     1.0000   1.0000   1.0000   1.0000   1.0000   1.0000   1.0000   1.0000
     1.0000   1.0000   1.0000   1.0000   1.0000   1.0000   1.0000   1.0000
     1.0000   1.0000   1.0000   1.0000   1.0000   1.0000   1.0000   1.0000
     1.0000   1.0000   1.0000   1.0000   1.0000   1.0000   1.0000   1.0000
     1.0000   1.0000   1.0000   1.0000   1.0000   1.0000   1.0000   1.0000
     1.0000   1.0000   1.0000   1.0000   1.0000   1.0000   1.0000   1.0000
     1.0000   1.0000   1.0000   1.0000   1.0000   1.0000   1.0000   1.0000
     1.0000   1.0000   1.0000   1.0000   1.0000   1.0000   1.0000   1.0000
     1.0000   1.0000   1.0000   1.0000   1.0000   1.0000   1.0000   1.0000
     1.0000   1.0000   1.0000   1.0000   1.0000   1.0000   1.0000   1.0000
     1.0000   1.0000   1.0000   1.0000   1.0000   1.0000   1.0000   1.0000
     1.0000   1.0000   1.0000   1.0000   1.0000   1.0000   1.0000   1.0000
     1.0000   1.0000   1.0000   1.0000   1.0000   1.0000   1.0000   1.0000
     1.0000   1.0000   1.0000   1.0000   1.0000   1.0000   1.0000   1.0000
     1.0000   1.0000   1.0000   1.0000   1.0000   1.0000   1.0000   1.0000
     1.0000   1.0000   1.0000   1.0000   1.0000   1.0000   1.0000   1.0000
     1.0000   1.0000   1.0000   1.0000   1.0000   1.0000   1.0000   1.0000
     1.0000   1.0000   1.0000   1.0000   1.0000   1.0000   1.0000   1.0000
     1.0000   1.0000   1.0000   1.0000   1.0000   1.0000   1.0000   1.0000
     1.0000   1.0000   1.0000   1.0000   1.0000   1.0000   1.0000   1.0000
     1.0000   1.0000   1.0000   1.0000   1.0000   1.0000   1.0000   1.0000
     1.0000   1.0000   1.0000   1.0000   1.0000   1.0000   1.0000   1.0000
     1.0000   1.0000   1.0000   1.0000   1.0000   1.0000   1.0000   1.0000
     1.0000   1.0000   1.0000   1.0000   1.0000   1.0000   1.0000   1.0000
     1.0000   1.0000   1.0000   1.0000   1.0000   1.0000   1.0000   1.0000
     1.0000   1.0000   1.0000   1.0000   1.0000   1.0000   1.0000   1.0000
     1.0000   1.0000   0.0000

          k = 0.0000 0.4619 0.0000 (112236 PWs)   bands (ev):

   -73.8140 -73.8099 -73.8073 -73.8047 -73.8030 -73.8014 -73.7986 -73.7962
   -73.7944 -73.7891 -73.7882 -73.7867 -73.7825 -73.7416 -73.7319 -73.7290
   -38.2010 -38.1967 -38.1851 -38.1780 -38.1730 -38.1585 -38.1549 -38.1389
   -38.1244 -38.1172 -38.0963 -38.0936 -38.0567 -38.0504 -38.0431 -38.0334
   -38.0274 -38.0160 -38.0104 -38.0075 -38.0032 -38.0020 -37.9988 -37.9977
   -37.9950 -37.9918 -37.9915 -37.9879 -37.9842 -37.9826 -37.9766 -37.9735
   -37.9672 -37.9608 -37.9589 -37.9508 -37.9453 -37.9415 -37.9391 -37.9338
   -37.9325 -37.9225 -37.9179 -37.9095 -37.8993 -37.8844 -37.8785 -37.8629
   -21.6872 -15.3447 -14.4316 -14.2303 -13.8685 -13.8511 -13.2596 -13.2278
   -13.0151 -12.9965 -12.9677 -12.9137 -12.8304 -12.7267 -12.7023 -12.6866
   -12.5176 -12.5102 -12.4584 -12.4476 -12.4341 -12.4233 -12.3803 -12.3666
   -12.3483 -12.2823 -12.2132 -12.1996 -12.1752 -12.1570 -12.1553 -12.1509
   -12.0549 -12.0376  -7.8932  -7.6860  -6.2148  -6.1206  -6.1058  -6.0871
    -6.0211  -5.8679  -5.8558  -5.8308  -5.7083  -5.5282  -5.4955  -5.4826
    -5.4555  -5.4427  -5.4336  -5.3878  -5.3703  -5.3209  -5.2975  -5.0641
    -5.0587  -5.0259  -5.0066  -4.8030  -4.6216  -4.5169  -4.4791  -4.4352
    -4.3907  -4.3709  -4.3449  -4.3071  -4.2406  -4.2258  -4.1880  -4.1564
    -4.1256  -4.1145  -4.0999  -4.0735  -4.0633  -4.0485  -4.0384  -3.6685
    -3.5611  -3.5015  -3.4714  -3.4366  -3.4108  -3.3828  -3.3596  -3.3062
    -3.2833  -3.2755  -3.2563  -3.2326  -3.2148  -3.1810  -3.1529  -3.1028
    -3.0585  -3.0438  -3.0008  -2.9492  -2.9309  -2.9048  -2.8416  -2.7509
    -2.7219  -2.6921  -2.6424  -2.6266  -2.5924  -2.5506  -2.5119  -2.4698
    -2.4377  -2.4246  -2.3870  -2.3105  -2.2715  -2.2463  -2.2374  -2.1685
    -2.1017  -2.0762  -2.0331  -2.0084  -2.0018  -1.9901  -1.9688  -1.9345
    -1.9175  -1.8968  -1.8743  -1.8637  -1.8491  -1.8369  -1.8272  -1.8215
    -1.7618  -1.7550  -1.7121  -1.7024  -1.6790  -1.6517  -1.6224  -1.6090
    -1.5808  -1.5469  -1.5159  -1.4859  -1.4178  -1.3801  -1.2962  -1.2785
    -1.2217  -1.1953  -1.1846  -1.1368  -1.1089  -1.0900  -1.0385  -0.9830
    -0.9626  -0.8819  -0.7275  -0.7127  -0.6351  -0.6152  -0.4770  -0.4502
    -0.4383  -0.4269  -0.3931  -0.3698  -0.2974  -0.0819   0.0065   0.0362
     0.1540   1.3161   1.7581

     occupation numbers 
     1.0000   1.0000   1.0000   1.0000   1.0000   1.0000   1.0000   1.0000
     1.0000   1.0000   1.0000   1.0000   1.0000   1.0000   1.0000   1.0000
     1.0000   1.0000   1.0000   1.0000   1.0000   1.0000   1.0000   1.0000
     1.0000   1.0000   1.0000   1.0000   1.0000   1.0000   1.0000   1.0000
     1.0000   1.0000   1.0000   1.0000   1.0000   1.0000   1.0000   1.0000
     1.0000   1.0000   1.0000   1.0000   1.0000   1.0000   1.0000   1.0000
     1.0000   1.0000   1.0000   1.0000   1.0000   1.0000   1.0000   1.0000
     1.0000   1.0000   1.0000   1.0000   1.0000   1.0000   1.0000   1.0000
     1.0000   1.0000   1.0000   1.0000   1.0000   1.0000   1.0000   1.0000
     1.0000   1.0000   1.0000   1.0000   1.0000   1.0000   1.0000   1.0000
     1.0000   1.0000   1.0000   1.0000   1.0000   1.0000   1.0000   1.0000
     1.0000   1.0000   1.0000   1.0000   1.0000   1.0000   1.0000   1.0000
     1.0000   1.0000   1.0000   1.0000   1.0000   1.0000   1.0000   1.0000
     1.0000   1.0000   1.0000   1.0000   1.0000   1.0000   1.0000   1.0000
     1.0000   1.0000   1.0000   1.0000   1.0000   1.0000   1.0000   1.0000
     1.0000   1.0000   1.0000   1.0000   1.0000   1.0000   1.0000   1.0000
     1.0000   1.0000   1.0000   1.0000   1.0000   1.0000   1.0000   1.0000
     1.0000   1.0000   1.0000   1.0000   1.0000   1.0000   1.0000   1.0000
     1.0000   1.0000   1.0000   1.0000   1.0000   1.0000   1.0000   1.0000
     1.0000   1.0000   1.0000   1.0000   1.0000   1.0000   1.0000   1.0000
     1.0000   1.0000   1.0000   1.0000   1.0000   1.0000   1.0000   1.0000
     1.0000   1.0000   1.0000   1.0000   1.0000   1.0000   1.0000   1.0000
     1.0000   1.0000   1.0000   1.0000   1.0000   1.0000   1.0000   1.0000
     1.0000   1.0000   1.0000   1.0000   1.0000   1.0000   1.0000   1.0000
     1.0000   1.0000   1.0000   1.0000   1.0000   1.0000   1.0000   1.0000
     1.0000   1.0000   1.0000   1.0000   1.0000   1.0000   1.0000   1.0000
     1.0000   1.0000   1.0000   1.0000   1.0000   1.0000   1.0000   1.0000
     1.0000   1.0000   1.0000   1.0000   1.0000   1.0000   1.0000   1.0000
     1.0000   1.0000   1.0000   1.0000   1.0000   1.0000   1.0000   1.0000
     1.0000   1.0000   1.0000   1.0000   1.0000   1.0000   1.0000   1.0000
     1.0000   1.0000   0.0000

          k = 0.2000 0.3464 0.0000 (112231 PWs)   bands (ev):

   -73.8140 -73.8100 -73.8070 -73.8048 -73.8028 -73.8014 -73.7988 -73.7963
   -73.7941 -73.7892 -73.7881 -73.7867 -73.7825 -73.7416 -73.7319 -73.7290
   -38.2053 -38.1962 -38.1954 -38.1727 -38.1675 -38.1585 -38.1486 -38.1415
   -38.1267 -38.1161 -38.1054 -38.0704 -38.0534 -38.0479 -38.0436 -38.0321
   -38.0273 -38.0226 -38.0173 -38.0146 -38.0111 -38.0056 -37.9989 -37.9973
   -37.9918 -37.9886 -37.9870 -37.9848 -37.9825 -37.9800 -37.9767 -37.9755
   -37.9700 -37.9660 -37.9576 -37.9522 -37.9495 -37.9467 -37.9379 -37.9335
   -37.9269 -37.9206 -37.9176 -37.9093 -37.8961 -37.8893 -37.8741 -37.8616
   -21.6872 -15.3447 -14.4715 -14.0986 -14.0572 -13.5632 -13.5612 -13.1691
   -13.1168 -13.0055 -12.9316 -12.8054 -12.7865 -12.7066 -12.6700 -12.6009
   -12.5915 -12.5742 -12.5692 -12.4540 -12.4224 -12.3880 -12.3739 -12.3101
   -12.2883 -12.2699 -12.2504 -12.2300 -12.2192 -12.1526 -12.1480 -12.1054
   -12.0942 -12.0340  -7.8932  -7.6860  -6.2162  -6.1717  -6.1456  -6.1204
    -6.1014  -5.7542  -5.7311  -5.7161  -5.6756  -5.6404  -5.5983  -5.5599
    -5.5012  -5.4695  -5.3509  -5.3284  -5.2804  -5.2710  -5.2389  -5.2222
    -5.0917  -4.8997  -4.8853  -4.8101  -4.7489  -4.5930  -4.4835  -4.4580
    -4.3910  -4.3615  -4.3338  -4.2983  -4.2728  -4.2595  -4.2293  -4.2215
    -4.1682  -4.1183  -4.1034  -4.0882  -4.0529  -3.7544  -3.7296  -3.7208
    -3.7133  -3.6877  -3.5814  -3.4900  -3.4209  -3.3898  -3.3435  -3.3145
    -3.2753  -3.2392  -3.2162  -3.1982  -3.1621  -3.1452  -3.0937  -3.0875
    -3.0325  -3.0000  -2.9647  -2.9436  -2.9355  -2.9178  -2.9029  -2.8904
    -2.7906  -2.7091  -2.6883  -2.6400  -2.6042  -2.5301  -2.4949  -2.4689
    -2.4483  -2.4235  -2.3802  -2.3526  -2.3038  -2.2072  -2.1711  -2.1531
    -2.1206  -2.1188  -2.0789  -2.0689  -1.9959  -1.9815  -1.9656  -1.9373
    -1.9163  -1.8925  -1.8688  -1.8444  -1.8292  -1.8150  -1.7874  -1.7402
    -1.7223  -1.7078  -1.6990  -1.6633  -1.6569  -1.6094  -1.5821  -1.5687
    -1.5601  -1.5337  -1.5213  -1.4946  -1.4141  -1.3820  -1.3686  -1.3560
    -1.2790  -1.2158  -1.1986  -1.1748  -1.1470  -1.1006  -1.0193  -0.9822
    -0.8676  -0.8363  -0.6740  -0.6649  -0.6306  -0.6215  -0.6081  -0.5332
    -0.5245  -0.4174  -0.3678  -0.2496  -0.2004  -0.1912  -0.1427   0.0801
     0.1656   1.3298   1.7283

     occupation numbers 
     1.0000   1.0000   1.0000   1.0000   1.0000   1.0000   1.0000   1.0000
     1.0000   1.0000   1.0000   1.0000   1.0000   1.0000   1.0000   1.0000
     1.0000   1.0000   1.0000   1.0000   1.0000   1.0000   1.0000   1.0000
     1.0000   1.0000   1.0000   1.0000   1.0000   1.0000   1.0000   1.0000
     1.0000   1.0000   1.0000   1.0000   1.0000   1.0000   1.0000   1.0000
     1.0000   1.0000   1.0000   1.0000   1.0000   1.0000   1.0000   1.0000
     1.0000   1.0000   1.0000   1.0000   1.0000   1.0000   1.0000   1.0000
     1.0000   1.0000   1.0000   1.0000   1.0000   1.0000   1.0000   1.0000
     1.0000   1.0000   1.0000   1.0000   1.0000   1.0000   1.0000   1.0000
     1.0000   1.0000   1.0000   1.0000   1.0000   1.0000   1.0000   1.0000
     1.0000   1.0000   1.0000   1.0000   1.0000   1.0000   1.0000   1.0000
     1.0000   1.0000   1.0000   1.0000   1.0000   1.0000   1.0000   1.0000
     1.0000   1.0000   1.0000   1.0000   1.0000   1.0000   1.0000   1.0000
     1.0000   1.0000   1.0000   1.0000   1.0000   1.0000   1.0000   1.0000
     1.0000   1.0000   1.0000   1.0000   1.0000   1.0000   1.0000   1.0000
     1.0000   1.0000   1.0000   1.0000   1.0000   1.0000   1.0000   1.0000
     1.0000   1.0000   1.0000   1.0000   1.0000   1.0000   1.0000   1.0000
     1.0000   1.0000   1.0000   1.0000   1.0000   1.0000   1.0000   1.0000
     1.0000   1.0000   1.0000   1.0000   1.0000   1.0000   1.0000   1.0000
     1.0000   1.0000   1.0000   1.0000   1.0000   1.0000   1.0000   1.0000
     1.0000   1.0000   1.0000   1.0000   1.0000   1.0000   1.0000   1.0000
     1.0000   1.0000   1.0000   1.0000   1.0000   1.0000   1.0000   1.0000
     1.0000   1.0000   1.0000   1.0000   1.0000   1.0000   1.0000   1.0000
     1.0000   1.0000   1.0000   1.0000   1.0000   1.0000   1.0000   1.0000
     1.0000   1.0000   1.0000   1.0000   1.0000   1.0000   1.0000   1.0000
     1.0000   1.0000   1.0000   1.0000   1.0000   1.0000   1.0000   1.0000
     1.0000   1.0000   1.0000   1.0000   1.0000   1.0000   1.0000   1.0000
     1.0000   1.0000   1.0000   1.0000   1.0000   1.0000   1.0000   1.0000
     1.0000   1.0000   1.0000   1.0000   1.0000   1.0000   1.0000   1.0000
     1.0000   1.0000   1.0000   1.0000   1.0000   1.0000   1.0000   1.0000
     1.0000   1.0000   0.0000

          k = 0.2000 0.5774 0.0000 (112237 PWs)   bands (ev):

   -73.8139 -73.8100 -73.8073 -73.8048 -73.8028 -73.8014 -73.7986 -73.7962
   -73.7943 -73.7892 -73.7881 -73.7867 -73.7825 -73.7416 -73.7319 -73.7290
   -38.1960 -38.1891 -38.1804 -38.1762 -38.1705 -38.1667 -38.1586 -38.1432
   -38.1392 -38.1231 -38.0858 -38.0845 -38.0766 -38.0452 -38.0413 -38.0348
   -38.0294 -38.0230 -38.0137 -38.0100 -38.0040 -38.0002 -37.9983 -37.9964
   -37.9953 -37.9934 -37.9887 -37.9846 -37.9821 -37.9765 -37.9693 -37.9653
   -37.9602 -37.9559 -37.9536 -37.9507 -37.9496 -37.9420 -37.9383 -37.9348
   -37.9316 -37.9246 -37.9205 -37.9164 -37.9046 -37.8870 -37.8747 -37.8663
   -21.6871 -15.3447 -14.3318 -14.2897 -14.1117 -13.5921 -13.2961 -13.2912
   -12.9478 -12.9445 -12.8855 -12.8502 -12.8379 -12.7999 -12.7905 -12.6552
   -12.6278 -12.6000 -12.4884 -12.4818 -12.3802 -12.3686 -12.3551 -12.3216
   -12.3071 -12.2953 -12.2559 -12.2314 -12.2303 -12.1283 -12.1183 -12.1159
   -12.0771 -12.0145  -7.8932  -7.6860  -6.2136  -6.0456  -5.9984  -5.9817
    -5.9150  -5.8900  -5.8707  -5.8440  -5.8053  -5.7400  -5.6817  -5.6184
    -5.6098  -5.5371  -5.3582  -5.2605  -5.2505  -5.2135  -5.1983  -5.1663
    -5.1501  -4.8509  -4.8271  -4.7437  -4.6271  -4.5712  -4.5414  -4.5143
    -4.4686  -4.4116  -4.3920  -4.3119  -4.3057  -4.2355  -4.2283  -4.2081
    -4.1819  -4.1611  -4.1188  -4.0924  -3.9493  -3.9458  -3.7828  -3.6565
    -3.6240  -3.5524  -3.4267  -3.3823  -3.3496  -3.3175  -3.2938  -3.2794
    -3.2647  -3.2542  -3.2370  -3.2275  -3.2104  -3.1936  -3.1355  -3.1143
    -3.0919  -3.0736  -3.0560  -3.0236  -2.9911  -2.9213  -2.8677  -2.8092
    -2.7271  -2.6932  -2.6780  -2.6549  -2.5982  -2.5257  -2.4884  -2.4387
    -2.3825  -2.3258  -2.3140  -2.2999  -2.2445  -2.1891  -2.1671  -2.1221
    -2.1069  -2.0917  -2.0660  -2.0463  -2.0063  -1.9723  -1.9536  -1.9424
    -1.9245  -1.9050  -1.8854  -1.8691  -1.8606  -1.8480  -1.8378  -1.8280
    -1.8101  -1.7714  -1.7529  -1.7268  -1.6954  -1.6723  -1.6577  -1.6356
    -1.6021  -1.5603  -1.5428  -1.4900  -1.4723  -1.4577  -1.3912  -1.3203
    -1.2655  -1.1848  -1.1497  -1.1333  -1.0831  -1.0721  -0.9969  -0.9643
    -0.8067  -0.7905  -0.6953  -0.6830  -0.6498  -0.6358  -0.5857  -0.5746
    -0.5567  -0.3900  -0.2717  -0.2624  -0.1801  -0.1172  -0.0567   0.1213
     0.1968   1.3380   1.7414

     occupation numbers 
     1.0000   1.0000   1.0000   1.0000   1.0000   1.0000   1.0000   1.0000
     1.0000   1.0000   1.0000   1.0000   1.0000   1.0000   1.0000   1.0000
     1.0000   1.0000   1.0000   1.0000   1.0000   1.0000   1.0000   1.0000
     1.0000   1.0000   1.0000   1.0000   1.0000   1.0000   1.0000   1.0000
     1.0000   1.0000   1.0000   1.0000   1.0000   1.0000   1.0000   1.0000
     1.0000   1.0000   1.0000   1.0000   1.0000   1.0000   1.0000   1.0000
     1.0000   1.0000   1.0000   1.0000   1.0000   1.0000   1.0000   1.0000
     1.0000   1.0000   1.0000   1.0000   1.0000   1.0000   1.0000   1.0000
     1.0000   1.0000   1.0000   1.0000   1.0000   1.0000   1.0000   1.0000
     1.0000   1.0000   1.0000   1.0000   1.0000   1.0000   1.0000   1.0000
     1.0000   1.0000   1.0000   1.0000   1.0000   1.0000   1.0000   1.0000
     1.0000   1.0000   1.0000   1.0000   1.0000   1.0000   1.0000   1.0000
     1.0000   1.0000   1.0000   1.0000   1.0000   1.0000   1.0000   1.0000
     1.0000   1.0000   1.0000   1.0000   1.0000   1.0000   1.0000   1.0000
     1.0000   1.0000   1.0000   1.0000   1.0000   1.0000   1.0000   1.0000
     1.0000   1.0000   1.0000   1.0000   1.0000   1.0000   1.0000   1.0000
     1.0000   1.0000   1.0000   1.0000   1.0000   1.0000   1.0000   1.0000
     1.0000   1.0000   1.0000   1.0000   1.0000   1.0000   1.0000   1.0000
     1.0000   1.0000   1.0000   1.0000   1.0000   1.0000   1.0000   1.0000
     1.0000   1.0000   1.0000   1.0000   1.0000   1.0000   1.0000   1.0000
     1.0000   1.0000   1.0000   1.0000   1.0000   1.0000   1.0000   1.0000
     1.0000   1.0000   1.0000   1.0000   1.0000   1.0000   1.0000   1.0000
     1.0000   1.0000   1.0000   1.0000   1.0000   1.0000   1.0000   1.0000
     1.0000   1.0000   1.0000   1.0000   1.0000   1.0000   1.0000   1.0000
     1.0000   1.0000   1.0000   1.0000   1.0000   1.0000   1.0000   1.0000
     1.0000   1.0000   1.0000   1.0000   1.0000   1.0000   1.0000   1.0000
     1.0000   1.0000   1.0000   1.0000   1.0000   1.0000   1.0000   1.0000
     1.0000   1.0000   1.0000   1.0000   1.0000   1.0000   1.0000   1.0000
     1.0000   1.0000   1.0000   1.0000   1.0000   1.0000   1.0000   1.0000
     1.0000   1.0000   1.0000   1.0000   1.0000   1.0000   1.0000   1.0000
     1.0000   1.0000   0.0000

          k =-0.2000 0.1155 0.0000 (112171 PWs)   bands (ev):

   -73.8141 -73.8099 -73.8068 -73.8050 -73.8025 -73.8019 -73.7987 -73.7963
   -73.7941 -73.7892 -73.7882 -73.7866 -73.7825 -73.7416 -73.7319 -73.7289
   -38.2111 -38.2108 -38.2061 -38.1623 -38.1590 -38.1564 -38.1508 -38.1393
   -38.1322 -38.0961 -38.0722 -38.0700 -38.0467 -38.0430 -38.0378 -38.0286
   -38.0225 -38.0208 -38.0198 -38.0184 -38.0118 -38.0101 -38.0088 -38.0054
   -37.9995 -37.9946 -37.9930 -37.9917 -37.9885 -37.9871 -37.9849 -37.9830
   -37.9795 -37.9766 -37.9557 -37.9526 -37.9500 -37.9459 -37.9359 -37.9280
   -37.9241 -37.9142 -37.9101 -37.9037 -37.8996 -37.8896 -37.8640 -37.8600
   -21.6872 -15.3447 -14.5534 -13.9724 -13.7982 -13.7857 -13.4758 -13.4711
   -13.3225 -12.9640 -12.7876 -12.7533 -12.6889 -12.6791 -12.6552 -12.5840
   -12.5618 -12.5184 -12.4941 -12.4765 -12.4659 -12.4306 -12.4213 -12.3048
   -12.2922 -12.2595 -12.2424 -12.2109 -12.1847 -12.1732 -12.1662 -12.1498
   -12.0934 -12.0792  -7.8932  -7.6860  -6.2791  -6.2589  -6.2403  -6.2301
    -6.1991  -5.6683  -5.6322  -5.6195  -5.5440  -5.5260  -5.4857  -5.4658
    -5.4329  -5.4140  -5.3802  -5.3243  -5.3084  -5.2782  -5.2729  -5.0761
    -5.0595  -5.0117  -4.9973  -4.9479  -4.7362  -4.7327  -4.5629  -4.5041
    -4.4399  -4.3668  -4.3353  -4.2732  -4.2012  -4.1575  -4.1426  -4.1193
    -4.0960  -4.0611  -4.0369  -3.9927  -3.9800  -3.9115  -3.9013  -3.8927
    -3.6388  -3.5779  -3.5261  -3.4957  -3.4709  -3.4533  -3.4399  -3.3702
    -3.3617  -3.3029  -3.2908  -3.2736  -3.2507  -3.2009  -3.1888  -3.1491
    -3.0727  -2.9675  -2.9441  -2.9103  -2.8125  -2.7840  -2.7632  -2.7381
    -2.7138  -2.7027  -2.6899  -2.6793  -2.6599  -2.6339  -2.5784  -2.5378
    -2.4895  -2.4703  -2.4597  -2.4176  -2.3526  -2.3000  -2.1775  -2.1644
    -2.1093  -2.0631  -2.0126  -1.9914  -1.9635  -1.9530  -1.9229  -1.8990
    -1.8734  -1.8540  -1.8303  -1.8099  -1.7903  -1.7615  -1.7339  -1.7197
    -1.7027  -1.6911  -1.6730  -1.6530  -1.6426  -1.5980  -1.5649  -1.5433
    -1.5134  -1.4947  -1.4882  -1.4305  -1.4222  -1.3580  -1.3428  -1.3219
    -1.3050  -1.2716  -1.2435  -1.2123  -1.1402  -1.0707  -1.0335  -0.9821
    -0.8933  -0.7683  -0.7507  -0.7308  -0.5768  -0.5624  -0.5412  -0.5268
    -0.5104  -0.5013  -0.4050  -0.3752  -0.3505  -0.2402  -0.1649  -0.1371
     0.1990   1.3297   1.6816

     occupation numbers 
     1.0000   1.0000   1.0000   1.0000   1.0000   1.0000   1.0000   1.0000
     1.0000   1.0000   1.0000   1.0000   1.0000   1.0000   1.0000   1.0000
     1.0000   1.0000   1.0000   1.0000   1.0000   1.0000   1.0000   1.0000
     1.0000   1.0000   1.0000   1.0000   1.0000   1.0000   1.0000   1.0000
     1.0000   1.0000   1.0000   1.0000   1.0000   1.0000   1.0000   1.0000
     1.0000   1.0000   1.0000   1.0000   1.0000   1.0000   1.0000   1.0000
     1.0000   1.0000   1.0000   1.0000   1.0000   1.0000   1.0000   1.0000
     1.0000   1.0000   1.0000   1.0000   1.0000   1.0000   1.0000   1.0000
     1.0000   1.0000   1.0000   1.0000   1.0000   1.0000   1.0000   1.0000
     1.0000   1.0000   1.0000   1.0000   1.0000   1.0000   1.0000   1.0000
     1.0000   1.0000   1.0000   1.0000   1.0000   1.0000   1.0000   1.0000
     1.0000   1.0000   1.0000   1.0000   1.0000   1.0000   1.0000   1.0000
     1.0000   1.0000   1.0000   1.0000   1.0000   1.0000   1.0000   1.0000
     1.0000   1.0000   1.0000   1.0000   1.0000   1.0000   1.0000   1.0000
     1.0000   1.0000   1.0000   1.0000   1.0000   1.0000   1.0000   1.0000
     1.0000   1.0000   1.0000   1.0000   1.0000   1.0000   1.0000   1.0000
     1.0000   1.0000   1.0000   1.0000   1.0000   1.0000   1.0000   1.0000
     1.0000   1.0000   1.0000   1.0000   1.0000   1.0000   1.0000   1.0000
     1.0000   1.0000   1.0000   1.0000   1.0000   1.0000   1.0000   1.0000
     1.0000   1.0000   1.0000   1.0000   1.0000   1.0000   1.0000   1.0000
     1.0000   1.0000   1.0000   1.0000   1.0000   1.0000   1.0000   1.0000
     1.0000   1.0000   1.0000   1.0000   1.0000   1.0000   1.0000   1.0000
     1.0000   1.0000   1.0000   1.0000   1.0000   1.0000   1.0000   1.0000
     1.0000   1.0000   1.0000   1.0000   1.0000   1.0000   1.0000   1.0000
     1.0000   1.0000   1.0000   1.0000   1.0000   1.0000   1.0000   1.0000
     1.0000   1.0000   1.0000   1.0000   1.0000   1.0000   1.0000   1.0000
     1.0000   1.0000   1.0000   1.0000   1.0000   1.0000   1.0000   1.0000
     1.0000   1.0000   1.0000   1.0000   1.0000   1.0000   1.0000   1.0000
     1.0000   1.0000   1.0000   1.0000   1.0000   1.0000   1.0000   1.0000
     1.0000   1.0000   1.0000   1.0000   1.0000   1.0000   1.0000   1.0000
     1.0000   1.0000   0.0000

          k = 0.2000 0.1155 0.0000 (112171 PWs)   bands (ev):

   -73.8141 -73.8099 -73.8068 -73.8050 -73.8026 -73.8018 -73.7988 -73.7964
   -73.7940 -73.7892 -73.7881 -73.7867 -73.7825 -73.7416 -73.7319 -73.7289
   -38.2118 -38.2096 -38.2067 -38.1636 -38.1585 -38.1556 -38.1500 -38.1394
   -38.1328 -38.0963 -38.0724 -38.0698 -38.0468 -38.0418 -38.0392 -38.0285
   -38.0231 -38.0208 -38.0191 -38.0175 -38.0128 -38.0099 -38.0080 -38.0055
   -37.9999 -37.9946 -37.9936 -37.9902 -37.9882 -37.9874 -37.9861 -37.9829
   -37.9796 -37.9765 -37.9547 -37.9537 -37.9500 -37.9456 -37.9359 -37.9281
   -37.9238 -37.9138 -37.9107 -37.9037 -37.8995 -37.8899 -37.8658 -37.8582
   -21.6871 -15.3447 -14.5534 -13.9725 -13.7975 -13.7862 -13.4746 -13.4729
   -13.3217 -12.9640 -12.7875 -12.7526 -12.6883 -12.6808 -12.6555 -12.5838
   -12.5629 -12.5171 -12.4918 -12.4783 -12.4658 -12.4326 -12.4204 -12.3004
   -12.2920 -12.2623 -12.2454 -12.2065 -12.1903 -12.1709 -12.1687 -12.1469
   -12.0907 -12.0817  -7.8932  -7.6860  -6.2732  -6.2617  -6.2423  -6.2318
    -6.1991  -5.6611  -5.6378  -5.6162  -5.5439  -5.5312  -5.4846  -5.4675
    -5.4373  -5.4190  -5.3672  -5.3237  -5.3112  -5.2786  -5.2716  -5.0734
    -5.0665  -5.0101  -5.0005  -4.9420  -4.7375  -4.7329  -4.5567  -4.5041
    -4.4347  -4.3876  -4.3347  -4.2677  -4.2001  -4.1583  -4.1448  -4.1197
    -4.0955  -4.0520  -4.0364  -3.9993  -3.9791  -3.9088  -3.9050  -3.8950
    -3.6302  -3.5620  -3.5387  -3.5014  -3.4621  -3.4523  -3.4338  -3.3775
    -3.3673  -3.3035  -3.2938  -3.2774  -3.2400  -3.2068  -3.1923  -3.1428
    -3.0810  -2.9810  -2.9341  -2.8999  -2.8093  -2.7880  -2.7654  -2.7401
    -2.7266  -2.7028  -2.6903  -2.6796  -2.6467  -2.6214  -2.5728  -2.5419
    -2.5110  -2.4814  -2.4553  -2.4090  -2.3486  -2.2929  -2.1881  -2.1622
    -2.1040  -2.0642  -2.0106  -1.9827  -1.9582  -1.9457  -1.9142  -1.9003
    -1.8930  -1.8666  -1.8285  -1.8107  -1.7955  -1.7651  -1.7342  -1.7285
    -1.7018  -1.6836  -1.6700  -1.6466  -1.6279  -1.6091  -1.5834  -1.5311
    -1.5251  -1.4964  -1.4478  -1.4376  -1.4185  -1.3932  -1.3450  -1.3052
    -1.3010  -1.2898  -1.2383  -1.1958  -1.1494  -1.0488  -1.0350  -0.9987
    -0.8903  -0.7590  -0.7495  -0.7442  -0.5876  -0.5534  -0.5411  -0.5263
    -0.5131  -0.5056  -0.4006  -0.3765  -0.3455  -0.2411  -0.1610  -0.1409
     0.1996   1.3244   1.6881

     occupation numbers 
     1.0000   1.0000   1.0000   1.0000   1.0000   1.0000   1.0000   1.0000
     1.0000   1.0000   1.0000   1.0000   1.0000   1.0000   1.0000   1.0000
     1.0000   1.0000   1.0000   1.0000   1.0000   1.0000   1.0000   1.0000
     1.0000   1.0000   1.0000   1.0000   1.0000   1.0000   1.0000   1.0000
     1.0000   1.0000   1.0000   1.0000   1.0000   1.0000   1.0000   1.0000
     1.0000   1.0000   1.0000   1.0000   1.0000   1.0000   1.0000   1.0000
     1.0000   1.0000   1.0000   1.0000   1.0000   1.0000   1.0000   1.0000
     1.0000   1.0000   1.0000   1.0000   1.0000   1.0000   1.0000   1.0000
     1.0000   1.0000   1.0000   1.0000   1.0000   1.0000   1.0000   1.0000
     1.0000   1.0000   1.0000   1.0000   1.0000   1.0000   1.0000   1.0000
     1.0000   1.0000   1.0000   1.0000   1.0000   1.0000   1.0000   1.0000
     1.0000   1.0000   1.0000   1.0000   1.0000   1.0000   1.0000   1.0000
     1.0000   1.0000   1.0000   1.0000   1.0000   1.0000   1.0000   1.0000
     1.0000   1.0000   1.0000   1.0000   1.0000   1.0000   1.0000   1.0000
     1.0000   1.0000   1.0000   1.0000   1.0000   1.0000   1.0000   1.0000
     1.0000   1.0000   1.0000   1.0000   1.0000   1.0000   1.0000   1.0000
     1.0000   1.0000   1.0000   1.0000   1.0000   1.0000   1.0000   1.0000
     1.0000   1.0000   1.0000   1.0000   1.0000   1.0000   1.0000   1.0000
     1.0000   1.0000   1.0000   1.0000   1.0000   1.0000   1.0000   1.0000
     1.0000   1.0000   1.0000   1.0000   1.0000   1.0000   1.0000   1.0000
     1.0000   1.0000   1.0000   1.0000   1.0000   1.0000   1.0000   1.0000
     1.0000   1.0000   1.0000   1.0000   1.0000   1.0000   1.0000   1.0000
     1.0000   1.0000   1.0000   1.0000   1.0000   1.0000   1.0000   1.0000
     1.0000   1.0000   1.0000   1.0000   1.0000   1.0000   1.0000   1.0000
     1.0000   1.0000   1.0000   1.0000   1.0000   1.0000   1.0000   1.0000
     1.0000   1.0000   1.0000   1.0000   1.0000   1.0000   1.0000   1.0000
     1.0000   1.0000   1.0000   1.0000   1.0000   1.0000   1.0000   1.0000
     1.0000   1.0000   1.0000   1.0000   1.0000   1.0000   1.0000   1.0000
     1.0000   1.0000   1.0000   1.0000   1.0000   1.0000   1.0000   1.0000
     1.0000   1.0000   1.0000   1.0000   1.0000   1.0000   1.0000   1.0000
     1.0000   1.0000   0.0000

          k =-0.4000 0.2309 0.0000 (112236 PWs)   bands (ev):

   -73.8139 -73.8101 -73.8070 -73.8050 -73.8023 -73.8020 -73.7986 -73.7963
   -73.7941 -73.7893 -73.7881 -73.7866 -73.7825 -73.7416 -73.7319 -73.7290
   -38.2005 -38.1979 -38.1845 -38.1793 -38.1726 -38.1570 -38.1549 -38.1388
   -38.1233 -38.1173 -38.0976 -38.0937 -38.0570 -38.0508 -38.0429 -38.0344
   -38.0241 -38.0201 -38.0075 -38.0071 -38.0053 -38.0034 -37.9994 -37.9964
   -37.9940 -37.9913 -37.9904 -37.9887 -37.9852 -37.9817 -37.9765 -37.9743
   -37.9675 -37.9602 -37.9575 -37.9513 -37.9450 -37.9422 -37.9397 -37.9364
   -37.9288 -37.9231 -37.9171 -37.9093 -37.9000 -37.8851 -37.8776 -37.8633
   -21.6872 -15.3447 -14.4319 -14.2296 -13.8655 -13.8552 -13.2455 -13.2402
   -13.0199 -12.9938 -12.9720 -12.9078 -12.8301 -12.7289 -12.7011 -12.6828
   -12.5304 -12.5044 -12.4584 -12.4503 -12.4282 -12.4228 -12.3839 -12.3610
   -12.3504 -12.2803 -12.2189 -12.1970 -12.1742 -12.1592 -12.1532 -12.1503
   -12.0545 -12.0384  -7.8932  -7.6860  -6.2146  -6.1260  -6.1042  -6.0850
    -6.0182  -5.8712  -5.8521  -5.8328  -5.7067  -5.5253  -5.5064  -5.4809
    -5.4499  -5.4422  -5.4343  -5.3855  -5.3761  -5.3131  -5.3055  -5.0756
    -5.0536  -5.0202  -5.0034  -4.7982  -4.5995  -4.5448  -4.4721  -4.4363
    -4.4085  -4.3684  -4.3485  -4.3047  -4.2409  -4.2174  -4.1921  -4.1569
    -4.1185  -4.1099  -4.0979  -4.0720  -4.0649  -4.0487  -4.0378  -3.6622
    -3.5581  -3.5121  -3.4688  -3.4498  -3.4194  -3.3905  -3.3522  -3.3126
    -3.2805  -3.2727  -3.2553  -3.2380  -3.2094  -3.1915  -3.1410  -3.1117
    -3.0628  -3.0308  -3.0055  -2.9444  -2.9255  -2.8936  -2.8182  -2.7584
    -2.7103  -2.6959  -2.6420  -2.6203  -2.5874  -2.5734  -2.5344  -2.4727
    -2.4223  -2.4161  -2.3859  -2.3250  -2.2745  -2.2457  -2.2373  -2.1599
    -2.1093  -2.0921  -2.0477  -2.0249  -2.0055  -1.9869  -1.9505  -1.9160
    -1.9031  -1.8900  -1.8798  -1.8619  -1.8533  -1.8453  -1.8341  -1.8152
    -1.7759  -1.7459  -1.7059  -1.6838  -1.6797  -1.6546  -1.6403  -1.6066
    -1.5799  -1.5482  -1.4918  -1.4625  -1.4415  -1.3473  -1.3188  -1.2903
    -1.2585  -1.2061  -1.1680  -1.1225  -1.1108  -1.0892  -1.0636  -0.9785
    -0.9462  -0.8695  -0.7279  -0.7115  -0.6336  -0.6162  -0.4946  -0.4483
    -0.4407  -0.4189  -0.3981  -0.3678  -0.2852  -0.0918   0.0077   0.0388
     0.1494   1.3761   1.6890

     occupation numbers 
     1.0000   1.0000   1.0000   1.0000   1.0000   1.0000   1.0000   1.0000
     1.0000   1.0000   1.0000   1.0000   1.0000   1.0000   1.0000   1.0000
     1.0000   1.0000   1.0000   1.0000   1.0000   1.0000   1.0000   1.0000
     1.0000   1.0000   1.0000   1.0000   1.0000   1.0000   1.0000   1.0000
     1.0000   1.0000   1.0000   1.0000   1.0000   1.0000   1.0000   1.0000
     1.0000   1.0000   1.0000   1.0000   1.0000   1.0000   1.0000   1.0000
     1.0000   1.0000   1.0000   1.0000   1.0000   1.0000   1.0000   1.0000
     1.0000   1.0000   1.0000   1.0000   1.0000   1.0000   1.0000   1.0000
     1.0000   1.0000   1.0000   1.0000   1.0000   1.0000   1.0000   1.0000
     1.0000   1.0000   1.0000   1.0000   1.0000   1.0000   1.0000   1.0000
     1.0000   1.0000   1.0000   1.0000   1.0000   1.0000   1.0000   1.0000
     1.0000   1.0000   1.0000   1.0000   1.0000   1.0000   1.0000   1.0000
     1.0000   1.0000   1.0000   1.0000   1.0000   1.0000   1.0000   1.0000
     1.0000   1.0000   1.0000   1.0000   1.0000   1.0000   1.0000   1.0000
     1.0000   1.0000   1.0000   1.0000   1.0000   1.0000   1.0000   1.0000
     1.0000   1.0000   1.0000   1.0000   1.0000   1.0000   1.0000   1.0000
     1.0000   1.0000   1.0000   1.0000   1.0000   1.0000   1.0000   1.0000
     1.0000   1.0000   1.0000   1.0000   1.0000   1.0000   1.0000   1.0000
     1.0000   1.0000   1.0000   1.0000   1.0000   1.0000   1.0000   1.0000
     1.0000   1.0000   1.0000   1.0000   1.0000   1.0000   1.0000   1.0000
     1.0000   1.0000   1.0000   1.0000   1.0000   1.0000   1.0000   1.0000
     1.0000   1.0000   1.0000   1.0000   1.0000   1.0000   1.0000   1.0000
     1.0000   1.0000   1.0000   1.0000   1.0000   1.0000   1.0000   1.0000
     1.0000   1.0000   1.0000   1.0000   1.0000   1.0000   1.0000   1.0000
     1.0000   1.0000   1.0000   1.0000   1.0000   1.0000   1.0000   1.0000
     1.0000   1.0000   1.0000   1.0000   1.0000   1.0000   1.0000   1.0000
     1.0000   1.0000   1.0000   1.0000   1.0000   1.0000   1.0000   1.0000
     1.0000   1.0000   1.0000   1.0000   1.0000   1.0000   1.0000   1.0000
     1.0000   1.0000   1.0000   1.0000   1.0000   1.0000   1.0000   1.0000
     1.0000   1.0000   1.0000   1.0000   1.0000   1.0000   1.0000   1.0000
     1.0000   1.0000   0.0000

          k = 0.4000 0.2309 0.0000 (112236 PWs)   bands (ev):

   -73.8139 -73.8102 -73.8069 -73.8050 -73.8024 -73.8015 -73.7991 -73.7964
   -73.7939 -73.7893 -73.7880 -73.7867 -73.7825 -73.7416 -73.7319 -73.7289
   -38.1992 -38.1988 -38.1850 -38.1807 -38.1710 -38.1563 -38.1552 -38.1395
   -38.1227 -38.1171 -38.0986 -38.0940 -38.0555 -38.0521 -38.0428 -38.0346
   -38.0246 -38.0185 -38.0079 -38.0070 -38.0059 -38.0036 -37.9996 -37.9970
   -37.9922 -37.9918 -37.9900 -37.9877 -37.9863 -37.9819 -37.9766 -37.9740
   -37.9691 -37.9596 -37.9577 -37.9509 -37.9439 -37.9423 -37.9400 -37.9354
   -37.9276 -37.9240 -37.9180 -37.9103 -37.8980 -37.8861 -37.8810 -37.8607
   -21.6872 -15.3447 -14.4318 -14.2297 -13.8649 -13.8557 -13.2451 -13.2415
   -13.0169 -12.9934 -12.9742 -12.9071 -12.8308 -12.7266 -12.7030 -12.6837
   -12.5381 -12.4966 -12.4626 -12.4477 -12.4272 -12.4227 -12.3845 -12.3596
   -12.3481 -12.2802 -12.2260 -12.1950 -12.1759 -12.1582 -12.1534 -12.1477
   -12.0516 -12.0409  -7.8933  -7.6860  -6.2145  -6.1165  -6.1077  -6.0836
    -6.0309  -5.8639  -5.8521  -5.8297  -5.7113  -5.5270  -5.5056  -5.4837
    -5.4452  -5.4440  -5.4361  -5.3851  -5.3779  -5.3106  -5.3042  -5.0684
    -5.0649  -5.0186  -5.0077  -4.7712  -4.6089  -4.5533  -4.4785  -4.4463
    -4.4147  -4.3677  -4.3447  -4.3010  -4.2352  -4.2218  -4.1878  -4.1541
    -4.1219  -4.1122  -4.0989  -4.0734  -4.0603  -4.0464  -4.0390  -3.6473
    -3.5537  -3.5142  -3.4580  -3.4437  -3.4227  -3.3935  -3.3544  -3.3205
    -3.2867  -3.2667  -3.2493  -3.2310  -3.2140  -3.1977  -3.1310  -3.1127
    -3.0711  -3.0524  -3.0125  -2.9453  -2.9234  -2.8981  -2.8255  -2.7577
    -2.7087  -2.6782  -2.6340  -2.6103  -2.6062  -2.5896  -2.4982  -2.4755
    -2.4481  -2.4242  -2.3647  -2.3243  -2.2682  -2.2532  -2.2378  -2.1410
    -2.1073  -2.0977  -2.0328  -2.0050  -1.9963  -1.9777  -1.9672  -1.9516
    -1.9254  -1.8951  -1.8806  -1.8600  -1.8471  -1.8417  -1.8333  -1.8109
    -1.7937  -1.7368  -1.7157  -1.6952  -1.6838  -1.6333  -1.6207  -1.6142
    -1.5910  -1.5439  -1.5016  -1.4887  -1.4071  -1.3553  -1.3023  -1.2836
    -1.2460  -1.2265  -1.1852  -1.1302  -1.1133  -1.0547  -1.0341  -0.9850
    -0.9634  -0.8762  -0.7241  -0.7178  -0.6331  -0.6226  -0.5026  -0.4519
    -0.4429  -0.4163  -0.4005  -0.3564  -0.2794  -0.0926   0.0097   0.0350
     0.1519   1.3600   1.7095

     occupation numbers 
     1.0000   1.0000   1.0000   1.0000   1.0000   1.0000   1.0000   1.0000
     1.0000   1.0000   1.0000   1.0000   1.0000   1.0000   1.0000   1.0000
     1.0000   1.0000   1.0000   1.0000   1.0000   1.0000   1.0000   1.0000
     1.0000   1.0000   1.0000   1.0000   1.0000   1.0000   1.0000   1.0000
     1.0000   1.0000   1.0000   1.0000   1.0000   1.0000   1.0000   1.0000
     1.0000   1.0000   1.0000   1.0000   1.0000   1.0000   1.0000   1.0000
     1.0000   1.0000   1.0000   1.0000   1.0000   1.0000   1.0000   1.0000
     1.0000   1.0000   1.0000   1.0000   1.0000   1.0000   1.0000   1.0000
     1.0000   1.0000   1.0000   1.0000   1.0000   1.0000   1.0000   1.0000
     1.0000   1.0000   1.0000   1.0000   1.0000   1.0000   1.0000   1.0000
     1.0000   1.0000   1.0000   1.0000   1.0000   1.0000   1.0000   1.0000
     1.0000   1.0000   1.0000   1.0000   1.0000   1.0000   1.0000   1.0000
     1.0000   1.0000   1.0000   1.0000   1.0000   1.0000   1.0000   1.0000
     1.0000   1.0000   1.0000   1.0000   1.0000   1.0000   1.0000   1.0000
     1.0000   1.0000   1.0000   1.0000   1.0000   1.0000   1.0000   1.0000
     1.0000   1.0000   1.0000   1.0000   1.0000   1.0000   1.0000   1.0000
     1.0000   1.0000   1.0000   1.0000   1.0000   1.0000   1.0000   1.0000
     1.0000   1.0000   1.0000   1.0000   1.0000   1.0000   1.0000   1.0000
     1.0000   1.0000   1.0000   1.0000   1.0000   1.0000   1.0000   1.0000
     1.0000   1.0000   1.0000   1.0000   1.0000   1.0000   1.0000   1.0000
     1.0000   1.0000   1.0000   1.0000   1.0000   1.0000   1.0000   1.0000
     1.0000   1.0000   1.0000   1.0000   1.0000   1.0000   1.0000   1.0000
     1.0000   1.0000   1.0000   1.0000   1.0000   1.0000   1.0000   1.0000
     1.0000   1.0000   1.0000   1.0000   1.0000   1.0000   1.0000   1.0000
     1.0000   1.0000   1.0000   1.0000   1.0000   1.0000   1.0000   1.0000
     1.0000   1.0000   1.0000   1.0000   1.0000   1.0000   1.0000   1.0000
     1.0000   1.0000   1.0000   1.0000   1.0000   1.0000   1.0000   1.0000
     1.0000   1.0000   1.0000   1.0000   1.0000   1.0000   1.0000   1.0000
     1.0000   1.0000   1.0000   1.0000   1.0000   1.0000   1.0000   1.0000
     1.0000   1.0000   1.0000   1.0000   1.0000   1.0000   1.0000   1.0000
     1.0000   1.0000   0.0000

          k =-0.2000 0.3464 0.0000 (112231 PWs)   bands (ev):

   -73.8140 -73.8099 -73.8071 -73.8049 -73.8027 -73.8016 -73.7986 -73.7962
   -73.7943 -73.7892 -73.7882 -73.7867 -73.7825 -73.7416 -73.7319 -73.7289
   -38.2055 -38.1970 -38.1944 -38.1723 -38.1672 -38.1591 -38.1487 -38.1420
   -38.1262 -38.1181 -38.1026 -38.0698 -38.0548 -38.0483 -38.0438 -38.0318
   -38.0275 -38.0223 -38.0170 -38.0158 -38.0108 -38.0047 -37.9990 -37.9966
   -37.9933 -37.9888 -37.9870 -37.9845 -37.9829 -37.9787 -37.9766 -37.9755
   -37.9696 -37.9676 -37.9575 -37.9521 -37.9492 -37.9469 -37.9375 -37.9342
   -37.9269 -37.9203 -37.9172 -37.9116 -37.8947 -37.8883 -37.8727 -37.8635
   -21.6872 -15.3447 -14.4716 -14.0980 -14.0578 -13.5703 -13.5535 -13.1700
   -13.1171 -13.0056 -12.9315 -12.8043 -12.7875 -12.7023 -12.6707 -12.6154
   -12.5816 -12.5745 -12.5664 -12.4516 -12.4236 -12.3902 -12.3765 -12.3074
   -12.2897 -12.2713 -12.2489 -12.2247 -12.2213 -12.1543 -12.1476 -12.1062
   -12.0942 -12.0337  -7.8932  -7.6860  -6.2164  -6.1815  -6.1391  -6.1179
    -6.0985  -5.7578  -5.7303  -5.7126  -5.6939  -5.6230  -5.5986  -5.5570
    -5.5034  -5.4724  -5.3516  -5.3258  -5.2953  -5.2619  -5.2374  -5.2152
    -5.0936  -4.9087  -4.8898  -4.7912  -4.7534  -4.5977  -4.5045  -4.4384
    -4.3907  -4.3399  -4.3300  -4.3043  -4.2775  -4.2557  -4.2405  -4.2217
    -4.1599  -4.1255  -4.1071  -4.0902  -4.0509  -3.7632  -3.7341  -3.7232
    -3.7036  -3.6863  -3.5820  -3.4995  -3.4137  -3.3756  -3.3637  -3.2994
    -3.2749  -3.2340  -3.2230  -3.1971  -3.1592  -3.1436  -3.1104  -3.0789
    -3.0513  -3.0007  -2.9555  -2.9383  -2.9230  -2.9178  -2.9075  -2.8936
    -2.7742  -2.7083  -2.6851  -2.6636  -2.5957  -2.5341  -2.5081  -2.4668
    -2.4487  -2.3983  -2.3798  -2.3510  -2.3112  -2.2068  -2.1890  -2.1444
    -2.1236  -2.1160  -2.0964  -2.0627  -2.0221  -1.9766  -1.9646  -1.9278
    -1.9017  -1.8898  -1.8583  -1.8419  -1.8160  -1.8090  -1.7860  -1.7641
    -1.7322  -1.7022  -1.6867  -1.6667  -1.6406  -1.6243  -1.5789  -1.5767
    -1.5544  -1.5428  -1.5182  -1.4929  -1.4249  -1.3886  -1.3776  -1.3376
    -1.2740  -1.2380  -1.1865  -1.1675  -1.1495  -1.1013  -1.0354  -0.9693
    -0.8703  -0.8265  -0.6811  -0.6649  -0.6285  -0.6183  -0.6030  -0.5334
    -0.5294  -0.4069  -0.3778  -0.2517  -0.1988  -0.1903  -0.1444   0.0807
     0.1641   1.3377   1.7181

     occupation numbers 
     1.0000   1.0000   1.0000   1.0000   1.0000   1.0000   1.0000   1.0000
     1.0000   1.0000   1.0000   1.0000   1.0000   1.0000   1.0000   1.0000
     1.0000   1.0000   1.0000   1.0000   1.0000   1.0000   1.0000   1.0000
     1.0000   1.0000   1.0000   1.0000   1.0000   1.0000   1.0000   1.0000
     1.0000   1.0000   1.0000   1.0000   1.0000   1.0000   1.0000   1.0000
     1.0000   1.0000   1.0000   1.0000   1.0000   1.0000   1.0000   1.0000
     1.0000   1.0000   1.0000   1.0000   1.0000   1.0000   1.0000   1.0000
     1.0000   1.0000   1.0000   1.0000   1.0000   1.0000   1.0000   1.0000
     1.0000   1.0000   1.0000   1.0000   1.0000   1.0000   1.0000   1.0000
     1.0000   1.0000   1.0000   1.0000   1.0000   1.0000   1.0000   1.0000
     1.0000   1.0000   1.0000   1.0000   1.0000   1.0000   1.0000   1.0000
     1.0000   1.0000   1.0000   1.0000   1.0000   1.0000   1.0000   1.0000
     1.0000   1.0000   1.0000   1.0000   1.0000   1.0000   1.0000   1.0000
     1.0000   1.0000   1.0000   1.0000   1.0000   1.0000   1.0000   1.0000
     1.0000   1.0000   1.0000   1.0000   1.0000   1.0000   1.0000   1.0000
     1.0000   1.0000   1.0000   1.0000   1.0000   1.0000   1.0000   1.0000
     1.0000   1.0000   1.0000   1.0000   1.0000   1.0000   1.0000   1.0000
     1.0000   1.0000   1.0000   1.0000   1.0000   1.0000   1.0000   1.0000
     1.0000   1.0000   1.0000   1.0000   1.0000   1.0000   1.0000   1.0000
     1.0000   1.0000   1.0000   1.0000   1.0000   1.0000   1.0000   1.0000
     1.0000   1.0000   1.0000   1.0000   1.0000   1.0000   1.0000   1.0000
     1.0000   1.0000   1.0000   1.0000   1.0000   1.0000   1.0000   1.0000
     1.0000   1.0000   1.0000   1.0000   1.0000   1.0000   1.0000   1.0000
     1.0000   1.0000   1.0000   1.0000   1.0000   1.0000   1.0000   1.0000
     1.0000   1.0000   1.0000   1.0000   1.0000   1.0000   1.0000   1.0000
     1.0000   1.0000   1.0000   1.0000   1.0000   1.0000   1.0000   1.0000
     1.0000   1.0000   1.0000   1.0000   1.0000   1.0000   1.0000   1.0000
     1.0000   1.0000   1.0000   1.0000   1.0000   1.0000   1.0000   1.0000
     1.0000   1.0000   1.0000   1.0000   1.0000   1.0000   1.0000   1.0000
     1.0000   1.0000   1.0000   1.0000   1.0000   1.0000   1.0000   1.0000
     1.0000   1.0000   0.0000

          k = 0.4000-0.0000 0.0000 (112231 PWs)   bands (ev):

   -73.8139 -73.8101 -73.8069 -73.8050 -73.8023 -73.8018 -73.7989 -73.7963
   -73.7940 -73.7893 -73.7881 -73.7867 -73.7825 -73.7416 -73.7319 -73.7290
   -38.2056 -38.1966 -38.1948 -38.1721 -38.1683 -38.1589 -38.1485 -38.1411
   -38.1249 -38.1166 -38.1060 -38.0708 -38.0536 -38.0480 -38.0436 -38.0327
   -38.0261 -38.0229 -38.0179 -38.0158 -38.0107 -38.0057 -37.9993 -37.9950
   -37.9927 -37.9892 -37.9867 -37.9852 -37.9823 -37.9796 -37.9765 -37.9757
   -37.9690 -37.9659 -37.9581 -37.9526 -37.9501 -37.9460 -37.9374 -37.9356
   -37.9251 -37.9203 -37.9172 -37.9101 -37.8961 -37.8897 -37.8737 -37.8619
   -21.6872 -15.3447 -14.4716 -14.0958 -14.0600 -13.5638 -13.5607 -13.1662
   -13.1193 -13.0093 -12.9259 -12.8015 -12.7904 -12.7065 -12.6783 -12.5999
   -12.5960 -12.5719 -12.5574 -12.4539 -12.4200 -12.4087 -12.3619 -12.3056
   -12.2901 -12.2681 -12.2511 -12.2333 -12.2184 -12.1551 -12.1449 -12.1047
   -12.0951 -12.0342  -7.8932  -7.6860  -6.2160  -6.1745  -6.1464  -6.1131
    -6.1048  -5.7503  -5.7354  -5.7167  -5.6815  -5.6304  -5.6041  -5.5558
    -5.5011  -5.4697  -5.3479  -5.3312  -5.2864  -5.2678  -5.2396  -5.2243
    -5.0929  -4.8961  -4.8831  -4.8048  -4.7527  -4.5609  -4.5282  -4.4534
    -4.4033  -4.3419  -4.3340  -4.3073  -4.2723  -4.2603  -4.2381  -4.2051
    -4.1711  -4.1141  -4.1059  -4.0865  -4.0504  -3.7537  -3.7287  -3.7222
    -3.7019  -3.6928  -3.5949  -3.4751  -3.4230  -3.3911  -3.3650  -3.3102
    -3.2709  -3.2388  -3.2271  -3.1967  -3.1681  -3.1382  -3.1184  -3.0743
    -3.0319  -2.9840  -2.9618  -2.9433  -2.9350  -2.9112  -2.8972  -2.8878
    -2.7621  -2.7257  -2.6885  -2.6369  -2.6092  -2.5554  -2.5191  -2.4608
    -2.4479  -2.4090  -2.3771  -2.3345  -2.3098  -2.2137  -2.1734  -2.1433
    -2.1215  -2.1173  -2.0920  -2.0826  -1.9944  -1.9771  -1.9640  -1.9309
    -1.9155  -1.8903  -1.8679  -1.8543  -1.8376  -1.8129  -1.7756  -1.7536
    -1.7272  -1.7005  -1.6807  -1.6647  -1.6440  -1.6166  -1.5864  -1.5667
    -1.5475  -1.5384  -1.5185  -1.4902  -1.4399  -1.4019  -1.3579  -1.3294
    -1.2767  -1.2520  -1.1930  -1.1706  -1.1431  -1.0923  -1.0354  -0.9680
    -0.8603  -0.8410  -0.6758  -0.6673  -0.6284  -0.6149  -0.6069  -0.5325
    -0.5282  -0.4252  -0.3712  -0.2445  -0.1996  -0.1856  -0.1474   0.0783
     0.1637   1.3680   1.6854

     occupation numbers 
     1.0000   1.0000   1.0000   1.0000   1.0000   1.0000   1.0000   1.0000
     1.0000   1.0000   1.0000   1.0000   1.0000   1.0000   1.0000   1.0000
     1.0000   1.0000   1.0000   1.0000   1.0000   1.0000   1.0000   1.0000
     1.0000   1.0000   1.0000   1.0000   1.0000   1.0000   1.0000   1.0000
     1.0000   1.0000   1.0000   1.0000   1.0000   1.0000   1.0000   1.0000
     1.0000   1.0000   1.0000   1.0000   1.0000   1.0000   1.0000   1.0000
     1.0000   1.0000   1.0000   1.0000   1.0000   1.0000   1.0000   1.0000
     1.0000   1.0000   1.0000   1.0000   1.0000   1.0000   1.0000   1.0000
     1.0000   1.0000   1.0000   1.0000   1.0000   1.0000   1.0000   1.0000
     1.0000   1.0000   1.0000   1.0000   1.0000   1.0000   1.0000   1.0000
     1.0000   1.0000   1.0000   1.0000   1.0000   1.0000   1.0000   1.0000
     1.0000   1.0000   1.0000   1.0000   1.0000   1.0000   1.0000   1.0000
     1.0000   1.0000   1.0000   1.0000   1.0000   1.0000   1.0000   1.0000
     1.0000   1.0000   1.0000   1.0000   1.0000   1.0000   1.0000   1.0000
     1.0000   1.0000   1.0000   1.0000   1.0000   1.0000   1.0000   1.0000
     1.0000   1.0000   1.0000   1.0000   1.0000   1.0000   1.0000   1.0000
     1.0000   1.0000   1.0000   1.0000   1.0000   1.0000   1.0000   1.0000
     1.0000   1.0000   1.0000   1.0000   1.0000   1.0000   1.0000   1.0000
     1.0000   1.0000   1.0000   1.0000   1.0000   1.0000   1.0000   1.0000
     1.0000   1.0000   1.0000   1.0000   1.0000   1.0000   1.0000   1.0000
     1.0000   1.0000   1.0000   1.0000   1.0000   1.0000   1.0000   1.0000
     1.0000   1.0000   1.0000   1.0000   1.0000   1.0000   1.0000   1.0000
     1.0000   1.0000   1.0000   1.0000   1.0000   1.0000   1.0000   1.0000
     1.0000   1.0000   1.0000   1.0000   1.0000   1.0000   1.0000   1.0000
     1.0000   1.0000   1.0000   1.0000   1.0000   1.0000   1.0000   1.0000
     1.0000   1.0000   1.0000   1.0000   1.0000   1.0000   1.0000   1.0000
     1.0000   1.0000   1.0000   1.0000   1.0000   1.0000   1.0000   1.0000
     1.0000   1.0000   1.0000   1.0000   1.0000   1.0000   1.0000   1.0000
     1.0000   1.0000   1.0000   1.0000   1.0000   1.0000   1.0000   1.0000
     1.0000   1.0000   1.0000   1.0000   1.0000   1.0000   1.0000   1.0000
     1.0000   1.0000   0.0000

          k =-0.4000 0.4619 0.0000 (112237 PWs)   bands (ev):

   -73.8139 -73.8101 -73.8071 -73.8050 -73.8024 -73.8017 -73.7987 -73.7963
   -73.7941 -73.7893 -73.7881 -73.7867 -73.7825 -73.7416 -73.7319 -73.7290
   -38.1959 -38.1899 -38.1801 -38.1775 -38.1698 -38.1660 -38.1580 -38.1430
   -38.1392 -38.1231 -38.0867 -38.0835 -38.0776 -38.0446 -38.0411 -38.0355
   -38.0282 -38.0245 -38.0158 -38.0076 -38.0050 -38.0002 -37.9982 -37.9960
   -37.9941 -37.9930 -37.9896 -37.9851 -37.9818 -37.9765 -37.9692 -37.9659
   -37.9603 -37.9556 -37.9527 -37.9510 -37.9495 -37.9427 -37.9381 -37.9363
   -37.9306 -37.9240 -37.9196 -37.9162 -37.9055 -37.8871 -37.8744 -37.8666
   -21.6872 -15.3447 -14.3335 -14.2873 -14.1124 -13.5928 -13.2941 -13.2912
   -12.9554 -12.9449 -12.8824 -12.8538 -12.8245 -12.7990 -12.7937 -12.6609
   -12.6317 -12.5932 -12.4905 -12.4808 -12.3842 -12.3718 -12.3442 -12.3227
   -12.3079 -12.2960 -12.2581 -12.2326 -12.2275 -12.1311 -12.1182 -12.1125
   -12.0780 -12.0147  -7.8932  -7.6860  -6.2135  -6.0464  -6.0120  -5.9652
    -5.9099  -5.8859  -5.8726  -5.8541  -5.8051  -5.7407  -5.6817  -5.6210
    -5.6055  -5.5376  -5.3538  -5.2782  -5.2426  -5.2121  -5.1964  -5.1640
    -5.1527  -4.8484  -4.8278  -4.7374  -4.6160  -4.5803  -4.5384  -4.5175
    -4.4845  -4.4191  -4.3772  -4.3193  -4.3021  -4.2377  -4.2229  -4.2033
    -4.1887  -4.1591  -4.1173  -4.0906  -3.9516  -3.9436  -3.7829  -3.6598
    -3.5972  -3.5806  -3.4209  -3.3832  -3.3495  -3.3171  -3.2966  -3.2744
    -3.2668  -3.2601  -3.2361  -3.2254  -3.2149  -3.2069  -3.1389  -3.1157
    -3.0904  -3.0728  -3.0531  -3.0339  -2.9797  -2.9175  -2.8365  -2.7925
    -2.7288  -2.6998  -2.6836  -2.6603  -2.6021  -2.5618  -2.4816  -2.4011
    -2.3856  -2.3196  -2.3154  -2.3079  -2.2585  -2.1789  -2.1650  -2.1444
    -2.1272  -2.0819  -2.0667  -2.0394  -2.0170  -1.9636  -1.9501  -1.9344
    -1.9217  -1.9076  -1.8845  -1.8707  -1.8573  -1.8462  -1.8395  -1.8321
    -1.8049  -1.7816  -1.7462  -1.7170  -1.6906  -1.6777  -1.6539  -1.6382
    -1.6125  -1.5709  -1.5181  -1.4931  -1.4735  -1.4512  -1.4019  -1.3003
    -1.2649  -1.2253  -1.1572  -1.1085  -1.0851  -1.0594  -1.0312  -0.9426
    -0.8083  -0.7802  -0.6942  -0.6835  -0.6496  -0.6364  -0.5932  -0.5738
    -0.5573  -0.3903  -0.2717  -0.2669  -0.1685  -0.1124  -0.0697   0.1220
     0.1952   1.3758   1.6997

     occupation numbers 
     1.0000   1.0000   1.0000   1.0000   1.0000   1.0000   1.0000   1.0000
     1.0000   1.0000   1.0000   1.0000   1.0000   1.0000   1.0000   1.0000
     1.0000   1.0000   1.0000   1.0000   1.0000   1.0000   1.0000   1.0000
     1.0000   1.0000   1.0000   1.0000   1.0000   1.0000   1.0000   1.0000
     1.0000   1.0000   1.0000   1.0000   1.0000   1.0000   1.0000   1.0000
     1.0000   1.0000   1.0000   1.0000   1.0000   1.0000   1.0000   1.0000
     1.0000   1.0000   1.0000   1.0000   1.0000   1.0000   1.0000   1.0000
     1.0000   1.0000   1.0000   1.0000   1.0000   1.0000   1.0000   1.0000
     1.0000   1.0000   1.0000   1.0000   1.0000   1.0000   1.0000   1.0000
     1.0000   1.0000   1.0000   1.0000   1.0000   1.0000   1.0000   1.0000
     1.0000   1.0000   1.0000   1.0000   1.0000   1.0000   1.0000   1.0000
     1.0000   1.0000   1.0000   1.0000   1.0000   1.0000   1.0000   1.0000
     1.0000   1.0000   1.0000   1.0000   1.0000   1.0000   1.0000   1.0000
     1.0000   1.0000   1.0000   1.0000   1.0000   1.0000   1.0000   1.0000
     1.0000   1.0000   1.0000   1.0000   1.0000   1.0000   1.0000   1.0000
     1.0000   1.0000   1.0000   1.0000   1.0000   1.0000   1.0000   1.0000
     1.0000   1.0000   1.0000   1.0000   1.0000   1.0000   1.0000   1.0000
     1.0000   1.0000   1.0000   1.0000   1.0000   1.0000   1.0000   1.0000
     1.0000   1.0000   1.0000   1.0000   1.0000   1.0000   1.0000   1.0000
     1.0000   1.0000   1.0000   1.0000   1.0000   1.0000   1.0000   1.0000
     1.0000   1.0000   1.0000   1.0000   1.0000   1.0000   1.0000   1.0000
     1.0000   1.0000   1.0000   1.0000   1.0000   1.0000   1.0000   1.0000
     1.0000   1.0000   1.0000   1.0000   1.0000   1.0000   1.0000   1.0000
     1.0000   1.0000   1.0000   1.0000   1.0000   1.0000   1.0000   1.0000
     1.0000   1.0000   1.0000   1.0000   1.0000   1.0000   1.0000   1.0000
     1.0000   1.0000   1.0000   1.0000   1.0000   1.0000   1.0000   1.0000
     1.0000   1.0000   1.0000   1.0000   1.0000   1.0000   1.0000   1.0000
     1.0000   1.0000   1.0000   1.0000   1.0000   1.0000   1.0000   1.0000
     1.0000   1.0000   1.0000   1.0000   1.0000   1.0000   1.0000   1.0000
     1.0000   1.0000   1.0000   1.0000   1.0000   1.0000   1.0000   1.0000
     1.0000   1.0000   0.0000

          k = 0.6000 0.1155 0.0000 (112237 PWs)   bands (ev):

   -73.8138 -73.8102 -73.8070 -73.8050 -73.8025 -73.8015 -73.7989 -73.7964
   -73.7940 -73.7893 -73.7881 -73.7867 -73.7825 -73.7416 -73.7319 -73.7289
   -38.1950 -38.1907 -38.1808 -38.1776 -38.1693 -38.1655 -38.1577 -38.1430
   -38.1397 -38.1227 -38.0866 -38.0840 -38.0782 -38.0433 -38.0412 -38.0357
   -38.0281 -38.0249 -38.0148 -38.0082 -38.0056 -37.9999 -37.9985 -37.9967
   -37.9942 -37.9917 -37.9895 -37.9855 -37.9818 -37.9765 -37.9693 -37.9653
   -37.9616 -37.9553 -37.9526 -37.9513 -37.9488 -37.9432 -37.9377 -37.9351
   -37.9296 -37.9244 -37.9195 -37.9176 -37.9051 -37.8879 -37.8767 -37.8642
   -21.6872 -15.3447 -14.3330 -14.2879 -14.1122 -13.5927 -13.3015 -13.2838
   -12.9619 -12.9382 -12.8775 -12.8576 -12.8247 -12.7991 -12.7945 -12.6639
   -12.6303 -12.5914 -12.5006 -12.4703 -12.3910 -12.3680 -12.3404 -12.3189
   -12.3082 -12.2980 -12.2615 -12.2330 -12.2283 -12.1290 -12.1188 -12.1128
   -12.0774 -12.0149  -7.8933  -7.6860  -6.2135  -6.0431  -6.0086  -5.9632
    -5.9205  -5.9026  -5.8734  -5.8311  -5.8039  -5.7457  -5.6839  -5.6186
    -5.6078  -5.5339  -5.3521  -5.2753  -5.2511  -5.2193  -5.1933  -5.1670
    -5.1439  -4.8507  -4.8344  -4.6873  -4.6403  -4.6023  -4.5452  -4.5086
    -4.4849  -4.4294  -4.3770  -4.3166  -4.2946  -4.2379  -4.2281  -4.1946
    -4.1857  -4.1632  -4.1167  -4.0925  -3.9533  -3.9426  -3.7798  -3.6581
    -3.5981  -3.5723  -3.4211  -3.3630  -3.3534  -3.3227  -3.2896  -3.2809
    -3.2783  -3.2523  -3.2376  -3.2275  -3.2159  -3.1956  -3.1694  -3.1351
    -3.0809  -3.0721  -3.0492  -3.0134  -2.9831  -2.9291  -2.8318  -2.7932
    -2.7338  -2.7077  -2.6904  -2.6341  -2.6159  -2.5241  -2.4882  -2.4494
    -2.3834  -2.3259  -2.3107  -2.2868  -2.2386  -2.1908  -2.1672  -2.1333
    -2.1101  -2.0914  -2.0703  -2.0302  -2.0056  -1.9721  -1.9571  -1.9448
    -1.9254  -1.8956  -1.8913  -1.8740  -1.8637  -1.8550  -1.8475  -1.8316
    -1.7984  -1.7846  -1.7386  -1.7211  -1.6898  -1.6792  -1.6486  -1.6287
    -1.6113  -1.5913  -1.5232  -1.5097  -1.4647  -1.4243  -1.3877  -1.3123
    -1.2732  -1.2171  -1.1503  -1.1298  -1.0891  -1.0427  -1.0063  -0.9617
    -0.8047  -0.7841  -0.6906  -0.6883  -0.6502  -0.6441  -0.5927  -0.5860
    -0.5432  -0.3917  -0.2743  -0.2605  -0.1660  -0.1157  -0.0690   0.1224
     0.1957   1.3661   1.7116

     occupation numbers 
     1.0000   1.0000   1.0000   1.0000   1.0000   1.0000   1.0000   1.0000
     1.0000   1.0000   1.0000   1.0000   1.0000   1.0000   1.0000   1.0000
     1.0000   1.0000   1.0000   1.0000   1.0000   1.0000   1.0000   1.0000
     1.0000   1.0000   1.0000   1.0000   1.0000   1.0000   1.0000   1.0000
     1.0000   1.0000   1.0000   1.0000   1.0000   1.0000   1.0000   1.0000
     1.0000   1.0000   1.0000   1.0000   1.0000   1.0000   1.0000   1.0000
     1.0000   1.0000   1.0000   1.0000   1.0000   1.0000   1.0000   1.0000
     1.0000   1.0000   1.0000   1.0000   1.0000   1.0000   1.0000   1.0000
     1.0000   1.0000   1.0000   1.0000   1.0000   1.0000   1.0000   1.0000
     1.0000   1.0000   1.0000   1.0000   1.0000   1.0000   1.0000   1.0000
     1.0000   1.0000   1.0000   1.0000   1.0000   1.0000   1.0000   1.0000
     1.0000   1.0000   1.0000   1.0000   1.0000   1.0000   1.0000   1.0000
     1.0000   1.0000   1.0000   1.0000   1.0000   1.0000   1.0000   1.0000
     1.0000   1.0000   1.0000   1.0000   1.0000   1.0000   1.0000   1.0000
     1.0000   1.0000   1.0000   1.0000   1.0000   1.0000   1.0000   1.0000
     1.0000   1.0000   1.0000   1.0000   1.0000   1.0000   1.0000   1.0000
     1.0000   1.0000   1.0000   1.0000   1.0000   1.0000   1.0000   1.0000
     1.0000   1.0000   1.0000   1.0000   1.0000   1.0000   1.0000   1.0000
     1.0000   1.0000   1.0000   1.0000   1.0000   1.0000   1.0000   1.0000
     1.0000   1.0000   1.0000   1.0000   1.0000   1.0000   1.0000   1.0000
     1.0000   1.0000   1.0000   1.0000   1.0000   1.0000   1.0000   1.0000
     1.0000   1.0000   1.0000   1.0000   1.0000   1.0000   1.0000   1.0000
     1.0000   1.0000   1.0000   1.0000   1.0000   1.0000   1.0000   1.0000
     1.0000   1.0000   1.0000   1.0000   1.0000   1.0000   1.0000   1.0000
     1.0000   1.0000   1.0000   1.0000   1.0000   1.0000   1.0000   1.0000
     1.0000   1.0000   1.0000   1.0000   1.0000   1.0000   1.0000   1.0000
     1.0000   1.0000   1.0000   1.0000   1.0000   1.0000   1.0000   1.0000
     1.0000   1.0000   1.0000   1.0000   1.0000   1.0000   1.0000   1.0000
     1.0000   1.0000   1.0000   1.0000   1.0000   1.0000   1.0000   1.0000
     1.0000   1.0000   1.0000   1.0000   1.0000   1.0000   1.0000   1.0000
     1.0000   1.0000   0.0000

     highest occupied, lowest unoccupied level (ev):     1.6173    1.6760

!    total energy              =  -16138.55510886 Ry
     total all-electron energy =   -595550.628314 Ry
     estimated scf accuracy    <          5.6E-11 Ry

     The total energy is the sum of the following terms:
     one-electron contribution =  -18312.16460108 Ry
     hartree contribution      =    9259.85965163 Ry
     xc contribution           =    -931.74534674 Ry
     ewald contribution        =    6415.48405734 Ry
     DFT-D3 Dispersion         =      -0.65558352 Ry
     one-center paw contrib.   =  -12569.33328649 Ry
      -> PAW hartree energy AE =      92.00280245 Ry
      -> PAW hartree energy PS =     -91.51074854 Ry
      -> PAW xc energy AE      =    -644.66491094 Ry
      -> PAW xc energy PS      =      38.62151200 Ry
      -> total E_H with PAW    =    9260.35170553 Ry
      -> total E_XC with PAW   =   -1537.78874568 Ry

     total magnetization       =     1.00 Bohr mag/cell
     absolute magnetization    =     1.12 Bohr mag/cell

     convergence has been achieved in  44 iterations

     negative rho (up, down):  4.796E-03 5.163E-03

     Forces acting on atoms (cartesian axes, Ry/au):

     atom    1 type  2   force =    -0.00000412   -0.00007977   -0.00014720
     atom    2 type  2   force =    -0.00018981    0.00001880    0.00013094
     atom    3 type  2   force =    -0.00026047   -0.00016237   -0.00001129
     atom    4 type  2   force =     0.00028256    0.00027384    0.00004418
     atom    5 type  2   force =    -0.00001257   -0.00022998    0.00001360
     atom    6 type  2   force =    -0.00001677    0.00006401   -0.00000668
     atom    7 type  2   force =     0.00006213   -0.00002702    0.00009722
     atom    8 type  2   force =     0.00013690    0.00007785    0.00006802
     atom    9 type  2   force =    -0.00021064   -0.00007320    0.00005582
     atom   10 type  2   force =     0.00009244    0.00009757    0.00008195
     atom   11 type  2   force =    -0.00006086    0.00021105   -0.00001653
     atom   12 type  2   force =    -0.00000598    0.00006947   -0.00013801
     atom   13 type  2   force =    -0.00013579    0.00015564    0.00007950
     atom   14 type  2   force =     0.00011407    0.00001640    0.00000337
     atom   15 type  2   force =     0.00000584   -0.00016621   -0.00005531
     atom   16 type  2   force =    -0.00024016   -0.00016342   -0.00003944
     atom   17 type  1   force =    -0.00009080    0.00017387   -0.00002368
     atom   18 type  1   force =    -0.00005855   -0.00018538   -0.00006656
     atom   19 type  1   force =    -0.00010963    0.00010763   -0.00003209
     atom   20 type  1   force =     0.00012489   -0.00002127   -0.00006434
     atom   21 type  1   force =    -0.00008555    0.00000626    0.00005157
     atom   22 type  1   force =    -0.00002519    0.00001013   -0.00033558
     atom   23 type  1   force =    -0.00004812    0.00002690    0.00003598
     atom   24 type  1   force =     0.00012422    0.00000215    0.00001557
     atom   25 type  1   force =    -0.00002018   -0.00003884    0.00001900
     atom   26 type  1   force =     0.00004923   -0.00007587   -0.00008729
     atom   27 type  1   force =     0.00008996    0.00007809    0.00001931
     atom   28 type  1   force =    -0.00027612    0.00002083   -0.00036394
     atom   29 type  1   force =    -0.00002041   -0.00012509   -0.00012596
     atom   30 type  1   force =    -0.00007503   -0.00000628    0.00008359
     atom   31 type  1   force =    -0.00021190   -0.00006436   -0.00004431
     atom   32 type  1   force =     0.00024900    0.00007626   -0.00016839
     atom   33 type  1   force =     0.00002543    0.00005144   -0.00015707
     atom   34 type  1   force =     0.00001034    0.00006418    0.00004352
     atom   35 type  1   force =     0.00002286   -0.00000038   -0.00003528
     atom   36 type  1   force =    -0.00003596   -0.00004529    0.00004662
     atom   37 type  1   force =    -0.00011234    0.00001589   -0.00012357
     atom   38 type  1   force =     0.00009019   -0.00016112    0.00001171
     atom   39 type  1   force =     0.00014571    0.00003263    0.00003052
     atom   40 type  1   force =     0.00011153   -0.00003027    0.00006995
     atom   41 type  1   force =    -0.00011776    0.00005012    0.00006637
     atom   42 type  1   force =     0.00004426    0.00005753    0.00000167
     atom   43 type  1   force =    -0.00024940    0.00000831    0.00015186
     atom   44 type  1   force =    -0.00007681    0.00009946   -0.00036967
     atom   45 type  1   force =    -0.00009836   -0.00004333    0.00005286
     atom   46 type  1   force =     0.00000893    0.00003984   -0.00015407
     atom   47 type  1   force =    -0.00004677   -0.00017320   -0.00016267
     atom   48 type  1   force =    -0.00002940    0.00004828    0.00014993
     atom   49 type  3   force =     0.00090024   -0.00003754   -0.00025939
     atom   50 type  3   force =    -0.00033811   -0.00079971    0.00062421
     atom   51 type  3   force =    -0.00033965   -0.00010566   -0.00012543
     atom   52 type  3   force =     0.00046502    0.00037809    0.00052081
     atom   53 type  3   force =    -0.00073888    0.00023646    0.00087719
     atom   54 type  4   force =     0.02433580   -0.00467933    0.00822324
     atom   55 type  5   force =    -0.01490860   -0.00096676   -0.00281814
     atom   56 type  6   force =    -0.00250722   -0.00017662   -0.00202590
     atom   57 type  6   force =    -0.00144398   -0.00019455    0.00050160
     atom   58 type  6   force =    -0.00428967    0.00626384   -0.00421388
     The non-local contrib.  to forces
     atom    1 type  2   force =    -0.00047480    0.00023829   -0.00009181
     atom    2 type  2   force =     0.00035728   -0.00015030   -0.00019446
     atom    3 type  2   force =    -0.00390098   -0.00385797    0.00603458
     atom    4 type  2   force =    -0.00236787   -0.00004750    0.00309507
     atom    5 type  2   force =    -0.00054979    0.00926804    0.00836676
     atom    6 type  2   force =     0.00405474   -0.00045024    0.01270955
     atom    7 type  2   force =     0.00359952   -0.00282251    0.00571952
     atom    8 type  2   force =     0.00048032    0.00022324    0.00051768
     atom    9 type  2   force =     0.00018401    0.00103471    0.00332015
     atom   10 type  2   force =    -0.00362748    0.00166694    0.01382671
     atom   11 type  2   force =    -0.00039399   -0.00030941    0.01551270
     atom   12 type  2   force =     0.00589282   -0.00340689    0.00757559
     atom   13 type  2   force =    -0.00013367    0.00028836   -0.00031635
     atom   14 type  2   force =     0.00074479    0.00162027    0.00307978
     atom   15 type  2   force =    -0.00072569   -0.00210397    0.00705314
     atom   16 type  2   force =    -0.00286145   -0.00023554    0.00574082
     atom   17 type  1   force =     0.00084129    0.00126999   -0.27570904
     atom   18 type  1   force =     0.00429606    0.00240807   -0.27657612
     atom   19 type  1   force =     0.00095507    0.00009569   -0.27534744
     atom   20 type  1   force =    -0.00088153   -0.00064053   -0.27641111
     atom   21 type  1   force =    -0.00027021    0.00141426   -0.27545279
     atom   22 type  1   force =     0.01182726    0.02354954   -0.15673760
     atom   23 type  1   force =    -0.00173629   -0.00216568   -0.18674972
     atom   24 type  1   force =     0.00274087   -0.00128930   -0.27539902
     atom   25 type  1   force =     0.00010622   -0.00086477   -0.27674763
     atom   26 type  1   force =     0.00288629    0.00952318   -0.25647826
     atom   27 type  1   force =     0.01824194    0.00623009   -0.22534151
     atom   28 type  1   force =     0.01937421   -0.01742375   -0.19303238
     atom   29 type  1   force =     0.00088993   -0.00184567   -0.27491235
     atom   30 type  1   force =    -0.00196042    0.00125383   -0.27604295
     atom   31 type  1   force =    -0.02394876   -0.01162270   -0.21282858
     atom   32 type  1   force =    -0.00975009   -0.00787936   -0.24420874
     atom   33 type  1   force =    -0.00022838    0.00030990    0.27623054
     atom   34 type  1   force =     0.00171847    0.00243406    0.27673475
     atom   35 type  1   force =     0.00154128   -0.00049398    0.27628303
     atom   36 type  1   force =    -0.00083400   -0.00082673    0.27581712
     atom   37 type  1   force =     0.00033116    0.00196938    0.27562112
     atom   38 type  1   force =     0.00295625    0.00258113    0.27717290
     atom   39 type  1   force =     0.00248062    0.00067139    0.27704024
     atom   40 type  1   force =     0.00205242   -0.00164268    0.27530810
     atom   41 type  1   force =     0.00021971    0.00048339    0.27665411
     atom   42 type  1   force =    -0.00264179    0.00246995    0.27560480
     atom   43 type  1   force =    -0.00191974   -0.00055533    0.27976195
     atom   44 type  1   force =     0.00088858   -0.00429675    0.27701999
     atom   45 type  1   force =    -0.00063573   -0.00172465    0.27610473
     atom   46 type  1   force =    -0.00124767   -0.00047763    0.27628297
     atom   47 type  1   force =    -0.00342242   -0.00008807    0.27526660
     atom   48 type  1   force =    -0.00234666   -0.00163863    0.27541045
     atom   49 type  3   force =    -0.18399715    0.03165671   -0.06060933
     atom   50 type  3   force =    -0.00813659   -0.13012502   -0.07512650
     atom   51 type  3   force =     0.19369462   -0.01618600   -0.09590591
     atom   52 type  3   force =     0.02007198    0.14015047   -0.09297928
     atom   53 type  3   force =     0.02139327    0.02822467    0.14958721
     atom   54 type  4   force =    -0.86303423   -0.27792593    0.92202355
     atom   55 type  5   force =     1.93821608    0.55313362   -1.49503825
     atom   56 type  6   force =    -0.00889623   -0.07141895   -0.06465386
     atom   57 type  6   force =     0.01170170   -0.01482824    0.09900284
     atom   58 type  6   force =    -0.03094941    0.08107302   -0.03987322
     The ionic contribution  to forces
     atom    1 type  2   force =    -0.93932943   -0.19597485   -8.51247462
     atom    2 type  2   force =    -0.97159631   -1.15713468   -8.88039258
     atom    3 type  2   force =     1.92161667    0.65019751   -9.43970202
     atom    4 type  2   force =     1.76639683    1.72449030   -9.24140232
     atom    5 type  2   force =    -0.75999607   -3.39394474  -10.32550456
     atom    6 type  2   force =    -3.93347577   -3.11199758  -14.38189925
     atom    7 type  2   force =    -3.78920550    1.11557879  -12.06374136
     atom    8 type  2   force =    -0.45979013    0.22285618   -8.34425042
     atom    9 type  2   force =     1.12830162   -2.55011272  -10.29894316
     atom   10 type  2   force =     1.18944987   -3.57191245  -19.43119728
     atom   11 type  2   force =    -2.00063986    2.17448174  -20.50220515
     atom   12 type  2   force =    -1.90144182    2.98599580  -10.56685676
     atom   13 type  2   force =     0.52950699    0.57648775   -8.41983459
     atom   14 type  2   force =     3.83181510   -2.05732635  -11.86105427
     atom   15 type  2   force =     3.84718778    1.90196230  -17.31764346
     atom   16 type  2   force =     0.57187847    4.70737050  -12.98724335
     atom   17 type  1   force =    -0.14008769   -0.66173827   32.26065890
     atom   18 type  1   force =    -2.24131531   -1.69682753   31.29263967
     atom   19 type  1   force =    -1.12836895    0.05274263   31.69806645
     atom   20 type  1   force =     1.01115193    0.86394675   32.41888637
     atom   21 type  1   force =     0.17399306   -1.94571127   32.03462026
     atom   22 type  1   force =    -2.23714971   -5.30490293   25.62158342
     atom   23 type  1   force =    -4.76071134    0.06302271   24.68994473
     atom   24 type  1   force =    -2.11329098    1.73154114   31.40461036
     atom   25 type  1   force =    -0.02608769    0.43266538   32.25588775
     atom   26 type  1   force =     2.91760008   -4.06794443   28.41184949
     atom   27 type  1   force =     1.27488942   -0.00855415   20.49436798
     atom   28 type  1   force =    -2.26231850    5.24405554   26.48521554
     atom   29 type  1   force =     0.01957509    1.75632099   32.08039685
     atom   30 type  1   force =     1.12821746   -0.96854164   32.14840491
     atom   31 type  1   force =     4.85833918    0.33653223   28.22851152
     atom   32 type  1   force =     3.17849669    3.98361523   28.83966161
     atom   33 type  1   force =    -0.05125774   -0.12677538  -39.08007589
     atom   34 type  1   force =    -0.56949523   -0.42794410  -39.19378590
     atom   35 type  1   force =    -0.28932638   -0.04255476  -39.24757898
     atom   36 type  1   force =     0.27290491    0.22243890  -39.08995529
     atom   37 type  1   force =    -0.01841959   -0.48719458  -39.20272737
     atom   38 type  1   force =    -0.41717008   -0.93189385  -40.31571903
     atom   39 type  1   force =    -0.90987053   -0.05706643  -40.68658592
     atom   40 type  1   force =    -0.52226370    0.40409005  -39.34403056
     atom   41 type  1   force =     0.05821832    0.12842742  -39.16753878
     atom   42 type  1   force =     0.64042481   -0.72197170  -40.20938740
     atom   43 type  1   force =     0.29431357    0.05131592  -41.17794021
     atom   44 type  1   force =    -0.25853742    0.97340945  -40.32985197
     atom   45 type  1   force =     0.01552640    0.50318027  -39.10192067
     atom   46 type  1   force =     0.32774883   -0.23270672  -39.01140998
     atom   47 type  1   force =     0.87984150   -0.02485747  -39.93813732
     atom   48 type  1   force =     0.55134682    0.76654119  -40.07735587
     atom   49 type  3   force =   -21.26478603    3.68474217   58.88365580
     atom   50 type  3   force =    -1.57386180  -20.68371968   58.08726969
     atom   51 type  3   force =    21.71548384   -2.58757228   61.20428376
     atom   52 type  3   force =     2.76695849   20.97880353   58.84654324
     atom   53 type  3   force =     7.93789130    2.05776594   63.43073828
     atom   54 type  4   force =     4.52329284    0.04034353   20.60741900
     atom   55 type  5   force =   -13.55030623   -2.95475985   24.80439974
     atom   56 type  6   force =     0.59258693    2.64629314    5.38003860
     atom   57 type  6   force =    -2.25249006    0.17373089    1.34053527
     atom   58 type  6   force =     1.41763504   -3.18330551    4.79815710
     The local contribution  to forces
     atom    1 type  2   force =     0.93939921    0.19611451    8.51239793
     atom    2 type  2   force =     0.97109234    1.15677938    8.88046817
     atom    3 type  2   force =    -1.91832135   -0.64714371    9.43442028
     atom    4 type  2   force =    -1.76414935   -1.72405216    9.23866595
     atom    5 type  2   force =     0.76013678    3.38451076   10.31677624
     atom    6 type  2   force =     3.92867875    3.11103781   14.36679447
     atom    7 type  2   force =     3.78432374   -1.11245724   12.05641282
     atom    8 type  2   force =     0.45939444   -0.22310047    8.34419446
     atom    9 type  2   force =    -1.12844880    2.54852110   10.29516975
     atom   10 type  2   force =    -1.18560278    3.57077352   19.41446088
     atom   11 type  2   force =     2.00172525   -2.17377912   20.48178346
     atom   12 type  2   force =     1.89575958   -2.98237935   10.55888915
     atom   13 type  2   force =    -0.52928134   -0.57633371    8.41996289
     atom   14 type  2   force =    -3.83093236    2.05548899   11.85585983
     atom   15 type  2   force =    -3.84589327   -1.89982185   17.30599065
     atom   16 type  2   force =    -0.56936250   -4.70567540   12.97917760
     atom   17 type  1   force =     0.13912409    0.66040398  -31.98635635
     atom   18 type  1   force =     2.23631964    1.69373597  -31.01796394
     atom   19 type  1   force =     1.12701161   -0.05266756  -31.42437752
     atom   20 type  1   force =    -1.00978501   -0.86302345  -32.14393934
     atom   21 type  1   force =    -0.17370467    1.94369211  -31.76057713
     atom   22 type  1   force =     2.22522438    5.28063159  -25.46468510
     atom   23 type  1   force =     4.76100965   -0.06088820  -24.50284085
     atom   24 type  1   force =     2.10997741   -1.72969040  -31.13098445
     atom   25 type  1   force =     0.02585438   -0.43169973  -31.98050791
     atom   26 type  1   force =    -2.92061011    4.05883524  -28.15540415
     atom   27 type  1   force =    -1.29167421    0.00203432  -20.26737520
     atom   28 type  1   force =     2.24319263   -5.22599039  -26.29240885
     atom   29 type  1   force =    -0.02041406   -1.75408897  -31.80704070
     atom   30 type  1   force =    -1.12597756    0.96699606  -31.87373896
     atom   31 type  1   force =    -4.83466786   -0.32540630  -28.01523896
     atom   32 type  1   force =    -3.16926459   -3.97528500  -28.59581311
     atom   33 type  1   force =     0.05147824    0.12650543   38.80466223
     atom   34 type  1   force =     0.56779151    0.42562614   38.91809585
     atom   35 type  1   force =     0.28781460    0.04301168   38.97222501
     atom   36 type  1   force =    -0.27213846   -0.22169272   38.81516177
     atom   37 type  1   force =     0.01798775    0.48532264   38.92794108
     atom   38 type  1   force =     0.41429181    0.92913289   40.03933409
     atom   39 type  1   force =     0.90748627    0.05641573   40.41034835
     atom   40 type  1   force =     0.52041706   -0.40250145   39.06973607
     atom   41 type  1   force =    -0.05851557   -0.12883064   38.89193825
     atom   42 type  1   force =    -0.63770784    0.71957049   39.93459453
     atom   43 type  1   force =    -0.29265420   -0.05074957   40.89910951
     atom   44 type  1   force =     0.25758295   -0.96900892   40.05326197
     atom   45 type  1   force =    -0.01500669   -0.50150926   38.82685706
     atom   46 type  1   force =    -0.32653232    0.23320162   38.73597694
     atom   47 type  1   force =    -0.87650566    0.02473856   39.66350333
     atom   48 type  1   force =    -0.54902556   -0.76483812   39.80287414
     atom   49 type  3   force =    21.44629756   -3.71522168  -58.81234590
     atom   50 type  3   force =     1.58552209   20.81275092  -58.00232070
     atom   51 type  3   force =   -21.90627299    2.60221689  -61.10139142
     atom   52 type  3   force =    -2.78383600  -21.11641179  -58.74468523
     atom   53 type  3   force =    -7.95859979   -2.08483366  -63.57365575
     atom   54 type  4   force =    -3.65384114    0.22813702  -21.50826469
     atom   55 type  5   force =    11.61631060    2.40550716  -23.32292477
     atom   56 type  6   force =    -0.58625171   -2.57518166   -5.31761983
     atom   57 type  6   force =     2.23955253   -0.15895702   -1.43912050
     atom   58 type  6   force =    -1.39109023    3.10871880   -4.76263568
     The core correction contribution to forces
     atom    1 type  2   force =     0.00025955   -0.00048964   -0.00037518
     atom    2 type  2   force =    -0.00015563    0.00035615   -0.00024272
     atom    3 type  2   force =     0.00079756    0.00078241   -0.00149975
     atom    4 type  2   force =     0.00075033    0.00026068   -0.00095125
     atom    5 type  2   force =     0.00021023   -0.00077876   -0.00060690
     atom    6 type  2   force =    -0.00028713    0.00076971   -0.00009489
     atom    7 type  2   force =     0.00051029   -0.00013720    0.00031918
     atom    8 type  2   force =    -0.00002401    0.00012230   -0.00061756
     atom    9 type  2   force =     0.00000861   -0.00005586   -0.00027198
     atom   10 type  2   force =    -0.00007234   -0.00142526    0.00039515
     atom   11 type  2   force =    -0.00121285    0.00050991    0.00110343
     atom   12 type  2   force =    -0.00068054    0.00050191   -0.00079326
     atom   13 type  2   force =    -0.00018235   -0.00017935   -0.00006095
     atom   14 type  2   force =    -0.00063534   -0.00026373    0.00047260
     atom   15 type  2   force =     0.00047308    0.00032308    0.00113500
     atom   16 type  2   force =     0.00025958   -0.00056074    0.00045798
     atom   17 type  1   force =    -0.00005247   -0.00000718    0.00196460
     atom   18 type  1   force =    -0.00015911   -0.00008397    0.00203949
     atom   19 type  1   force =    -0.00004849   -0.00005483    0.00197256
     atom   20 type  1   force =    -0.00000400    0.00000148    0.00199031
     atom   21 type  1   force =    -0.00003853   -0.00003561    0.00197239
     atom   22 type  1   force =    -0.00009307   -0.00041852   -0.00040188
     atom   23 type  1   force =     0.00004898    0.00006998   -0.00004064
     atom   24 type  1   force =    -0.00006723    0.00004277    0.00198184
     atom   25 type  1   force =     0.00005179    0.00002258    0.00198626
     atom   26 type  1   force =    -0.00002213   -0.00024203    0.00142914
     atom   27 type  1   force =    -0.00046209   -0.00006015    0.00111187
     atom   28 type  1   force =    -0.00030283    0.00037751    0.00019890
     atom   29 type  1   force =    -0.00002117    0.00009998    0.00197925
     atom   30 type  1   force =     0.00007976   -0.00003687    0.00200944
     atom   31 type  1   force =     0.00052101    0.00026233    0.00063847
     atom   32 type  1   force =     0.00016352    0.00019655    0.00123011
     atom   33 type  1   force =     0.00001673   -0.00000372   -0.00193209
     atom   34 type  1   force =    -0.00003150   -0.00005386   -0.00198908
     atom   35 type  1   force =     0.00000258    0.00003605   -0.00193387
     atom   36 type  1   force =     0.00001933    0.00002515   -0.00191735
     atom   37 type  1   force =     0.00000514   -0.00004331   -0.00192647
     atom   38 type  1   force =     0.00001031    0.00001110   -0.00197492
     atom   39 type  1   force =     0.00002965    0.00002691   -0.00198078
     atom   40 type  1   force =    -0.00005812    0.00000900   -0.00192230
     atom   41 type  1   force =    -0.00003620   -0.00001291   -0.00194792
     atom   42 type  1   force =    -0.00002445   -0.00003875   -0.00193352
     atom   43 type  1   force =     0.00000251   -0.00001131   -0.00220914
     atom   44 type  1   force =    -0.00002584    0.00001941   -0.00198814
     atom   45 type  1   force =     0.00001194    0.00001600   -0.00195967
     atom   46 type  1   force =     0.00003336    0.00000919   -0.00196702
     atom   47 type  1   force =     0.00004971    0.00003141   -0.00190578
     atom   48 type  1   force =     0.00002348    0.00000566   -0.00189416
     atom   49 type  3   force =     0.00424895   -0.00133299   -0.00310556
     atom   50 type  3   force =    -0.00144897    0.00369935   -0.00371729
     atom   51 type  3   force =    -0.00463973    0.00092667   -0.00153896
     atom   52 type  3   force =    -0.00175276   -0.00488811   -0.00188749
     atom   53 type  3   force =    -0.00260870   -0.00110492   -0.00382741
     atom   54 type  4   force =     0.01782284    0.00469072   -0.01221729
     atom   55 type  5   force =    -0.01882799   -0.00490459    0.01172937
     atom   56 type  6   force =     0.00000000    0.00000000    0.00000000
     atom   57 type  6   force =     0.00000000    0.00000000    0.00000000
     atom   58 type  6   force =     0.00000000    0.00000000    0.00000000
     The Hubbard contrib.    to forces
     atom    1 type  2   force =     0.00000000    0.00000000    0.00000000
     atom    2 type  2   force =     0.00000000    0.00000000    0.00000000
     atom    3 type  2   force =     0.00000000    0.00000000    0.00000000
     atom    4 type  2   force =     0.00000000    0.00000000    0.00000000
     atom    5 type  2   force =     0.00000000    0.00000000    0.00000000
     atom    6 type  2   force =     0.00000000    0.00000000    0.00000000
     atom    7 type  2   force =     0.00000000    0.00000000    0.00000000
     atom    8 type  2   force =     0.00000000    0.00000000    0.00000000
     atom    9 type  2   force =     0.00000000    0.00000000    0.00000000
     atom   10 type  2   force =     0.00000000    0.00000000    0.00000000
     atom   11 type  2   force =     0.00000000    0.00000000    0.00000000
     atom   12 type  2   force =     0.00000000    0.00000000    0.00000000
     atom   13 type  2   force =     0.00000000    0.00000000    0.00000000
     atom   14 type  2   force =     0.00000000    0.00000000    0.00000000
     atom   15 type  2   force =     0.00000000    0.00000000    0.00000000
     atom   16 type  2   force =     0.00000000    0.00000000    0.00000000
     atom   17 type  1   force =     0.00000000    0.00000000    0.00000000
     atom   18 type  1   force =     0.00000000    0.00000000    0.00000000
     atom   19 type  1   force =     0.00000000    0.00000000    0.00000000
     atom   20 type  1   force =     0.00000000    0.00000000    0.00000000
     atom   21 type  1   force =     0.00000000    0.00000000    0.00000000
     atom   22 type  1   force =     0.00000000    0.00000000    0.00000000
     atom   23 type  1   force =     0.00000000    0.00000000    0.00000000
     atom   24 type  1   force =     0.00000000    0.00000000    0.00000000
     atom   25 type  1   force =     0.00000000    0.00000000    0.00000000
     atom   26 type  1   force =     0.00000000    0.00000000    0.00000000
     atom   27 type  1   force =     0.00000000    0.00000000    0.00000000
     atom   28 type  1   force =     0.00000000    0.00000000    0.00000000
     atom   29 type  1   force =     0.00000000    0.00000000    0.00000000
     atom   30 type  1   force =     0.00000000    0.00000000    0.00000000
     atom   31 type  1   force =     0.00000000    0.00000000    0.00000000
     atom   32 type  1   force =     0.00000000    0.00000000    0.00000000
     atom   33 type  1   force =     0.00000000    0.00000000    0.00000000
     atom   34 type  1   force =     0.00000000    0.00000000    0.00000000
     atom   35 type  1   force =     0.00000000    0.00000000    0.00000000
     atom   36 type  1   force =     0.00000000    0.00000000    0.00000000
     atom   37 type  1   force =     0.00000000    0.00000000    0.00000000
     atom   38 type  1   force =     0.00000000    0.00000000    0.00000000
     atom   39 type  1   force =     0.00000000    0.00000000    0.00000000
     atom   40 type  1   force =     0.00000000    0.00000000    0.00000000
     atom   41 type  1   force =     0.00000000    0.00000000    0.00000000
     atom   42 type  1   force =     0.00000000    0.00000000    0.00000000
     atom   43 type  1   force =     0.00000000    0.00000000    0.00000000
     atom   44 type  1   force =     0.00000000    0.00000000    0.00000000
     atom   45 type  1   force =     0.00000000    0.00000000    0.00000000
     atom   46 type  1   force =     0.00000000    0.00000000    0.00000000
     atom   47 type  1   force =     0.00000000    0.00000000    0.00000000
     atom   48 type  1   force =     0.00000000    0.00000000    0.00000000
     atom   49 type  3   force =     0.00000000    0.00000000    0.00000000
     atom   50 type  3   force =     0.00000000    0.00000000    0.00000000
     atom   51 type  3   force =     0.00000000    0.00000000    0.00000000
     atom   52 type  3   force =     0.00000000    0.00000000    0.00000000
     atom   53 type  3   force =     0.00000000    0.00000000    0.00000000
     atom   54 type  4   force =     0.00000000    0.00000000    0.00000000
     atom   55 type  5   force =     0.00000000    0.00000000    0.00000000
     atom   56 type  6   force =     0.00000000    0.00000000    0.00000000
     atom   57 type  6   force =     0.00000000    0.00000000    0.00000000
     atom   58 type  6   force =     0.00000000    0.00000000    0.00000000
     The SCF correction term to forces
     atom    1 type  2   force =     0.00000085    0.00000139   -0.00000064
     atom    2 type  2   force =    -0.00000027   -0.00000032   -0.00000048
     atom    3 type  2   force =     0.00000516    0.00000071   -0.00000090
     atom    4 type  2   force =     0.00000539    0.00000452   -0.00000049
     atom    5 type  2   force =     0.00000154   -0.00000352   -0.00000063
     atom    6 type  2   force =    -0.00000388   -0.00000286   -0.00000144
     atom    7 type  2   force =    -0.00000313    0.00000197   -0.00000097
     atom    8 type  2   force =     0.00000157    0.00000225   -0.00000011
     atom    9 type  2   force =     0.00000025   -0.00000376   -0.00000045
     atom   10 type  2   force =     0.00000014   -0.00000798   -0.00000178
     atom   11 type  2   force =    -0.00000644    0.00000158   -0.00000230
     atom   12 type  2   force =    -0.00000515    0.00000336   -0.00000065
     atom   13 type  2   force =    -0.00000223    0.00000080   -0.00000064
     atom   14 type  2   force =     0.00000404   -0.00000515   -0.00000083
     atom   15 type  2   force =     0.00000403    0.00000051   -0.00000176
     atom   16 type  2   force =    -0.00000182    0.00000583   -0.00000105
     atom   17 type  1   force =     0.00000101    0.00000037   -0.00000121
     atom   18 type  1   force =    -0.00000073   -0.00000033   -0.00000097
     atom   19 type  1   force =     0.00000021    0.00000009   -0.00000132
     atom   20 type  1   force =     0.00000188    0.00000122   -0.00000134
     atom   21 type  1   force =     0.00000055   -0.00000084   -0.00000251
     atom   22 type  1   force =    -0.00000083   -0.00000273   -0.00000008
     atom   23 type  1   force =    -0.00000240    0.00000016   -0.00000044
     atom   24 type  1   force =    -0.00000130    0.00000113   -0.00000216
     atom   25 type  1   force =    -0.00000118    0.00000044   -0.00000196
     atom   26 type  1   force =     0.00000143   -0.00000311   -0.00000049
     atom   27 type  1   force =    -0.00000062   -0.00000068    0.00000227
     atom   28 type  1   force =    -0.00000203    0.00000193    0.00000021
     atom   29 type  1   force =    -0.00000041    0.00000151   -0.00000052
     atom   30 type  1   force =     0.00000013   -0.00000046   -0.00000128
     atom   31 type  1   force =     0.00000267   -0.00000113    0.00000082
     atom   32 type  1   force =     0.00000144    0.00000235    0.00000133
     atom   33 type  1   force =     0.00000097    0.00000045    0.00000083
     atom   34 type  1   force =    -0.00000051   -0.00000012    0.00000050
     atom   35 type  1   force =     0.00000039    0.00000009    0.00000082
     atom   36 type  1   force =     0.00000176    0.00000109    0.00000099
     atom   37 type  1   force =     0.00000053   -0.00000065    0.00000217
     atom   38 type  1   force =    -0.00000080   -0.00000228   -0.00000064
     atom   39 type  1   force =    -0.00000206    0.00000014   -0.00000058
     atom   40 type  1   force =    -0.00000100    0.00000084    0.00000165
     atom   41 type  1   force =    -0.00000112    0.00000038    0.00000158
     atom   42 type  1   force =     0.00000123   -0.00000270   -0.00000008
     atom   43 type  1   force =    -0.00000074   -0.00000060   -0.00000339
     atom   44 type  1   force =    -0.00000192    0.00000149   -0.00000098
     atom   45 type  1   force =    -0.00000037    0.00000134    0.00000015
     atom   46 type  1   force =     0.00000006   -0.00000035    0.00000093
     atom   47 type  1   force =     0.00000241   -0.00000114   -0.00000137
     atom   48 type  1   force =     0.00000120    0.00000207   -0.00000193
     atom   49 type  3   force =    -0.00000102   -0.00000010   -0.00000012
     atom   50 type  3   force =    -0.00000048   -0.00000186    0.00000047
     atom   51 type  3   force =     0.00000156   -0.00000077    0.00000097
     atom   52 type  3   force =    -0.00000036    0.00000114    0.00000133
     atom   53 type  3   force =     0.00000004   -0.00000011    0.00000110
     atom   54 type  4   force =     0.00000001   -0.00000008    0.00000049
     atom   55 type  5   force =    -0.00000014   -0.00000015    0.00000066
     atom   56 type  6   force =    -0.00000000    0.00000001    0.00000008
     atom   57 type  6   force =    -0.00000005   -0.00000003    0.00000009
     atom   58 type  6   force =     0.00000000   -0.00000003    0.00000007

     DFT-D3 dispersion contribution to forces:
     atom    1 type  2   force =     0.00014031    0.00003170    0.00039726
     atom    2 type  2   force =     0.00011260    0.00016977    0.00049315
     atom    3 type  2   force =    -0.00045772   -0.00014014    0.00073665
     atom    4 type  2   force =    -0.00035295   -0.00038082    0.00063735
     atom    5 type  2   force =     0.00018456    0.00071942    0.00098282
     atom    6 type  2   force =     0.00101634    0.00070834    0.00248502
     atom    7 type  2   force =     0.00083702   -0.00018965    0.00138816
     atom    8 type  2   force =     0.00007453   -0.00002448    0.00022410
     atom    9 type  2   force =    -0.00025652    0.00054450    0.00078165
     atom   10 type  2   force =    -0.00005516    0.00100398    0.00259840
     atom   11 type  2   force =     0.00046685   -0.00069246    0.00379146
     atom   12 type  2   force =     0.00046894   -0.00064419    0.00104804
     atom   13 type  2   force =    -0.00004338   -0.00010702    0.00032927
     atom   14 type  2   force =    -0.00088235    0.00050354    0.00164640
     atom   15 type  2   force =    -0.00104027   -0.00052512    0.00341125
     atom   16 type  2   force =    -0.00015262   -0.00106690    0.00182869
     atom   17 type  1   force =     0.00008279    0.00024615   -0.00058044
     atom   18 type  1   force =     0.00080071    0.00058359   -0.00020457
     atom   19 type  1   force =     0.00034073   -0.00000721   -0.00034468
     atom   20 type  1   force =    -0.00035858   -0.00030556   -0.00058909
     atom   21 type  1   force =    -0.00006592    0.00064879   -0.00050851
     atom   22 type  1   force =     0.00016659    0.00115437   -0.00009421
     atom   23 type  1   force =     0.00134310   -0.00001089   -0.00027698
     atom   24 type  1   force =     0.00076528   -0.00060201   -0.00019086
     atom   25 type  1   force =     0.00005611   -0.00016156   -0.00059738
     atom   26 type  1   force =     0.00019349   -0.00024354   -0.00148288
     atom   27 type  1   force =    -0.00090466    0.00042985   -0.00274596
     atom   28 type  1   force =    -0.00021978   -0.00099883   -0.00033722
     atom   29 type  1   force =    -0.00005000   -0.00061174   -0.00054836
     atom   30 type  1   force =    -0.00043458    0.00032398   -0.00054743
     atom   31 type  1   force =    -0.00045832    0.00017237   -0.00112746
     atom   32 type  1   force =     0.00060185   -0.00057232   -0.00103946
     atom   33 type  1   force =     0.00001542    0.00001594    0.00095744
     atom   34 type  1   force =     0.00002742    0.00000324    0.00098754
     atom   35 type  1   force =    -0.00000980    0.00000171    0.00096885
     atom   36 type  1   force =     0.00001033    0.00001019    0.00093951
     atom   37 type  1   force =    -0.00001751   -0.00003641    0.00096603
     atom   38 type  1   force =     0.00000252    0.00001106    0.00119945
     atom   39 type  1   force =     0.00002159   -0.00001393    0.00120935
     atom   40 type  1   force =    -0.00003531    0.00001515    0.00097713
     atom   41 type  1   force =    -0.00000308   -0.00001634    0.00095927
     atom   42 type  1   force =    -0.00000789    0.00003142    0.00112346
     atom   43 type  1   force =     0.00000900    0.00001039    0.00143328
     atom   44 type  1   force =     0.00001666   -0.00002403    0.00118958
     atom   45 type  1   force =     0.00000591   -0.00000586    0.00097139
     atom   46 type  1   force =     0.00000649    0.00001492    0.00096223
     atom   47 type  1   force =    -0.00001250    0.00000469    0.00111201
     atom   48 type  1   force =    -0.00002887   -0.00002271    0.00111743
     atom   49 type  3   force =    -0.00086224    0.00011952   -0.00785415
     atom   50 type  3   force =    -0.00241255   -0.00340223   -0.00548133
     atom   51 type  3   force =     0.00139287    0.00051102   -0.00557373
     atom   52 type  3   force =    -0.00097652    0.00272403   -0.00647162
     atom   53 type  3   force =     0.00118481    0.00018572   -0.00196611
     atom   54 type  4   force =     0.00009531    0.00007659   -0.00073770
     atom   55 type  5   force =    -0.00030110    0.00005823   -0.00098477
     atom   56 type  6   force =     0.00005360    0.00013202    0.00020924
     atom   57 type  6   force =    -0.00020829   -0.00013897    0.00008404
     atom   58 type  6   force =     0.00011474   -0.00022126    0.00013799

     Total force =     0.031737     Total SCF correction =     0.000025

     DFT-D3 dispersion Force =     0.017433


     Computing stress (Cartesian axis) and pressure


     negative rho (up, down):  4.796E-03 5.163E-03
          total   stress  (Ry/bohr**3)                   (kbar)     P=       -1.44
  -0.00000827  -0.00000050   0.00000083           -1.22       -0.07        0.12
  -0.00000050  -0.00000998   0.00000042           -0.07       -1.47        0.06
   0.00000083   0.00000042  -0.00001110            0.12        0.06       -1.63

     kinetic stress (kbar)   7256.46     -1.17     -9.63
                               -1.17   7273.13     -0.37
                               -9.63     -0.37   7301.75

     local   stress (kbar)-135465.96    -64.76    519.70
                              -64.76-134007.84    219.27
                              519.70    219.27 134101.60

     nonloc. stress (kbar)  -1419.37     -0.13      0.31
                               -0.13  -1420.51      0.32
                                0.31      0.32  -1427.40

     hartree stress (kbar)  68218.54     29.73   -249.90
                               29.73  67561.65   -102.64
                             -249.90   -102.64 -63301.36

     exc-cor stress (kbar)   2000.75      0.01      0.01
                                0.01   2000.31     -0.04
                                0.01     -0.04   2000.27

     corecor stress (kbar)  -3626.56      0.04      0.05
                                0.04  -3626.82      0.01
                                0.05      0.01  -3627.24

     ewald   stress (kbar)  63039.19     36.19   -260.38
                               36.19  62222.83   -116.50
                             -260.38   -116.50 -75046.70

     hubbard stress (kbar)      0.00      0.00      0.00
                                0.00      0.00      0.00
                                0.00      0.00      0.00

     DFT-D   stress (kbar)     -4.26      0.02     -0.04
                                0.02     -4.22      0.01
                               -0.04      0.01     -2.55

     XDM     stress (kbar)      0.00      0.00      0.00
                                0.00      0.00      0.00
                                0.00      0.00      0.00

     dft-nl  stress (kbar)      0.00      0.00      0.00
                                0.00      0.00      0.00
                                0.00      0.00      0.00

     TS-vdW  stress (kbar)      0.00      0.00      0.00
                                0.00      0.00      0.00
                                0.00      0.00      0.00

     MDB     stress (kbar)      0.00      0.00      0.00
                                0.00      0.00      0.00
                                0.00      0.00      0.00

     3D-RISM stress (kbar)      0.00      0.00      0.00
                                0.00      0.00      0.00
                                0.00      0.00      0.00


     Writing all to output data dir ./Ag-WS2-H2NOH.save/ :
     XML data file, charge density, pseudopotentials, collected wavefunctions

     init_run     :    181.16s CPU    184.77s WALL (       1 calls)
     electrons    :  16204.75s CPU  16504.58s WALL (       1 calls)
     forces       :     45.86s CPU     47.42s WALL (       1 calls)
     force_dftd3  :      0.13s CPU      0.16s WALL (       1 calls)
     stress       :    162.49s CPU    166.87s WALL (       1 calls)
     stres_dftd3  :      0.15s CPU      0.17s WALL (       1 calls)

     Called by init_run:
     wfcinit      :    173.11s CPU    176.08s WALL (       1 calls)
     wfcinit:atom :      0.79s CPU      0.81s WALL (      26 calls)
     wfcinit:wfcr :    168.40s CPU    171.25s WALL (      26 calls)
     potinit      :      2.70s CPU      2.83s WALL (       1 calls)
     hinit0       :      1.49s CPU      1.58s WALL (       1 calls)

     Called by electrons:
     c_bands      :  13996.30s CPU  14232.14s WALL (      45 calls)
     sum_band     :   2050.37s CPU   2097.59s WALL (      45 calls)
     v_of_rho     :     26.53s CPU     27.93s WALL (      45 calls)
     v_h          :      1.27s CPU      1.42s WALL (      45 calls)
     v_xc         :     26.41s CPU     27.72s WALL (      47 calls)
     newd         :     74.30s CPU     88.27s WALL (      45 calls)
     PAW_pot      :     49.77s CPU     50.34s WALL (      45 calls)
     mix_rho      :      6.72s CPU      7.12s WALL (      45 calls)
     energy_dftd3 :      0.06s CPU      0.06s WALL (       1 calls)

     Called by c_bands:
     init_us_2    :    162.18s CPU    165.89s WALL (    2418 calls)
     cegterg      :  13780.44s CPU  14012.11s WALL (    1170 calls)

     Called by sum_band:
     sum_band:wei :      0.01s CPU      0.01s WALL (      45 calls)
     sum_band:loo :   1913.49s CPU   1942.38s WALL (      45 calls)
     sum_band:buf :     14.33s CPU     14.61s WALL (    1170 calls)
     sum_band:ini :     77.84s CPU     79.55s WALL (    1170 calls)
     sum_band:cal :    396.71s CPU    407.99s WALL (    1170 calls)
     sum_band:bec :      5.10s CPU      5.18s WALL (    1170 calls)
     addusdens    :    132.04s CPU    150.00s WALL (      45 calls)
                                        0.00s GPU  (      45 calls)
     addusd:skk   :      2.13s CPU      2.27s WALL (     270 calls)
                                        0.00s GPU  (     270 calls)

     Called by *egterg:
     cdiaghg      :    690.38s CPU    716.86s WALL (    8054 calls)
     cegterg:over :    745.21s CPU    763.24s WALL (    6910 calls)
     cegterg:upda :    342.47s CPU    348.41s WALL (    6910 calls)
     cegterg:last :    700.72s CPU    712.83s WALL (    2511 calls)
     cdiaghg:chol :     57.89s CPU     58.48s WALL (    8054 calls)
     cdiaghg:inve :     10.17s CPU     10.29s WALL (    8054 calls)
     cdiaghg:para :    195.56s CPU    210.26s WALL (   16108 calls)
     h_psi        :  10293.47s CPU  10441.50s WALL (    8106 calls)
     s_psi        :    913.76s CPU    923.97s WALL (    8106 calls)
     g_psi        :     13.09s CPU     13.50s WALL (    6910 calls)

     Called by h_psi:
     h_psi:calbec :   1226.94s CPU   1260.41s WALL (    8106 calls)
     vloc_psi     :   8105.48s CPU   8206.32s WALL (    8106 calls)
     add_vuspsi   :    923.90s CPU    935.19s WALL (    8106 calls)

     General routines
     calbec       :   1772.73s CPU   1821.69s WALL (    9718 calls)
     fft          :     27.26s CPU     29.27s WALL (    1165 calls)
     ffts         :      2.16s CPU      2.32s WALL (     180 calls)
     fftw         :   8779.16s CPU   8880.05s WALL ( 1713710 calls)
     interpolate  :      3.61s CPU      3.84s WALL (      90 calls)

     Parallel routines

     PAW routines
     PAW_pot      :     49.77s CPU     50.34s WALL (      45 calls)

     PWSCF        :  16605.43s CPU  16955.07s WALL


   This run was terminated on:  19:28: 1  31Jul2026            

=------------------------------------------------------------------------------=
   JOB DONE.
=------------------------------------------------------------------------------=
